=====  Lamina Data Output File  ================================================
Generated on February 03, 2014  9:06 PM by Co-Blade v2.0.0_rc1 
This line is for user comments. 

================================================================================
sec        =  1      
zSec       =  0.0000  (m)
nPanelsTop =  1      
nPanelsBot =  1      
nWebs      =  0      

    Top:  panel  nNode   nLam     xc_St    xc_End         b         t         E_eff         G_eff      nu_eff     density  buckleCrit
            (-)    (-)    (-)       (-)       (-)       (m)       (m)          (Pa)          (Pa)         (-)    (kg/m^3)         (-)
              1     51      3    0.0000    1.0000    1.1943    0.0529   3.1848e+010   4.0808e+009      0.2487   1754.6346      0.0182

            panel:  1     
           lam_num    nPlies        tPly      fibAng     matID  matName
               (-)       (-)         (m)       (deg)       (-)  (-)
                 1         1    0.006094      0.0000         2  (blade-shell)
                 2         1    0.040665      0.0000         1  (blade-root)
                 3         1    0.006094      0.0000         2  (blade-shell)

               lamina:  1     
              matName:  (blade-shell)
                     s           e11           e22           e12           s11           s22           s12   s11_fcT   s11_fcC   s22_fcT   s22_fcC   s12_fcS
                   (m)         (m/m)         (m/m)         (rad)          (Pa)          (Pa)          (Pa)       (-)       (-)       (-)       (-)       (-)
                0.0000  -1.7700e-004   3.8842e-005   1.4011e-003  -3.3581e+006   3.0921e+005   5.5343e+006    0.0000    0.0068    0.0009   -0.0000    0.0481
                0.0097  -2.4098e-004   5.4755e-005   1.3974e-003  -4.5673e+006   4.5755e+005   5.5196e+006    0.0000    0.0092    0.0014   -0.0000    0.0480
                0.0384  -4.4042e-004   1.0366e-004   1.3813e-003  -8.3382e+006   9.0627e+005   5.4562e+006    0.0000    0.0168    0.0027   -0.0000    0.0474
                0.0716  -6.9949e-004   1.6540e-004   1.3533e-003  -1.3241e+007   1.4543e+006   5.3454e+006    0.0000    0.0266    0.0043   -0.0000    0.0465
                0.0921  -8.7886e-004   2.0679e-004   1.3310e-003  -1.6639e+007   1.8073e+006   5.2575e+006    0.0000    0.0335    0.0054   -0.0000    0.0457
                0.1197  -1.0840e-003   2.5589e-004   1.2951e-003  -2.0521e+007   2.2454e+006   5.1157e+006    0.0000    0.0413    0.0067   -0.0000    0.0445
                0.1422  -1.2718e-003   2.9931e-004   1.2610e-003  -2.4078e+007   2.6166e+006   4.9810e+006    0.0000    0.0484    0.0078   -0.0000    0.0433
                0.1665  -1.4364e-003   3.3894e-004   1.2195e-003  -2.7193e+007   2.9726e+006   4.8170e+006    0.0000    0.0547    0.0088   -0.0000    0.0419
                0.1924  -1.6317e-003   3.8479e-004   1.1698e-003  -3.0890e+007   3.3722e+006   4.6209e+006    0.0000    0.0622    0.0100   -0.0000    0.0402
                0.2140  -1.7904e-003   4.2148e-004   1.1246e-003  -3.3897e+007   3.6858e+006   4.4420e+006    0.0000    0.0682    0.0109   -0.0000    0.0386
                0.2392  -1.9444e-003   4.5863e-004   1.0672e-003  -3.6811e+007   4.0203e+006   4.2154e+006    0.0000    0.0741    0.0119   -0.0000    0.0367
                0.2629  -2.1045e-003   4.9587e-004   1.0094e-003  -3.9842e+007   4.3414e+006   3.9870e+006    0.0000    0.0802    0.0129   -0.0000    0.0347
                0.2866  -2.2366e-003   5.2731e-004   9.4796e-004  -4.2342e+007   4.6200e+006   3.7444e+006    0.0000    0.0852    0.0137   -0.0000    0.0326
                0.3114  -2.3813e-003   5.6149e-004   8.7951e-004  -4.5082e+007   4.9200e+006   3.4741e+006    0.0000    0.0907    0.0146   -0.0000    0.0302
                0.3340  -2.5044e-003   5.8994e-004   8.1441e-004  -4.7414e+007   5.1630e+006   3.2169e+006    0.0000    0.0954    0.0153   -0.0000    0.0280
                0.3587  -2.6104e-003   6.1558e-004   7.4006e-004  -4.9419e+007   5.3946e+006   2.9232e+006    0.0000    0.0994    0.0160   -0.0000    0.0254
                0.3827  -2.7253e-003   6.4240e-004   6.6522e-004  -5.1595e+007   5.6267e+006   2.6276e+006    0.0000    0.1038    0.0167   -0.0000    0.0228
                0.4058  -2.8119e-003   6.6263e-004   5.9054e-004  -5.3234e+007   5.8021e+006   2.3326e+006    0.0000    0.1071    0.0172   -0.0000    0.0203
                0.4305  -2.8953e-003   6.8260e-004   5.0905e-004  -5.4813e+007   5.9803e+006   2.0108e+006    0.0000    0.1103    0.0177   -0.0000    0.0175
                0.4537  -2.9678e-003   6.9943e-004   4.3029e-004  -5.6186e+007   6.1249e+006   1.6996e+006    0.0000    0.1130    0.0182   -0.0000    0.0148
                0.4781  -3.0202e-003   7.1202e-004   3.4614e-004  -5.7177e+007   6.2378e+006   1.3672e+006    0.0000    0.1150    0.0185   -0.0000    0.0119
                0.5020  -3.0773e-003   7.2544e-004   2.6271e-004  -5.8257e+007   6.3550e+006   1.0377e+006    0.0000    0.1172    0.0189   -0.0000    0.0090
                0.5251  -3.1052e-003   7.3181e-004   1.8129e-004  -5.8786e+007   6.4086e+006   7.1609e+005    0.0000    0.1183    0.0190   -0.0000    0.0062
                0.5498  -3.1270e-003   7.3711e-004   9.3566e-005  -5.9200e+007   6.4566e+006   3.6959e+005    0.0000    0.1191    0.0192   -0.0000    0.0032
                0.5732  -3.1406e-003   7.4032e-004   1.0453e-005  -5.9457e+007   6.4847e+006   4.1291e+004    0.0000    0.1196    0.0192   -0.0000    0.0004
                0.5972  -3.1327e-003   7.3837e-004   7.4608e-005  -5.9306e+007   6.4669e+006   2.9470e+005    0.0000    0.1193    0.0192   -0.0000    0.0026
                0.6212  -3.1232e-003   7.3619e-004   1.5913e-004  -5.9127e+007   6.4483e+006   6.2854e+005    0.0000    0.1190    0.0191   -0.0000    0.0055
                0.6445  -3.0912e-003   7.2871e-004   2.4067e-004  -5.8521e+007   6.3835e+006   9.5063e+005    0.0000    0.1177    0.0189   -0.0000    0.0083
                0.6693  -3.0532e-003   7.1950e-004   3.2561e-004  -5.7802e+007   6.3001e+006   1.2862e+006    0.0000    0.1163    0.0187   -0.0000    0.0112
                0.6923  -3.0072e-003   7.0893e-004   4.0342e-004  -5.6931e+007   6.2104e+006   1.5935e+006    0.0000    0.1145    0.0184   -0.0000    0.0139
                0.7162  -2.9326e-003   6.9142e-004   4.8209e-004  -5.5518e+007   6.0578e+006   1.9042e+006    0.0000    0.1117    0.0180   -0.0000    0.0166
                0.7406  -2.8646e-003   6.7507e-004   5.6031e-004  -5.4232e+007   5.9111e+006   2.2132e+006    0.0000    0.1091    0.0175   -0.0000    0.0192
                0.7639  -2.7752e-003   6.5430e-004   6.3246e-004  -5.2538e+007   5.7327e+006   2.4982e+006    0.0000    0.1057    0.0170   -0.0000    0.0217
                0.7885  -2.6765e-003   6.3071e-004   7.0593e-004  -5.0672e+007   5.5223e+006   2.7884e+006    0.0000    0.1020    0.0164   -0.0000    0.0242
                0.8116  -2.5746e-003   6.0686e-004   7.7216e-004  -4.8741e+007   5.3154e+006   3.0500e+006    0.0000    0.0981    0.0158   -0.0000    0.0265
                0.8356  -2.4445e-003   5.7650e-004   8.3736e-004  -4.6277e+007   5.0527e+006   3.3076e+006    0.0000    0.0931    0.0150   -0.0000    0.0288
                0.8603  -2.3255e-003   5.4773e-004   9.0084e-004  -4.4027e+007   4.7928e+006   3.5583e+006    0.0000    0.0886    0.0142   -0.0000    0.0309
                0.8829  -2.1885e-003   5.1605e-004   9.5525e-004  -4.1432e+007   4.5221e+006   3.7732e+006    0.0000    0.0834    0.0134   -0.0000    0.0328
                0.9078  -2.0312e-003   4.7891e-004   1.0111e-003  -3.8453e+007   4.1963e+006   3.9938e+006    0.0000    0.0774    0.0125   -0.0000    0.0347
                0.9314  -1.8878e-003   4.4478e-004   1.0598e-003  -3.5739e+007   3.8937e+006   4.1862e+006    0.0000    0.0719    0.0116   -0.0000    0.0364
                0.9551  -1.7165e-003   4.0491e-004   1.1042e-003  -3.2494e+007   3.5500e+006   4.3617e+006    0.0000    0.0654    0.0105   -0.0000    0.0379
                0.9804  -1.5531e-003   3.6552e-004   1.1466e-003  -2.9405e+007   3.1953e+006   4.5291e+006    0.0000    0.0592    0.0095   -0.0000    0.0394
                1.0019  -1.3850e-003   3.2664e-004   1.1786e-003  -2.6219e+007   2.8629e+006   4.6554e+006    0.0000    0.0528    0.0085   -0.0000    0.0405
                1.0279  -1.1815e-003   2.7887e-004   1.2117e-003  -2.2366e+007   2.4466e+006   4.7861e+006    0.0000    0.0450    0.0073   -0.0000    0.0416
                1.0521  -1.0103e-003   2.3765e-004   1.2372e-003  -1.9127e+007   2.0764e+006   4.8870e+006    0.0000    0.0385    0.0062   -0.0000    0.0425
                1.0746  -8.1620e-004   1.9277e-004   1.2562e-003  -1.5451e+007   1.6926e+006   4.9618e+006    0.0000    0.0311    0.0050   -0.0000    0.0431
                1.1023  -6.0627e-004   1.4253e-004   1.2730e-003  -1.1479e+007   1.2444e+006   5.0285e+006    0.0000    0.0231    0.0037   -0.0000    0.0437
                1.1227  -4.2292e-004   1.0021e-004   1.2810e-003  -8.0052e+006   8.8339e+005   5.0599e+006    0.0000    0.0161    0.0026   -0.0000    0.0440
                1.1559  -1.6112e-004   3.7826e-005   1.2855e-003  -3.0507e+006   3.2966e+005   5.0778e+006    0.0000    0.0061    0.0010   -0.0000    0.0442
                1.1846   4.5266e-005  -1.2444e-005   1.2811e-003   8.5246e+005  -1.2811e+005   5.0604e+006    0.0025   -0.0000    0.0000    0.0004    0.0440
                1.1943   1.0972e-004  -2.8476e-005   1.2779e-003   2.0706e+006  -2.7756e+005   5.0476e+006    0.0061   -0.0000    0.0000    0.0008    0.0439

               lamina:  2     
              matName:  (blade-root)
                     s           e11           e22           e12           s11           s22           s12   s11_fcT   s11_fcC   s22_fcT   s22_fcC   s12_fcS
                   (m)         (m/m)         (m/m)         (rad)          (Pa)          (Pa)          (Pa)       (-)       (-)       (-)       (-)       (-)
                0.0000  -1.5865e-004   3.5474e-005   1.4011e-003  -5.6798e+006  -1.4431e+005   5.7725e+006    0.0000    0.0072    0.0000    0.0028    0.0515
                0.0097  -2.2263e-004   5.1387e-005   1.3974e-003  -7.9658e+006  -1.8877e+005   5.7572e+006    0.0000    0.0101    0.0000    0.0037    0.0514
                0.0384  -4.1959e-004   9.9835e-005   1.3813e-003  -1.5005e+007  -3.3024e+005   5.6911e+006    0.0000    0.0190    0.0000    0.0064    0.0508
                0.0716  -6.6912e-004   1.5982e-004   1.3533e-003  -2.3926e+007  -5.2134e+005   5.5755e+006    0.0000    0.0304    0.0000    0.0102    0.0498
                0.0921  -8.3709e-004   1.9912e-004   1.3310e-003  -2.9934e+007  -6.5923e+005   5.4838e+006    0.0000    0.0380    0.0000    0.0129    0.0490
                0.1197  -1.0354e-003   2.4697e-004   1.2951e-003  -3.7025e+007  -8.0971e+005   5.3358e+006    0.0000    0.0470    0.0000    0.0158    0.0476
                0.1422  -1.2116e-003   2.8826e-004   1.2610e-003  -4.3326e+007  -9.5371e+005   5.1954e+006    0.0000    0.0550    0.0000    0.0186    0.0464
                0.1665  -1.3715e-003   3.2703e-004   1.2195e-003  -4.9044e+007  -1.0735e+006   5.0243e+006    0.0000    0.0622    0.0000    0.0210    0.0449
                0.1924  -1.5572e-003   3.7111e-004   1.1698e-003  -5.5683e+007  -1.2204e+006   4.8198e+006    0.0000    0.0707    0.0000    0.0238    0.0430
                0.2140  -1.7061e-003   4.0599e-004   1.1246e-003  -6.1008e+007  -1.3422e+006   4.6332e+006    0.0000    0.0774    0.0000    0.0262    0.0414
                0.2392  -1.8560e-003   4.4239e-004   1.0672e-003  -6.6367e+007  -1.4540e+006   4.3969e+006    0.0000    0.0842    0.0000    0.0284    0.0393
                0.2629  -2.0069e-003   4.7797e-004   1.0094e-003  -7.1767e+007  -1.5757e+006   4.1586e+006    0.0000    0.0911    0.0000    0.0308    0.0371
                0.2866  -2.1340e-003   5.0849e-004   9.4796e-004  -7.6311e+007  -1.6733e+006   3.9056e+006    0.0000    0.0968    0.0000    0.0327    0.0349
                0.3114  -2.2723e-003   5.4148e-004   8.7951e-004  -8.1256e+007  -1.7814e+006   3.6236e+006    0.0000    0.1031    0.0000    0.0348    0.0324
                0.3340  -2.3877e-003   5.6851e-004   8.1441e-004  -8.5384e+007  -1.8759e+006   3.3554e+006    0.0000    0.1084    0.0000    0.0366    0.0300
                0.3587  -2.4912e-003   5.9368e-004   7.4006e-004  -8.9081e+007  -1.9525e+006   3.0491e+006    0.0000    0.1130    0.0000    0.0381    0.0272
                0.3827  -2.5999e-003   6.1936e-004   6.6522e-004  -9.2968e+007  -2.0396e+006   2.7407e+006    0.0000    0.1180    0.0000    0.0398    0.0245
                0.4058  -2.6818e-003   6.3875e-004   5.9054e-004  -9.5899e+007  -2.1050e+006   2.4330e+006    0.0000    0.1217    0.0000    0.0411    0.0217
                0.4305  -2.7625e-003   6.5822e-004   5.0905e-004  -9.8784e+007  -2.1663e+006   2.0973e+006    0.0000    0.1254    0.0000    0.0423    0.0187
                0.4537  -2.8307e-003   6.7426e-004   4.3029e-004  -1.0122e+008  -2.2216e+006   1.7728e+006    0.0000    0.1285    0.0000    0.0434    0.0158
                0.4781  -2.8816e-003   6.8656e-004   3.4614e-004  -1.0304e+008  -2.2598e+006   1.4261e+006    0.0000    0.1308    0.0000    0.0441    0.0127
                0.5020  -2.9359e-003   6.9948e-004   2.6271e-004  -1.0498e+008  -2.3026e+006   1.0824e+006    0.0000    0.1332    0.0000    0.0450    0.0097
                0.5251  -2.9618e-003   7.0549e-004   1.8129e-004  -1.0591e+008  -2.3244e+006   7.4691e+005    0.0000    0.1344    0.0000    0.0454    0.0067
                0.5498  -2.9832e-003   7.1070e-004   9.3566e-005  -1.0667e+008  -2.3401e+006   3.8549e+005    0.0000    0.1354    0.0000    0.0457    0.0034
                0.5732  -2.9961e-003   7.1379e-004   1.0453e-005  -1.0714e+008  -2.3503e+006   4.3068e+004    0.0000    0.1360    0.0000    0.0459    0.0004
                0.5972  -2.9883e-003   7.1186e-004   7.4608e-005  -1.0686e+008  -2.3446e+006   3.0738e+005    0.0000    0.1356    0.0000    0.0458    0.0027
                0.6212  -2.9794e-003   7.0980e-004   1.5913e-004  -1.0654e+008  -2.3373e+006   6.5560e+005    0.0000    0.1352    0.0000    0.0457    0.0059
                0.6445  -2.9491e-003   7.0263e-004   2.4067e-004  -1.0546e+008  -2.3131e+006   9.9154e+005    0.0000    0.1338    0.0000    0.0452    0.0089
                0.6693  -2.9120e-003   6.9357e-004   3.2561e-004  -1.0413e+008  -2.2857e+006   1.3415e+006    0.0000    0.1321    0.0000    0.0446    0.0120
                0.6923  -2.8691e-003   6.8356e-004   4.0342e-004  -1.0259e+008  -2.2502e+006   1.6621e+006    0.0000    0.1302    0.0000    0.0439    0.0148
                0.7162  -2.7982e-003   6.6673e-004   4.8209e-004  -1.0006e+008  -2.1940e+006   1.9862e+006    0.0000    0.1270    0.0000    0.0429    0.0177
                0.7406  -2.7321e-003   6.5075e-004   5.6031e-004  -9.7699e+007  -2.1445e+006   2.3085e+006    0.0000    0.1240    0.0000    0.0419    0.0206
                0.7639  -2.6479e-003   6.3095e-004   6.3246e-004  -9.4687e+007  -2.0762e+006   2.6057e+006    0.0000    0.1202    0.0000    0.0406    0.0233
                0.7885  -2.5526e-003   6.0796e-004   7.0593e-004  -9.1280e+007  -2.0038e+006   2.9084e+006    0.0000    0.1158    0.0000    0.0391    0.0260
                0.8116  -2.4560e-003   5.8509e-004   7.7216e-004  -8.7825e+007  -1.9268e+006   3.1813e+006    0.0000    0.1115    0.0000    0.0376    0.0284
                0.8356  -2.3330e-003   5.5603e-004   8.3736e-004  -8.3425e+007  -1.8282e+006   3.4499e+006    0.0000    0.1059    0.0000    0.0357    0.0308
                0.8603  -2.2169e-003   5.2779e-004   9.0084e-004  -7.9276e+007  -1.7422e+006   3.7115e+006    0.0000    0.1006    0.0000    0.0340    0.0331
                0.8829  -2.0884e-003   4.9767e-004   9.5525e-004  -7.4679e+007  -1.6371e+006   3.9356e+006    0.0000    0.0948    0.0000    0.0320    0.0351
                0.9078  -1.9381e-003   4.6184e-004   1.0111e-003  -6.9306e+007  -1.5195e+006   4.1657e+006    0.0000    0.0880    0.0000    0.0297    0.0372
                0.9314  -1.8002e-003   4.2869e-004   1.0598e-003  -6.4373e+007  -1.4136e+006   4.3664e+006    0.0000    0.0817    0.0000    0.0276    0.0390
                0.9551  -1.6386e-003   3.9061e-004   1.1042e-003  -5.8592e+007  -1.2833e+006   4.5494e+006    0.0000    0.0744    0.0000    0.0251    0.0406
                0.9804  -1.4796e-003   3.5201e-004   1.1466e-003  -5.2910e+007  -1.1647e+006   4.7240e+006    0.0000    0.0671    0.0000    0.0227    0.0422
                1.0019  -1.3218e-003   3.1505e-004   1.1786e-003  -4.7267e+007  -1.0358e+006   4.8557e+006    0.0000    0.0600    0.0000    0.0202    0.0434
                1.0279  -1.1284e-003   2.6912e-004   1.2117e-003  -4.0350e+007  -8.8264e+005   4.9921e+006    0.0000    0.0512    0.0000    0.0172    0.0446
                1.0521  -9.6205e-004   2.2880e-004   1.2372e-003  -3.4403e+007  -7.5806e+005   5.0973e+006    0.0000    0.0437    0.0000    0.0148    0.0455
                1.0746  -7.7998e-004   1.8612e-004   1.2562e-003  -2.7890e+007  -6.0925e+005   5.1753e+006    0.0000    0.0354    0.0000    0.0119    0.0462
                1.1023  -5.7704e-004   1.3717e-004   1.2730e-003  -2.0635e+007  -4.5526e+005   5.2449e+006    0.0000    0.0262    0.0000    0.0089    0.0468
                1.1227  -4.0530e-004   9.6977e-005   1.2810e-003  -1.4492e+007  -3.1435e+005   5.2777e+006    0.0000    0.0184    0.0000    0.0061    0.0471
                1.1559  -1.5316e-004   3.6364e-005   1.2855e-003  -5.4772e+006  -1.2121e+005   5.2964e+006    0.0000    0.0070    0.0000    0.0024    0.0473
                1.1846   8.1697e-005  -1.9133e-005   1.2811e-003   2.9223e+006   6.6907e+004   5.2782e+006    0.0029   -0.0000    0.0013   -0.0000    0.0471
                1.1943   1.4615e-004  -3.5164e-005   1.2779e-003   5.2253e+006   1.1170e+005   5.2648e+006    0.0052   -0.0000    0.0022   -0.0000    0.0470

               lamina:  3     
              matName:  (blade-shell)
                     s           e11           e22           e12           s11           s22           s12   s11_fcT   s11_fcC   s22_fcT   s22_fcC   s12_fcS
                   (m)         (m/m)         (m/m)         (rad)          (Pa)          (Pa)          (Pa)       (-)       (-)       (-)       (-)       (-)
                0.0000  -3.6252e-005   1.3001e-005   1.4011e-003  -6.7499e+005   1.6188e+005   5.5343e+006    0.0000    0.0014    0.0005   -0.0000    0.0481
                0.0097  -1.0023e-004   2.8914e-005   1.3974e-003  -1.8841e+006   3.1022e+005   5.5196e+006    0.0000    0.0038    0.0009   -0.0000    0.0480
                0.0384  -2.8063e-004   7.4321e-005   1.3813e-003  -5.2920e+006   7.3900e+005   5.4562e+006    0.0000    0.0106    0.0022   -0.0000    0.0474
                0.0716  -4.6649e-004   1.2262e-004   1.3533e-003  -8.7993e+006   1.2104e+006   5.3454e+006    0.0000    0.0177    0.0036   -0.0000    0.0465
                0.0921  -5.5840e-004   1.4796e-004   1.3310e-003  -1.0530e+007   1.4719e+006   5.2575e+006    0.0000    0.0212    0.0044   -0.0000    0.0457
                0.1197  -7.1127e-004   1.8746e-004   1.2951e-003  -1.3415e+007   1.8552e+006   5.1157e+006    0.0000    0.0270    0.0055   -0.0000    0.0445
                0.1422  -8.0981e-004   2.1449e-004   1.2610e-003  -1.5271e+007   2.1330e+006   4.9810e+006    0.0000    0.0307    0.0063   -0.0000    0.0433
                0.1665  -9.3873e-004   2.4757e-004   1.2195e-003  -1.7705e+007   2.4517e+006   4.8170e+006    0.0000    0.0356    0.0073   -0.0000    0.0419
                0.1924  -1.0601e-003   2.7984e-004   1.1698e-003  -1.9993e+007   2.7739e+006   4.6209e+006    0.0000    0.0402    0.0082   -0.0000    0.0402
                0.2140  -1.1430e-003   3.0261e-004   1.1246e-003  -2.1555e+007   3.0081e+006   4.4420e+006    0.0000    0.0434    0.0089   -0.0000    0.0386
                0.2392  -1.2656e-003   3.3399e-004   1.0672e-003  -2.3869e+007   3.3097e+006   4.2154e+006    0.0000    0.0480    0.0098   -0.0000    0.0367
                0.2629  -1.3561e-003   3.5846e-004   1.0094e-003  -2.5574e+007   3.5579e+006   3.9870e+006    0.0000    0.0515    0.0106   -0.0000    0.0347
                0.2866  -1.4498e-003   3.8287e-004   9.4796e-004  -2.7343e+007   3.7965e+006   3.7444e+006    0.0000    0.0550    0.0113   -0.0000    0.0326
                0.3114  -1.5449e-003   4.0792e-004   8.7951e-004  -2.9136e+007   4.0444e+006   3.4741e+006    0.0000    0.0586    0.0120   -0.0000    0.0302
                0.3340  -1.6090e-003   4.2553e-004   8.1441e-004  -3.0343e+007   4.2256e+006   3.2169e+006    0.0000    0.0611    0.0125   -0.0000    0.0280
                0.3587  -1.6954e-003   4.4757e-004   7.4006e-004  -3.1974e+007   4.4367e+006   2.9232e+006    0.0000    0.0643    0.0132   -0.0000    0.0254
                0.3827  -1.7626e-003   4.6563e-004   6.6522e-004  -3.3241e+007   4.6189e+006   2.6276e+006    0.0000    0.0669    0.0137   -0.0000    0.0228
                0.4058  -1.8140e-003   4.7942e-004   5.9054e-004  -3.4210e+007   4.7575e+006   2.3326e+006    0.0000    0.0688    0.0141   -0.0000    0.0203
                0.4305  -1.8761e-003   4.9548e-004   5.0905e-004  -3.5383e+007   4.9134e+006   2.0108e+006    0.0000    0.0712    0.0146   -0.0000    0.0175
                0.4537  -1.9159e-003   5.0630e-004   4.3029e-004  -3.6133e+007   5.0237e+006   1.6996e+006    0.0000    0.0727    0.0149   -0.0000    0.0148
                0.4781  -1.9564e-003   5.1670e-004   3.4614e-004  -3.6896e+007   5.1241e+006   1.3672e+006    0.0000    0.0742    0.0152   -0.0000    0.0119
                0.5020  -1.9924e-003   5.2626e-004   2.6271e-004  -3.7576e+007   5.2193e+006   1.0377e+006    0.0000    0.0756    0.0155   -0.0000    0.0090
                0.5251  -2.0049e-003   5.2980e-004   1.8129e-004  -3.7811e+007   5.2568e+006   7.1609e+005    0.0000    0.0761    0.0156   -0.0000    0.0062
                0.5498  -2.0231e-003   5.3442e-004   9.3566e-005  -3.8154e+007   5.3009e+006   3.6959e+005    0.0000    0.0768    0.0157   -0.0000    0.0032
                0.5732  -2.0318e-003   5.3674e-004   1.0453e-005  -3.8319e+007   5.3239e+006   4.1291e+004    0.0000    0.0771    0.0158   -0.0000    0.0004
                0.5972  -2.0249e-003   5.3498e-004   7.4608e-005  -3.8187e+007   5.3072e+006   2.9470e+005    0.0000    0.0768    0.0157   -0.0000    0.0026
                0.6212  -2.0200e-003   5.3365e-004   1.5913e-004  -3.8096e+007   5.2935e+006   6.2854e+005    0.0000    0.0767    0.0157   -0.0000    0.0055
                0.6445  -2.0010e-003   5.2855e-004   2.4067e-004  -3.7738e+007   5.2422e+006   9.5063e+005    0.0000    0.0759    0.0156   -0.0000    0.0083
                0.6693  -1.9697e-003   5.2056e-004   3.2561e-004  -3.7146e+007   5.1658e+006   1.2862e+006    0.0000    0.0747    0.0153   -0.0000    0.0112
                0.6923  -1.9472e-003   5.1432e-004   4.0342e-004  -3.6724e+007   5.1008e+006   1.5935e+006    0.0000    0.0739    0.0151   -0.0000    0.0139
                0.7162  -1.9010e-003   5.0202e-004   4.8209e-004  -3.5852e+007   4.9779e+006   1.9042e+006    0.0000    0.0721    0.0148   -0.0000    0.0166
                0.7406  -1.8483e-003   4.8848e-004   5.6031e-004  -3.4857e+007   4.8473e+006   2.2132e+006    0.0000    0.0701    0.0144   -0.0000    0.0192
                0.7639  -1.7991e-003   4.7509e-004   6.3246e-004  -3.3930e+007   4.7109e+006   2.4982e+006    0.0000    0.0683    0.0140   -0.0000    0.0217
                0.7885  -1.7259e-003   4.5616e-004   7.0593e-004  -3.2548e+007   4.5271e+006   2.7884e+006    0.0000    0.0655    0.0134   -0.0000    0.0242
                0.8116  -1.6649e-003   4.3983e-004   7.7216e-004  -3.1398e+007   4.3630e+006   3.0500e+006    0.0000    0.0632    0.0129   -0.0000    0.0265
                0.8356  -1.5890e-003   4.1944e-004   8.3736e-004  -2.9969e+007   4.1572e+006   3.3076e+006    0.0000    0.0603    0.0123   -0.0000    0.0288
                0.8603  -1.4921e-003   3.9471e-004   9.0084e-004  -2.8139e+007   3.9203e+006   3.5583e+006    0.0000    0.0566    0.0116   -0.0000    0.0309
                0.8829  -1.4205e-003   3.7504e-004   9.5525e-004  -2.6789e+007   3.7180e+006   3.7732e+006    0.0000    0.0539    0.0110   -0.0000    0.0328
                0.9078  -1.3174e-003   3.4787e-004   1.0111e-003  -2.4846e+007   3.4491e+006   3.9938e+006    0.0000    0.0500    0.0102   -0.0000    0.0347
                0.9314  -1.2155e-003   3.2135e-004   1.0598e-003  -2.2923e+007   3.1899e+006   4.1862e+006    0.0000    0.0461    0.0095   -0.0000    0.0364
                0.9551  -1.1187e-003   2.9516e-004   1.1042e-003  -2.1099e+007   2.9242e+006   4.3617e+006    0.0000    0.0425    0.0087   -0.0000    0.0379
                0.9804  -9.8874e-004   2.6189e-004   1.1466e-003  -1.8645e+007   2.6045e+006   4.5291e+006    0.0000    0.0375    0.0077   -0.0000    0.0394
                1.0019  -9.0057e-004   2.3770e-004   1.1786e-003  -1.6985e+007   2.3558e+006   4.6554e+006    0.0000    0.0342    0.0070   -0.0000    0.0405
                1.0279  -7.7434e-004   2.0412e-004   1.2117e-003  -1.4605e+007   2.0204e+006   4.7861e+006    0.0000    0.0294    0.0060   -0.0000    0.0416
                1.0521  -6.4023e-004   1.6971e-004   1.2372e-003  -1.2073e+007   1.6890e+006   4.8870e+006    0.0000    0.0243    0.0050   -0.0000    0.0425
                1.0746  -5.3827e-004   1.4174e-004   1.2562e-003  -1.0153e+007   1.4017e+006   4.9618e+006    0.0000    0.0204    0.0042   -0.0000    0.0431
                1.1023  -3.8196e-004   1.0135e-004   1.2730e-003  -7.2025e+006   1.0096e+006   5.0285e+006    0.0000    0.0145    0.0030   -0.0000    0.0437
                1.1227  -2.8774e-004   7.5393e-005   1.2810e-003  -5.4282e+006   7.4188e+005   5.0599e+006    0.0000    0.0109    0.0022   -0.0000    0.0440
                1.1559  -1.0003e-004   2.6609e-005   1.2855e-003  -1.8861e+006   2.6570e+005   5.0778e+006    0.0000    0.0038    0.0008   -0.0000    0.0442
                1.1846   8.7156e-005  -2.0135e-005   1.2811e-003   1.6510e+006  -1.7197e+005   5.0604e+006    0.0049   -0.0000    0.0000    0.0005    0.0440
                1.1943   1.5161e-004  -3.6167e-005   1.2779e-003   2.8692e+006  -3.2141e+005   5.0476e+006    0.0085   -0.0000    0.0000    0.0010    0.0439

  Bottom:  panel  nNode   nLam     xc_St    xc_End         b         t         E_eff         G_eff      nu_eff     density  buckleCrit
            (-)    (-)    (-)       (-)       (-)       (m)       (m)          (Pa)          (Pa)         (-)    (kg/m^3)         (-)
              1     51      3    0.0000    1.0000    1.1943    0.0529   3.1848e+010   4.0808e+009      0.2487   1754.6346      0.0003

            panel:  1     
           lam_num    nPlies        tPly      fibAng     matID  matName
               (-)       (-)         (m)       (deg)       (-)  (-)
                 1         1    0.006094      0.0000         2  (blade-shell)
                 2         1    0.040665      0.0000         1  (blade-root)
                 3         1    0.006094      0.0000         2  (blade-shell)

               lamina:  1     
              matName:  (blade-shell)
                     s           e11           e22           e12           s11           s22           s12   s11_fcT   s11_fcC   s22_fcT   s22_fcC   s12_fcS
                   (m)         (m/m)         (m/m)         (rad)          (Pa)          (Pa)          (Pa)       (-)       (-)       (-)       (-)       (-)
                0.0000  -1.0812e-004   2.8078e-005   1.4011e-003  -2.0404e+006   2.7385e+005   5.5343e+006    0.0000    0.0041    0.0008   -0.0000    0.0481
                0.0097  -4.3666e-005   1.2046e-005   1.4043e-003  -8.2221e+005   1.2440e+005   5.5471e+006    0.0000    0.0017    0.0004   -0.0000    0.0482
                0.0384   1.6272e-004  -3.8224e-005   1.4087e-003   3.0810e+006  -3.3337e+005   5.5643e+006    0.0091   -0.0000    0.0000    0.0010    0.0484
                0.0716   4.2452e-004  -1.0061e-004   1.4041e-003   8.0355e+006  -8.8710e+005   5.5462e+006    0.0238   -0.0000    0.0000    0.0026    0.0482
                0.0921   6.0787e-004  -1.4293e-004   1.3961e-003   1.1509e+007  -1.2481e+006   5.5147e+006    0.0342   -0.0000    0.0000    0.0037    0.0480
                0.1197   8.1780e-004  -1.9317e-004   1.3792e-003   1.5481e+007  -1.6963e+006   5.4479e+006    0.0459   -0.0000    0.0000    0.0050    0.0474
                0.1422   1.0119e-003  -2.3805e-004   1.3603e-003   1.9158e+007  -2.0801e+006   5.3730e+006    0.0568   -0.0000    0.0000    0.0062    0.0467
                0.1665   1.1831e-003  -2.7926e-004   1.3347e-003   2.2396e+007  -2.4503e+006   5.2720e+006    0.0665   -0.0000    0.0000    0.0073    0.0458
                0.1924   1.3866e-003  -3.2704e-004   1.3015e-003   2.6250e+007  -2.8666e+006   5.1411e+006    0.0779   -0.0000    0.0000    0.0085    0.0447
                0.2140   1.5547e-003  -3.6592e-004   1.2696e-003   2.9435e+007  -3.1990e+006   5.0147e+006    0.0873   -0.0000    0.0000    0.0095    0.0436
                0.2392   1.7181e-003  -4.0531e-004   1.2271e-003   3.2525e+007  -3.5537e+006   4.8472e+006    0.0965   -0.0000    0.0000    0.0105    0.0421
                0.2629   1.8894e-003  -4.4518e-004   1.1827e-003   3.5770e+007  -3.8974e+006   4.6716e+006    0.1061   -0.0000    0.0000    0.0116    0.0406
                0.2866   2.0328e-003  -4.7931e-004   1.1339e-003   3.8483e+007  -4.2000e+006   4.4791e+006    0.1142   -0.0000    0.0000    0.0125    0.0389
                0.3114   2.1901e-003  -5.1645e-004   1.0781e-003   4.1462e+007  -4.5258e+006   4.2584e+006    0.1230   -0.0000    0.0000    0.0134    0.0370
                0.3340   2.3272e-003  -5.4813e-004   1.0236e-003   4.4058e+007  -4.7965e+006   4.0434e+006    0.1307   -0.0000    0.0000    0.0142    0.0352
                0.3587   2.4461e-003  -5.7690e-004   9.6012e-004   4.6307e+007  -5.0564e+006   3.7925e+006    0.1374   -0.0000    0.0000    0.0150    0.0330
                0.3827   2.5762e-003  -6.0726e-004   8.9490e-004   4.8772e+007  -5.3191e+006   3.5348e+006    0.1447   -0.0000    0.0000    0.0158    0.0307
                0.4058   2.6781e-003  -6.3111e-004   8.2864e-004   5.0702e+007  -5.5260e+006   3.2731e+006    0.1505   -0.0000    0.0000    0.0164    0.0285
                0.4305   2.7768e-003  -6.5470e-004   7.5513e-004   5.2568e+007  -5.7364e+006   2.9828e+006    0.1560   -0.0000    0.0000    0.0170    0.0259
                0.4537   2.8662e-003  -6.7546e-004   6.8296e-004   5.4262e+007  -5.9149e+006   2.6977e+006    0.1610   -0.0000    0.0000    0.0176    0.0235
                0.4781   2.9342e-003  -6.9182e-004   6.0470e-004   5.5549e+007  -6.0615e+006   2.3886e+006    0.1648   -0.0000    0.0000    0.0180    0.0208
                0.5020   3.0088e-003  -7.0933e-004   5.2600e-004   5.6961e+007  -6.2141e+006   2.0777e+006    0.1690   -0.0000    0.0000    0.0184    0.0181
                0.5251   3.0548e-003  -7.1990e-004   4.4817e-004   5.7833e+007  -6.3038e+006   1.7703e+006    0.1716   -0.0000    0.0000    0.0187    0.0154
                0.5498   3.0928e-003  -7.2911e-004   3.6319e-004   5.8552e+007  -6.3872e+006   1.4346e+006    0.1737   -0.0000    0.0000    0.0190    0.0125
                0.5732   3.1248e-003  -7.3659e-004   2.8162e-004   5.9158e+007  -6.4520e+006   1.1124e+006    0.1755   -0.0000    0.0000    0.0191    0.0097
                0.5972   3.1343e-003  -7.3877e-004   1.9708e-004   5.9337e+007  -6.4706e+006   7.7845e+005    0.1761   -0.0000    0.0000    0.0192    0.0068
                0.6212   3.1422e-003  -7.4072e-004   1.1198e-004   5.9488e+007  -6.4884e+006   4.4234e+005    0.1765   -0.0000    0.0000    0.0193    0.0038
                0.6445   3.1286e-003  -7.3751e-004   2.8842e-005   5.9230e+007  -6.4603e+006   1.1393e+005    0.1758   -0.0000    0.0000    0.0192    0.0010
                0.6693   3.1068e-003  -7.3221e-004   5.8910e-005   5.8817e+007  -6.4123e+006   2.3270e+005    0.1745   -0.0000    0.0000    0.0190    0.0020
                0.6923   3.0789e-003  -7.2584e-004   1.4036e-004   5.8288e+007  -6.3587e+006   5.5443e+005    0.1730   -0.0000    0.0000    0.0189    0.0048
                0.7162   3.0218e-003  -7.1242e-004   2.2382e-004   5.7207e+007  -6.2415e+006   8.8409e+005    0.1698   -0.0000    0.0000    0.0185    0.0077
                0.7406   2.9694e-003  -6.9982e-004   3.0800e-004   5.6216e+007  -6.1286e+006   1.2166e+006    0.1668   -0.0000    0.0000    0.0182    0.0106
                0.7639   2.8969e-003  -6.8300e-004   3.8679e-004   5.4843e+007  -5.9840e+006   1.5278e+006    0.1627   -0.0000    0.0000    0.0178    0.0133
                0.7885   2.8135e-003  -6.6303e-004   4.6831e-004   5.3264e+007  -5.8058e+006   1.8498e+006    0.1581   -0.0000    0.0000    0.0172    0.0161
                0.8116   2.7269e-003  -6.4280e-004   5.4302e-004   5.1625e+007  -5.6304e+006   2.1449e+006    0.1532   -0.0000    0.0000    0.0167    0.0187
                0.8356   2.6120e-003  -6.1597e-004   6.1789e-004   4.9449e+007  -5.3983e+006   2.4407e+006    0.1467   -0.0000    0.0000    0.0160    0.0212
                0.8603   2.5060e-003  -5.9033e-004   6.9227e-004   4.7444e+007  -5.1667e+006   2.7345e+006    0.1408   -0.0000    0.0000    0.0153    0.0238
                0.8829   2.3829e-003  -5.6189e-004   7.5740e-004   4.5113e+007  -4.9237e+006   2.9917e+006    0.1339   -0.0000    0.0000    0.0146    0.0260
                0.9078   2.2382e-003  -5.2771e-004   8.2588e-004   4.2372e+007  -4.6238e+006   3.2622e+006    0.1257   -0.0000    0.0000    0.0137    0.0284
                0.9314   2.1061e-003  -4.9627e-004   8.8733e-004   3.9872e+007  -4.3451e+006   3.5049e+006    0.1183   -0.0000    0.0000    0.0129    0.0305
                0.9551   1.9460e-003  -4.5903e-004   9.4518e-004   3.6841e+007  -4.0240e+006   3.7335e+006    0.1093   -0.0000    0.0000    0.0119    0.0325
                0.9804   1.7920e-003  -4.2188e-004   1.0026e-003   3.3928e+007  -3.6895e+006   3.9602e+006    0.1007   -0.0000    0.0000    0.0109    0.0344
                1.0019   1.6333e-003  -3.8519e-004   1.0479e-003   3.0920e+007  -3.3759e+006   4.1391e+006    0.0918   -0.0000    0.0000    0.0100    0.0360
                1.0279   1.4380e-003  -3.3934e-004   1.0976e-003   2.7223e+007  -2.9763e+006   4.3354e+006    0.0808   -0.0000    0.0000    0.0088    0.0377
                1.0521   1.2734e-003  -2.9971e-004   1.1391e-003   2.4109e+007  -2.6203e+006   4.4995e+006    0.0715   -0.0000    0.0000    0.0078    0.0391
                1.0746   1.0856e-003  -2.5629e-004   1.1732e-003   2.0551e+007  -2.2491e+006   4.6343e+006    0.0610   -0.0000    0.0000    0.0067    0.0403
                1.1023   8.8046e-004  -2.0719e-004   1.2092e-003   1.6669e+007  -1.8110e+006   4.7762e+006    0.0495   -0.0000    0.0000    0.0054    0.0415
                1.1227   7.0109e-004  -1.6580e-004   1.2315e-003   1.3271e+007  -1.4580e+006   4.8643e+006    0.0394   -0.0000    0.0000    0.0043    0.0423
                1.1559   4.4202e-004  -1.0406e-004   1.2596e-003   8.3685e+006  -9.0998e+005   4.9752e+006    0.0248   -0.0000    0.0000    0.0027    0.0433
                1.1846   2.4258e-004  -5.5153e-005   1.2756e-003   4.5975e+006  -4.6126e+005   5.0388e+006    0.0136   -0.0000    0.0000    0.0014    0.0438
                1.1943   1.7860e-004  -3.9240e-005   1.2794e-003   3.3884e+006  -3.1292e+005   5.0535e+006    0.0101   -0.0000    0.0000    0.0009    0.0439

               lamina:  2     
              matName:  (blade-root)
                     s           e11           e22           e12           s11           s22           s12   s11_fcT   s11_fcC   s22_fcT   s22_fcC   s12_fcS
                   (m)         (m/m)         (m/m)         (rad)          (Pa)          (Pa)          (Pa)       (-)       (-)       (-)       (-)       (-)
                0.0000  -1.4455e-004   3.4766e-005   1.4011e-003  -5.1681e+006  -1.1058e+005   5.7725e+006    0.0000    0.0066    0.0000    0.0022    0.0515
                0.0097  -8.0096e-005   1.8735e-005   1.4043e-003  -2.8651e+006  -6.5795e+004   5.7858e+006    0.0000    0.0036    0.0000    0.0013    0.0517
                0.0384   1.5476e-004  -3.6762e-005   1.4087e-003   5.5344e+006   1.2233e+005   5.8038e+006    0.0055   -0.0000    0.0024   -0.0000    0.0518
                0.0716   4.0690e-004  -9.7375e-005   1.4041e-003   1.4549e+007   3.1546e+005   5.7849e+006    0.0145   -0.0000    0.0062   -0.0000    0.0517
                0.0921   5.7864e-004  -1.3757e-004   1.3961e-003   2.0692e+007   4.5637e+005   5.7521e+006    0.0206   -0.0000    0.0089   -0.0000    0.0514
                0.1197   7.8158e-004  -1.8652e-004   1.3792e-003   2.7947e+007   6.1036e+005   5.6824e+006    0.0278   -0.0000    0.0119   -0.0000    0.0507
                0.1422   9.6365e-004  -2.2920e-004   1.3603e-003   3.4460e+007   7.5918e+005   5.6042e+006    0.0343   -0.0000    0.0148   -0.0000    0.0500
                0.1665   1.1300e-003  -2.6952e-004   1.3347e-003   4.0407e+007   8.8375e+005   5.4989e+006    0.0402   -0.0000    0.0173   -0.0000    0.0491
                0.1924   1.3234e-003  -3.1545e-004   1.3015e-003   4.7325e+007   1.0369e+006   5.3624e+006    0.0471   -0.0000    0.0203   -0.0000    0.0479
                0.2140   1.4812e-003  -3.5241e-004   1.2696e-003   5.2967e+007   1.1658e+006   5.2306e+006    0.0527   -0.0000    0.0228   -0.0000    0.0467
                0.2392   1.6402e-003  -3.9100e-004   1.2271e-003   5.8649e+007   1.2844e+006   5.0558e+006    0.0584   -0.0000    0.0251   -0.0000    0.0451
                0.2629   1.8018e-003  -4.2909e-004   1.1827e-003   6.4430e+007   1.4147e+006   4.8727e+006    0.0641   -0.0000    0.0276   -0.0000    0.0435
                0.2866   1.9397e-003  -4.6223e-004   1.1339e-003   6.9363e+007   1.5206e+006   4.6718e+006    0.0690   -0.0000    0.0297   -0.0000    0.0417
                0.3114   2.0900e-003  -4.9807e-004   1.0781e-003   7.4736e+007   1.6382e+006   4.4417e+006    0.0744   -0.0000    0.0320   -0.0000    0.0397
                0.3340   2.2185e-003  -5.2818e-004   1.0236e-003   7.9333e+007   1.7433e+006   4.2174e+006    0.0789   -0.0000    0.0340   -0.0000    0.0377
                0.3587   2.3346e-003  -5.5643e-004   9.6012e-004   8.3482e+007   1.8293e+006   3.9557e+006    0.0831   -0.0000    0.0357   -0.0000    0.0353
                0.3827   2.4576e-003  -5.8549e-004   8.9490e-004   8.7882e+007   1.9279e+006   3.6870e+006    0.0874   -0.0000    0.0377   -0.0000    0.0329
                0.4058   2.5542e-003  -6.0836e-004   8.2864e-004   9.1337e+007   2.0050e+006   3.4140e+006    0.0909   -0.0000    0.0392   -0.0000    0.0305
                0.4305   2.6495e-003  -6.3134e-004   7.5513e-004   9.4745e+007   2.0773e+006   3.1111e+006    0.0943   -0.0000    0.0406   -0.0000    0.0278
                0.4537   2.7337e-003  -6.5115e-004   6.8296e-004   9.7756e+007   2.1456e+006   2.8138e+006    0.0973   -0.0000    0.0419   -0.0000    0.0251
                0.4781   2.7998e-003  -6.6713e-004   6.0470e-004   1.0012e+008   2.1951e+006   2.4914e+006    0.0996   -0.0000    0.0429   -0.0000    0.0222
                0.5020   2.8707e-003  -6.8396e-004   5.2600e-004   1.0265e+008   2.2513e+006   2.1671e+006    0.1021   -0.0000    0.0440   -0.0000    0.0193
                0.5251   2.9136e-003  -6.9397e-004   4.4817e-004   1.0419e+008   2.2868e+006   1.8465e+006    0.1037   -0.0000    0.0447   -0.0000    0.0165
                0.5498   2.9507e-003  -7.0302e-004   3.6319e-004   1.0551e+008   2.3142e+006   1.4964e+006    0.1050   -0.0000    0.0452   -0.0000    0.0134
                0.5732   2.9810e-003  -7.1019e-004   2.8162e-004   1.0660e+008   2.3384e+006   1.1603e+006    0.1061   -0.0000    0.0457   -0.0000    0.0104
                0.5972   2.9899e-003  -7.1226e-004   1.9708e-004   1.0692e+008   2.3457e+006   8.1195e+005    0.1064   -0.0000    0.0458   -0.0000    0.0072
                0.6212   2.9977e-003  -7.1419e-004   1.1198e-004   1.0720e+008   2.3514e+006   4.6137e+005    0.1067   -0.0000    0.0459   -0.0000    0.0041
                0.6445   2.9848e-003  -7.1109e-004   2.8842e-005   1.0673e+008   2.3412e+006   1.1883e+005    0.1062   -0.0000    0.0457   -0.0000    0.0011
                0.6693   2.9634e-003  -7.0588e-004   5.8910e-005   1.0597e+008   2.3255e+006   2.4271e+005    0.1054   -0.0000    0.0454   -0.0000    0.0022
                0.6923   2.9375e-003  -6.9988e-004   1.4036e-004   1.0504e+008   2.3037e+006   5.7829e+005    0.1045   -0.0000    0.0450   -0.0000    0.0052
                0.7162   2.8832e-003  -6.8696e-004   2.2382e-004   1.0310e+008   2.2609e+006   9.2214e+005    0.1026   -0.0000    0.0442   -0.0000    0.0082
                0.7406   2.8323e-003  -6.7466e-004   3.0800e-004   1.0128e+008   2.2227e+006   1.2690e+006    0.1008   -0.0000    0.0434   -0.0000    0.0113
                0.7639   2.7641e-003  -6.5862e-004   3.8679e-004   9.8841e+007   2.1674e+006   1.5936e+006    0.0983   -0.0000    0.0423   -0.0000    0.0142
                0.7885   2.6834e-003  -6.3915e-004   4.6831e-004   9.5957e+007   2.1061e+006   1.9294e+006    0.0955   -0.0000    0.0411   -0.0000    0.0172
                0.8116   2.6015e-003  -6.1976e-004   5.4302e-004   9.3025e+007   2.0407e+006   2.2373e+006    0.0926   -0.0000    0.0399   -0.0000    0.0200
                0.8356   2.4928e-003  -5.9408e-004   6.1789e-004   8.9138e+007   1.9536e+006   2.5457e+006    0.0887   -0.0000    0.0382   -0.0000    0.0227
                0.8603   2.3893e-003  -5.6891e-004   6.9227e-004   8.5441e+007   1.8770e+006   2.8521e+006    0.0850   -0.0000    0.0367   -0.0000    0.0255
                0.8829   2.2739e-003  -5.4188e-004   7.5740e-004   8.1313e+007   1.7825e+006   3.1205e+006    0.0809   -0.0000    0.0348   -0.0000    0.0279
                0.9078   2.1356e-003  -5.0889e-004   8.2588e-004   7.6368e+007   1.6744e+006   3.4026e+006    0.0760   -0.0000    0.0327   -0.0000    0.0304
                0.9314   2.0086e-003  -4.7836e-004   8.8733e-004   7.1824e+007   1.5768e+006   3.6558e+006    0.0715   -0.0000    0.0308   -0.0000    0.0326
                0.9551   1.8576e-003  -4.4279e-004   9.4518e-004   6.6424e+007   1.4551e+006   3.8941e+006    0.0661   -0.0000    0.0284   -0.0000    0.0348
                0.9804   1.7077e-003  -4.0639e-004   1.0026e-003   6.1065e+007   1.3433e+006   4.1306e+006    0.0608   -0.0000    0.0262   -0.0000    0.0369
                1.0019   1.5588e-003  -3.7151e-004   1.0479e-003   5.5740e+007   1.2215e+006   4.3173e+006    0.0555   -0.0000    0.0239   -0.0000    0.0385
                1.0279   1.3732e-003  -3.2743e-004   1.0976e-003   4.9101e+007   1.0746e+006   4.5220e+006    0.0489   -0.0000    0.0210   -0.0000    0.0404
                1.0521   1.2132e-003  -2.8866e-004   1.1391e-003   4.3383e+007   9.5482e+005   4.6931e+006    0.0432   -0.0000    0.0186   -0.0000    0.0419
                1.0746   1.0370e-003  -2.4737e-004   1.1732e-003   3.7082e+007   8.1082e+005   4.8337e+006    0.0369   -0.0000    0.0158   -0.0000    0.0432
                1.1023   8.3869e-004  -1.9952e-004   1.2092e-003   2.9992e+007   6.6034e+005   4.9818e+006    0.0298   -0.0000    0.0129   -0.0000    0.0445
                1.1227   6.7072e-004  -1.6022e-004   1.2315e-003   2.3983e+007   5.2245e+005   5.0736e+006    0.0239   -0.0000    0.0102   -0.0000    0.0453
                1.1559   4.2119e-004  -1.0023e-004   1.2596e-003   1.5062e+007   3.3135e+005   5.1894e+006    0.0150   -0.0000    0.0065   -0.0000    0.0463
                1.1846   2.2423e-004  -5.1785e-005   1.2756e-003   8.0230e+006   1.8988e+005   5.2556e+006    0.0080   -0.0000    0.0037   -0.0000    0.0469
                1.1943   1.6025e-004  -3.5872e-005   1.2794e-003   5.7370e+006   1.4542e+005   5.2710e+006    0.0057   -0.0000    0.0028   -0.0000    0.0471

               lamina:  3     
              matName:  (blade-shell)
                     s           e11           e22           e12           s11           s22           s12   s11_fcT   s11_fcC   s22_fcT   s22_fcC   s12_fcS
                   (m)         (m/m)         (m/m)         (rad)          (Pa)          (Pa)          (Pa)       (-)       (-)       (-)       (-)       (-)
                0.0000  -1.5001e-004   3.5769e-005   1.4011e-003  -2.8389e+006   3.1770e+005   5.5343e+006    0.0000    0.0057    0.0009   -0.0000    0.0481
                0.0097  -8.5556e-005   1.9737e-005   1.4043e-003  -1.6208e+006   1.6825e+005   5.5471e+006    0.0000    0.0033    0.0005   -0.0000    0.0482
                0.0384   1.0163e-004  -2.7007e-005   1.4087e-003   1.9163e+006  -2.6942e+005   5.5643e+006    0.0057   -0.0000    0.0000    0.0008    0.0484
                0.0716   2.8934e-004  -7.5791e-005   1.4041e-003   5.4584e+006  -7.4559e+005   5.5462e+006    0.0162   -0.0000    0.0000    0.0022    0.0482
                0.0921   3.8357e-004  -1.0175e-004   1.3961e-003   7.2327e+006  -1.0133e+006   5.5147e+006    0.0215   -0.0000    0.0000    0.0030    0.0480
                0.1197   5.3987e-004  -1.4214e-004   1.3792e-003   1.0183e+007  -1.4054e+006   5.4479e+006    0.0302   -0.0000    0.0000    0.0042    0.0474
                0.1422   6.4183e-004  -1.7011e-004   1.3603e-003   1.2103e+007  -1.6927e+006   5.3730e+006    0.0359   -0.0000    0.0000    0.0050    0.0467
                0.1665   7.7594e-004  -2.0451e-004   1.3347e-003   1.4635e+007  -2.0241e+006   5.2720e+006    0.0434   -0.0000    0.0000    0.0060    0.0458
                0.1924   9.0217e-004  -2.3810e-004   1.3015e-003   1.7015e+007  -2.3595e+006   5.1411e+006    0.0505   -0.0000    0.0000    0.0070    0.0447
                0.2140   9.9034e-004  -2.6229e-004   1.2696e-003   1.8675e+007  -2.6082e+006   5.0147e+006    0.0554   -0.0000    0.0000    0.0077    0.0436
                0.2392   1.1203e-003  -2.9556e-004   1.2271e-003   2.1129e+007  -2.9279e+006   4.8472e+006    0.0627   -0.0000    0.0000    0.0087    0.0421
                0.2629   1.2171e-003  -3.2174e-004   1.1827e-003   2.2953e+007  -3.1936e+006   4.6716e+006    0.0681   -0.0000    0.0000    0.0095    0.0406
                0.2866   1.3190e-003  -3.4826e-004   1.1339e-003   2.4876e+007  -3.4528e+006   4.4791e+006    0.0738   -0.0000    0.0000    0.0102    0.0389
                0.3114   1.4221e-003  -3.7543e-004   1.0781e-003   2.6820e+007  -3.7218e+006   4.2584e+006    0.0796   -0.0000    0.0000    0.0110    0.0370
                0.3340   1.4937e-003  -3.9511e-004   1.0236e-003   2.8169e+007  -3.9241e+006   4.0434e+006    0.0836   -0.0000    0.0000    0.0116    0.0352
                0.3587   1.5906e-003  -4.1984e-004   9.6012e-004   3.0000e+007  -4.1609e+006   3.7925e+006    0.0890   -0.0000    0.0000    0.0123    0.0330
                0.3827   1.6665e-003  -4.4023e-004   8.9490e-004   3.1428e+007  -4.3667e+006   3.5348e+006    0.0933   -0.0000    0.0000    0.0130    0.0307
                0.4058   1.7275e-003  -4.5656e-004   8.2864e-004   3.2578e+007  -4.5308e+006   3.2731e+006    0.0967   -0.0000    0.0000    0.0134    0.0285
                0.4305   1.8007e-003  -4.7549e-004   7.5513e-004   3.3960e+007  -4.7146e+006   2.9828e+006    0.1008   -0.0000    0.0000    0.0140    0.0259
                0.4537   1.8499e-003  -4.8887e-004   6.8296e-004   3.4888e+007  -4.8510e+006   2.6977e+006    0.1035   -0.0000    0.0000    0.0144    0.0235
                0.4781   1.9026e-003  -5.0241e-004   6.0470e-004   3.5882e+007  -4.9816e+006   2.3886e+006    0.1065   -0.0000    0.0000    0.0148    0.0208
                0.5020   1.9488e-003  -5.1471e-004   5.2600e-004   3.6754e+007  -5.1045e+006   2.0777e+006    0.1091   -0.0000    0.0000    0.0151    0.0181
                0.5251   1.9713e-003  -5.2096e-004   4.4817e-004   3.7176e+007  -5.1695e+006   1.7703e+006    0.1103   -0.0000    0.0000    0.0153    0.0154
                0.5498   2.0026e-003  -5.2895e-004   3.6319e-004   3.7768e+007  -5.2459e+006   1.4346e+006    0.1121   -0.0000    0.0000    0.0156    0.0125
                0.5732   2.0216e-003  -5.3404e-004   2.8162e-004   3.8127e+007  -5.2972e+006   1.1124e+006    0.1131   -0.0000    0.0000    0.0157    0.0097
                0.5972   2.0265e-003  -5.3538e-004   1.9708e-004   3.8218e+007  -5.3109e+006   7.7845e+005    0.1134   -0.0000    0.0000    0.0158    0.0068
                0.6212   2.0334e-003  -5.3714e-004   1.1198e-004   3.8349e+007  -5.3276e+006   4.4234e+005    0.1138   -0.0000    0.0000    0.0158    0.0038
                0.6445   2.0247e-003  -5.3482e-004   2.8842e-005   3.8184e+007  -5.3047e+006   1.1393e+005    0.1133   -0.0000    0.0000    0.0157    0.0010
                0.6693   2.0065e-003  -5.3020e-004   5.8910e-005   3.7841e+007  -5.2605e+006   2.3270e+005    0.1123   -0.0000    0.0000    0.0156    0.0020
                0.6923   1.9940e-003  -5.2666e-004   1.4036e-004   3.7606e+007  -5.2230e+006   5.5443e+005    0.1116   -0.0000    0.0000    0.0155    0.0048
                0.7162   1.9580e-003  -5.1710e-004   2.2382e-004   3.6927e+007  -5.1278e+006   8.8409e+005    0.1096   -0.0000    0.0000    0.0152    0.0077
                0.7406   1.9175e-003  -5.0670e-004   3.0800e-004   3.6163e+007  -5.0275e+006   1.2166e+006    0.1073   -0.0000    0.0000    0.0149    0.0106
                0.7639   1.8777e-003  -4.9588e-004   3.8679e-004   3.5413e+007  -4.9171e+006   1.5278e+006    0.1051   -0.0000    0.0000    0.0146    0.0133
                0.7885   1.8156e-003  -4.7981e-004   4.6831e-004   3.4240e+007  -4.7612e+006   1.8498e+006    0.1016   -0.0000    0.0000    0.0141    0.0161
                0.8116   1.7642e-003  -4.6603e-004   5.4302e-004   3.3271e+007  -4.6226e+006   2.1449e+006    0.0987   -0.0000    0.0000    0.0137    0.0187
                0.8356   1.6970e-003  -4.4797e-004   6.1789e-004   3.2004e+007  -4.4404e+006   2.4407e+006    0.0950   -0.0000    0.0000    0.0132    0.0212
                0.8603   1.6106e-003  -4.2593e-004   6.9227e-004   3.0373e+007  -4.2293e+006   2.7345e+006    0.0901   -0.0000    0.0000    0.0125    0.0238
                0.8829   1.5465e-003  -4.0832e-004   7.5740e-004   2.9166e+007  -4.0481e+006   2.9917e+006    0.0865   -0.0000    0.0000    0.0120    0.0260
                0.9078   1.4514e-003  -3.8327e-004   8.2588e-004   2.7373e+007  -3.8002e+006   3.2622e+006    0.0812   -0.0000    0.0000    0.0113    0.0284
                0.9314   1.3577e-003  -3.5886e-004   8.8733e-004   2.5604e+007  -3.5616e+006   3.5049e+006    0.0760   -0.0000    0.0000    0.0106    0.0305
                0.9551   1.2672e-003  -3.3439e-004   9.4518e-004   2.3900e+007  -3.3134e+006   3.7335e+006    0.0709   -0.0000    0.0000    0.0098    0.0325
                0.9804   1.1446e-003  -3.0301e-004   1.0026e-003   2.1585e+007  -3.0118e+006   3.9602e+006    0.0640   -0.0000    0.0000    0.0089    0.0344
                1.0019   1.0617e-003  -2.8024e-004   1.0479e-003   2.0023e+007  -2.7776e+006   4.1391e+006    0.0594   -0.0000    0.0000    0.0082    0.0360
                1.0279   9.4033e-004  -2.4797e-004   1.0976e-003   1.7735e+007  -2.4554e+006   4.3354e+006    0.0526   -0.0000    0.0000    0.0073    0.0377
                1.0521   8.1141e-004  -2.1489e-004   1.1391e-003   1.5301e+007  -2.1367e+006   4.4995e+006    0.0454   -0.0000    0.0000    0.0063    0.0391
                1.0746   7.1287e-004  -1.8786e-004   1.1732e-003   1.3446e+007  -1.8589e+006   4.6343e+006    0.0399   -0.0000    0.0000    0.0055    0.0403
                1.1023   5.6000e-004  -1.4835e-004   1.2092e-003   1.0560e+007  -1.4756e+006   4.7762e+006    0.0313   -0.0000    0.0000    0.0044    0.0415
                1.1227   4.6809e-004  -1.2302e-004   1.2315e-003   8.8296e+006  -1.2141e+006   4.8643e+006    0.0262   -0.0000    0.0000    0.0036    0.0423
                1.1559   2.8223e-004  -7.4719e-005   1.2596e-003   5.3223e+006  -7.4271e+005   4.9752e+006    0.0158   -0.0000    0.0000    0.0022    0.0433
                1.1846   1.0183e-004  -2.9312e-005   1.2756e-003   1.9144e+006  -3.1393e+005   5.0388e+006    0.0057   -0.0000    0.0000    0.0009    0.0438
                1.1943   3.7852e-005  -1.3399e-005   1.2794e-003   7.0524e+005  -1.6559e+005   5.0535e+006    0.0021   -0.0000    0.0000    0.0005    0.0439

     Web:  panel  nNode   nLam     xc_St    xc_End         b         t         E_eff         G_eff      nu_eff     density  buckleCrit
            (-)    (-)    (-)       (-)       (-)       (m)       (m)          (Pa)          (Pa)         (-)    (kg/m^3)         (-)

================================================================================
sec        =  2      
zSec       =  0.2970  (m)
nPanelsTop =  3      
nPanelsBot =  3      
nWebs      =  2      

    Top:  panel  nNode   nLam     xc_St    xc_End         b         t         E_eff         G_eff      nu_eff     density  buckleCrit
            (-)    (-)    (-)       (-)       (-)       (m)       (m)          (Pa)          (Pa)         (-)    (kg/m^3)         (-)
              1     18      3    0.0000    0.2507    0.3942    0.0529   3.1848e+010   4.0808e+009      0.2487   1754.6346      0.0100
              2     19      3    0.2507    0.7493    0.4091    0.0529   3.1848e+010   4.0808e+009      0.2487   1754.6346      0.0201
              3     18      3    0.7493    1.0000    0.3909    0.0529   3.1848e+010   4.0808e+009      0.2487   1754.6346      0.0084

            panel:  1     
           lam_num    nPlies        tPly      fibAng     matID  matName
               (-)       (-)         (m)       (deg)       (-)  (-)
                 1         1    0.006094      0.0000         2  (blade-shell)
                 2         1    0.040665      0.0000         1  (blade-root)
                 3         1    0.006094      0.0000         2  (blade-shell)

               lamina:  1     
              matName:  (blade-shell)
                     s           e11           e22           e12           s11           s22           s12   s11_fcT   s11_fcC   s22_fcT   s22_fcC   s12_fcS
                   (m)         (m/m)         (m/m)         (rad)          (Pa)          (Pa)          (Pa)       (-)       (-)       (-)       (-)       (-)
                0.0000  -1.5301e-004   3.3029e-005   1.3288e-003  -2.9044e+006   2.5659e+005   5.2490e+006    0.0000    0.0058    0.0008   -0.0000    0.0456
                0.0095  -2.1453e-004   4.8331e-005   1.3255e-003  -4.0671e+006   3.9923e+005   5.2355e+006    0.0000    0.0082    0.0012   -0.0000    0.0455
                0.0374  -4.0691e-004   9.5450e-005   1.3104e-003  -7.7046e+006   8.3104e+005   5.1762e+006    0.0000    0.0155    0.0025   -0.0000    0.0450
                0.0696  -6.5836e-004   1.5520e-004   1.2838e-003  -1.2464e+007   1.3596e+006   5.0709e+006    0.0000    0.0251    0.0040   -0.0000    0.0441
                0.0895  -8.3374e-004   1.9551e-004   1.2624e-003  -1.5787e+007   1.7015e+006   4.9865e+006    0.0000    0.0318    0.0050   -0.0000    0.0434
                0.1165  -1.0330e-003   2.4310e-004   1.2276e-003  -1.9557e+007   2.1250e+006   4.8492e+006    0.0000    0.0394    0.0063   -0.0000    0.0422
                0.1386  -1.2164e-003   2.8537e-004   1.1945e-003  -2.3031e+007   2.4850e+006   4.7181e+006    0.0000    0.0463    0.0074   -0.0000    0.0410
                0.1625  -1.3763e-003   3.2383e-004   1.1537e-003  -2.6058e+007   2.8300e+006   4.5571e+006    0.0000    0.0524    0.0084   -0.0000    0.0396
                0.1880  -1.5666e-003   3.6840e-004   1.1049e-003  -2.9660e+007   3.2175e+006   4.3642e+006    0.0000    0.0597    0.0095   -0.0000    0.0379
                0.2094  -1.7214e-003   4.0411e-004   1.0599e-003  -3.2592e+007   3.5220e+006   4.1868e+006    0.0000    0.0656    0.0105   -0.0000    0.0364
                0.2345  -1.8709e-003   4.4017e-004   1.0028e-003  -3.5422e+007   3.8464e+006   3.9612e+006    0.0000    0.0713    0.0114   -0.0000    0.0344
                0.2580  -2.0266e-003   4.7636e-004   9.4505e-004  -3.8369e+007   4.1580e+006   3.7329e+006    0.0000    0.0772    0.0123   -0.0000    0.0325
                0.2817  -2.1548e-003   5.0688e-004   8.8324e-004  -4.0797e+007   4.4285e+006   3.4888e+006    0.0000    0.0821    0.0131   -0.0000    0.0303
                0.3066  -2.2954e-003   5.4006e-004   8.1430e-004  -4.3457e+007   4.7197e+006   3.2165e+006    0.0000    0.0874    0.0140   -0.0000    0.0280
                0.3294  -2.4146e-003   5.6763e-004   7.4818e-004  -4.5717e+007   4.9554e+006   2.9553e+006    0.0000    0.0920    0.0147   -0.0000    0.0257
                0.3543  -2.5174e-003   5.9250e-004   6.7257e-004  -4.7661e+007   5.1802e+006   2.6566e+006    0.0000    0.0959    0.0154   -0.0000    0.0231
                0.3789  -2.6259e-003   6.1806e-004   5.9519e-004  -4.9715e+007   5.4038e+006   2.3510e+006    0.0000    0.1000    0.0160   -0.0000    0.0204
                0.3942  -2.6902e-003   6.3259e-004   5.4547e-004  -5.0934e+007   5.5243e+006   2.1546e+006    0.0000    0.1025    0.0164   -0.0000    0.0187

               lamina:  2     
              matName:  (blade-root)
                     s           e11           e22           e12           s11           s22           s12   s11_fcT   s11_fcC   s22_fcT   s22_fcC   s12_fcS
                   (m)         (m/m)         (m/m)         (rad)          (Pa)          (Pa)          (Pa)       (-)       (-)       (-)       (-)       (-)
                0.0000  -1.3521e-004   2.9761e-005   1.3288e-003  -4.8418e+006  -1.2701e+005   5.4749e+006    0.0000    0.0061    0.0000    0.0025    0.0489
                0.0095  -1.9673e-004   4.5063e-005   1.3255e-003  -7.0400e+006  -1.6976e+005   5.4609e+006    0.0000    0.0089    0.0000    0.0033    0.0488
                0.0374  -3.8653e-004   9.1709e-005   1.3104e-003  -1.3823e+007  -3.0643e+005   5.3990e+006    0.0000    0.0175    0.0000    0.0060    0.0482
                0.0696  -6.2811e-004   1.4965e-004   1.2838e-003  -2.2461e+007  -4.9264e+005   5.2891e+006    0.0000    0.0285    0.0000    0.0096    0.0472
                0.0895  -7.9177e-004   1.8780e-004   1.2624e-003  -2.8315e+007  -6.2813e+005   5.2011e+006    0.0000    0.0359    0.0000    0.0123    0.0464
                0.1165  -9.8404e-004   2.3411e-004   1.2276e-003  -3.5189e+007  -7.7469e+005   5.0579e+006    0.0000    0.0447    0.0000    0.0151    0.0452
                0.1386  -1.1556e-003   2.7421e-004   1.1945e-003  -4.1326e+007  -9.1585e+005   4.9212e+006    0.0000    0.0524    0.0000    0.0179    0.0439
                0.1625  -1.3109e-003   3.1181e-004   1.1537e-003  -4.6877e+007  -1.0325e+006   4.7532e+006    0.0000    0.0595    0.0000    0.0202    0.0424
                0.1880  -1.4914e-003   3.5460e-004   1.1049e-003  -5.3333e+007  -1.1759e+006   4.5520e+006    0.0000    0.0677    0.0000    0.0230    0.0406
                0.2094  -1.6363e-003   3.8850e-004   1.0599e-003  -5.8517e+007  -1.2950e+006   4.3670e+006    0.0000    0.0743    0.0000    0.0253    0.0390
                0.2345  -1.7818e-003   4.2381e-004   1.0028e-003  -6.3719e+007  -1.4036e+006   4.1317e+006    0.0000    0.0809    0.0000    0.0274    0.0369
                0.2580  -1.9285e-003   4.5836e-004   9.4505e-004  -6.8966e+007  -1.5221e+006   3.8936e+006    0.0000    0.0875    0.0000    0.0297    0.0348
                0.2817  -2.0519e-003   4.8799e-004   8.8324e-004  -7.3377e+007  -1.6169e+006   3.6390e+006    0.0000    0.0931    0.0000    0.0316    0.0325
                0.3066  -2.1862e-003   5.2001e-004   8.1430e-004  -7.8178e+007  -1.7219e+006   3.3549e+006    0.0000    0.0992    0.0000    0.0336    0.0300
                0.3294  -2.2980e-003   5.4623e-004   7.4818e-004  -8.2179e+007  -1.8134e+006   3.0825e+006    0.0000    0.1043    0.0000    0.0354    0.0275
                0.3543  -2.3984e-003   5.7065e-004   6.7257e-004  -8.5765e+007  -1.8876e+006   2.7710e+006    0.0000    0.1088    0.0000    0.0369    0.0247
                0.3789  -2.5018e-003   5.9527e-004   5.9519e-004  -8.9464e+007  -1.9689e+006   2.4522e+006    0.0000    0.1135    0.0000    0.0385    0.0219
                0.3942  -2.5609e-003   6.0886e-004   5.4547e-004  -9.1580e+007  -2.0196e+006   2.2473e+006    0.0000    0.1162    0.0000    0.0394    0.0201

               lamina:  3     
              matName:  (blade-shell)
                     s           e11           e22           e12           s11           s22           s12   s11_fcT   s11_fcC   s22_fcT   s22_fcC   s12_fcS
                   (m)         (m/m)         (m/m)         (rad)          (Pa)          (Pa)          (Pa)       (-)       (-)       (-)       (-)       (-)
                0.0000  -1.6423e-005   7.9520e-006   1.3288e-003  -3.0056e+005   1.1361e+005   5.2490e+006    0.0000    0.0006    0.0003   -0.0000    0.0456
                0.0095  -7.7947e-005   2.3254e-005   1.3255e-003  -1.4633e+006   2.5625e+005   5.2355e+006    0.0000    0.0029    0.0008   -0.0000    0.0455
                0.0374  -2.5055e-004   6.6743e-005   1.3104e-003  -4.7238e+006   6.6736e+005   5.1762e+006    0.0000    0.0095    0.0020   -0.0000    0.0450
                0.0696  -4.2624e-004   1.1258e-004   1.2838e-003  -8.0386e+006   1.1166e+006   5.0709e+006    0.0000    0.0162    0.0033   -0.0000    0.0441
                0.0895  -5.1164e-004   1.3637e-004   1.2624e-003  -9.6462e+006   1.3644e+006   4.9865e+006    0.0000    0.0194    0.0040   -0.0000    0.0434
                0.1165  -6.5737e-004   1.7413e-004   1.2276e-003  -1.2396e+007   1.7318e+006   4.8492e+006    0.0000    0.0249    0.0051   -0.0000    0.0422
                0.1386  -7.5005e-004   1.9975e-004   1.1945e-003  -1.4141e+007   1.9969e+006   4.7181e+006    0.0000    0.0285    0.0059   -0.0000    0.0410
                0.1625  -8.7398e-004   2.3159e-004   1.1537e-003  -1.6481e+007   2.3041e+006   4.5571e+006    0.0000    0.0332    0.0068   -0.0000    0.0396
                0.1880  -9.8975e-004   2.6250e-004   1.1049e-003  -1.8663e+007   2.6137e+006   4.3642e+006    0.0000    0.0376    0.0078   -0.0000    0.0379
                0.2094  -1.0689e-003   2.8432e-004   1.0599e-003  -2.0153e+007   2.8390e+006   4.1868e+006    0.0000    0.0405    0.0084   -0.0000    0.0364
                0.2345  -1.1873e-003   3.1466e-004   1.0028e-003  -2.2389e+007   3.1308e+006   3.9612e+006    0.0000    0.0450    0.0093   -0.0000    0.0344
                0.2580  -1.2744e-003   3.3827e-004   9.4505e-004  -2.4031e+007   3.3707e+006   3.7329e+006    0.0000    0.0484    0.0100   -0.0000    0.0325
                0.2817  -1.3653e-003   3.6193e-004   8.8324e-004  -2.5746e+007   3.6020e+006   3.4888e+006    0.0000    0.0518    0.0107   -0.0000    0.0303
                0.3066  -1.4575e-003   3.8623e-004   8.1430e-004  -2.7485e+007   3.8426e+006   3.2165e+006    0.0000    0.0553    0.0114   -0.0000    0.0280
                0.3294  -1.5200e-003   4.0338e-004   7.4818e-004  -2.8662e+007   4.0189e+006   2.9553e+006    0.0000    0.0577    0.0119   -0.0000    0.0257
                0.3543  -1.6040e-003   4.2481e-004   6.7257e-004  -3.0248e+007   4.2240e+006   2.6566e+006    0.0000    0.0609    0.0125   -0.0000    0.0231
                0.3789  -1.6736e-003   4.4321e-004   5.9519e-004  -3.1560e+007   4.4068e+006   2.3510e+006    0.0000    0.0635    0.0131   -0.0000    0.0204
                0.3942  -1.6983e-003   4.5047e-004   5.4547e-004  -3.2024e+007   4.4860e+006   2.1546e+006    0.0000    0.0644    0.0133   -0.0000    0.0187

            panel:  2     
           lam_num    nPlies        tPly      fibAng     matID  matName
               (-)       (-)         (m)       (deg)       (-)  (-)
                 1         1    0.006094      0.0000         2  (blade-shell)
                 2         1    0.040665      0.0000         1  (blade-root)
                 3         1    0.006094      0.0000         2  (blade-shell)

               lamina:  1     
              matName:  (blade-shell)
                     s           e11           e22           e12           s11           s22           s12   s11_fcT   s11_fcC   s22_fcT   s22_fcC   s12_fcS
                   (m)         (m/m)         (m/m)         (rad)          (Pa)          (Pa)          (Pa)       (-)       (-)       (-)       (-)       (-)
                0.0000  -2.6902e-003   6.3259e-004   6.3990e-004  -5.0934e+007   5.5243e+006   2.5276e+006    0.0000    0.1025    0.0164   -0.0000    0.0220
                0.0079  -2.7120e-003   6.3802e-004   6.1397e-004  -5.1347e+007   5.5750e+006   2.4252e+006    0.0000    0.1033    0.0165   -0.0000    0.0211
                0.0329  -2.7927e-003   6.5734e-004   5.3036e-004  -5.2873e+007   5.7475e+006   2.0949e+006    0.0000    0.1064    0.0171   -0.0000    0.0182
                0.0567  -2.8622e-003   6.7351e-004   4.4914e-004  -5.4190e+007   5.8867e+006   1.7741e+006    0.0000    0.1090    0.0175   -0.0000    0.0154
                0.0816  -2.9124e-003   6.8557e-004   3.6229e-004  -5.5138e+007   5.9950e+006   1.4310e+006    0.0000    0.1109    0.0178   -0.0000    0.0124
                0.1060  -2.9668e-003   6.9840e-004   2.7602e-004  -5.6169e+007   6.1074e+006   1.0903e+006    0.0000    0.1130    0.0181   -0.0000    0.0095
                0.1297  -2.9926e-003   7.0429e-004   1.9142e-004  -5.6657e+007   6.1571e+006   7.5612e+005    0.0000    0.1140    0.0183   -0.0000    0.0066
                0.1551  -3.0127e-003   7.0918e-004   1.0051e-004  -5.7037e+007   6.2014e+006   3.9702e+005    0.0000    0.1148    0.0184   -0.0000    0.0035
                0.1792  -3.0246e-003   7.1199e-004   1.4000e-005  -5.7262e+007   6.2261e+006   5.5299e+004    0.0000    0.1152    0.0185   -0.0000    0.0005
                0.2040  -3.0155e-003   7.0979e-004   7.4519e-005  -5.7091e+007   6.2061e+006   2.9435e+005    0.0000    0.1149    0.0184   -0.0000    0.0026
                0.2287  -3.0052e-003   7.0738e-004   1.6248e-004  -5.6895e+007   6.1854e+006   6.4180e+005    0.0000    0.1145    0.0184   -0.0000    0.0056
                0.2529  -2.9731e-003   6.9987e-004   2.4755e-004  -5.6289e+007   6.1199e+006   9.7780e+005    0.0000    0.1133    0.0182   -0.0000    0.0085
                0.2784  -2.9353e-003   6.9068e-004   3.3571e-004  -5.5572e+007   6.0366e+006   1.3261e+006    0.0000    0.1118    0.0179   -0.0000    0.0115
                0.3023  -2.8901e-003   6.8024e-004   4.1684e-004  -5.4717e+007   5.9474e+006   1.6465e+006    0.0000    0.1101    0.0176   -0.0000    0.0143
                0.3269  -2.8177e-003   6.6317e-004   4.9851e-004  -5.3345e+007   5.7980e+006   1.9691e+006    0.0000    0.1073    0.0172   -0.0000    0.0171
                0.3520  -2.7514e-003   6.4719e-004   5.7938e-004  -5.2092e+007   5.6542e+006   2.2885e+006    0.0000    0.1048    0.0168   -0.0000    0.0199
                0.3760  -2.6653e-003   6.2711e-004   6.5402e-004  -5.0461e+007   5.4806e+006   2.5834e+006    0.0000    0.1015    0.0163   -0.0000    0.0225
                0.4012  -2.5702e-003   6.0431e-004   7.2941e-004  -4.8662e+007   5.2767e+006   2.8812e+006    0.0000    0.0979    0.0157   -0.0000    0.0251
                0.4091  -2.5444e-003   5.9788e-004   7.5248e-004  -4.8174e+007   5.2168e+006   2.9723e+006    0.0000    0.0969    0.0155   -0.0000    0.0258

               lamina:  2     
              matName:  (blade-root)
                     s           e11           e22           e12           s11           s22           s12   s11_fcT   s11_fcC   s22_fcT   s22_fcC   s12_fcS
                   (m)         (m/m)         (m/m)         (rad)          (Pa)          (Pa)          (Pa)       (-)       (-)       (-)       (-)       (-)
                0.0000  -2.5609e-003   6.0886e-004   6.3990e-004  -9.1580e+007  -2.0196e+006   2.6364e+006    0.0000    0.1162    0.0000    0.0394    0.0235
                0.0079  -2.5828e-003   6.1429e-004   6.1397e-004  -9.2360e+007  -2.0348e+006   2.5295e+006    0.0000    0.1172    0.0000    0.0397    0.0226
                0.0329  -2.6608e-003   6.3312e-004   5.3036e-004  -9.5149e+007  -2.0939e+006   2.1851e+006    0.0000    0.1207    0.0000    0.0409    0.0195
                0.0567  -2.7264e-003   6.4856e-004   4.4914e-004  -9.7494e+007  -2.1468e+006   1.8504e+006    0.0000    0.1237    0.0000    0.0419    0.0165
                0.0816  -2.7750e-003   6.6036e-004   3.6229e-004  -9.9235e+007  -2.1833e+006   1.4926e+006    0.0000    0.1259    0.0000    0.0426    0.0133
                0.1060  -2.8270e-003   6.7273e-004   2.7602e-004  -1.0109e+008  -2.2241e+006   1.1372e+006    0.0000    0.1283    0.0000    0.0434    0.0102
                0.1297  -2.8509e-003   6.7828e-004   1.9142e-004  -1.0195e+008  -2.2441e+006   7.8866e+005    0.0000    0.1294    0.0000    0.0438    0.0070
                0.1551  -2.8706e-003   6.8309e-004   1.0051e-004  -1.0265e+008  -2.2585e+006   4.1410e+005    0.0000    0.1303    0.0000    0.0441    0.0037
                0.1792  -2.8820e-003   6.8581e-004   1.4000e-005  -1.0306e+008  -2.2674e+006   5.7679e+004    0.0000    0.1308    0.0000    0.0443    0.0005
                0.2040  -2.8731e-003   6.8364e-004   7.4519e-005  -1.0274e+008  -2.2609e+006   3.0702e+005    0.0000    0.1304    0.0000    0.0442    0.0027
                0.2287  -2.8634e-003   6.8135e-004   1.6248e-004  -1.0239e+008  -2.2530e+006   6.6942e+005    0.0000    0.1299    0.0000    0.0440    0.0060
                0.2529  -2.8329e-003   6.7412e-004   2.4755e-004  -1.0130e+008  -2.2289e+006   1.0199e+006    0.0000    0.1286    0.0000    0.0435    0.0091
                0.2784  -2.7959e-003   6.6508e-004   3.3571e-004  -9.9979e+007  -2.2017e+006   1.3831e+006    0.0000    0.1269    0.0000    0.0430    0.0123
                0.3023  -2.7535e-003   6.5516e-004   4.1684e-004  -9.8464e+007  -2.1670e+006   1.7174e+006    0.0000    0.1250    0.0000    0.0423    0.0153
                0.3269  -2.6844e-003   6.3871e-004   4.9851e-004  -9.5994e+007  -2.1128e+006   2.0538e+006    0.0000    0.1218    0.0000    0.0413    0.0183
                0.3520  -2.6199e-003   6.2306e-004   5.7938e-004  -9.3689e+007  -2.0646e+006   2.3870e+006    0.0000    0.1189    0.0000    0.0403    0.0213
                0.3760  -2.5386e-003   6.0385e-004   6.5402e-004  -9.0779e+007  -1.9993e+006   2.6946e+006    0.0000    0.1152    0.0000    0.0390    0.0241
                0.4012  -2.4465e-003   5.8159e-004   7.2941e-004  -8.7487e+007  -1.9298e+006   3.0052e+006    0.0000    0.1110    0.0000    0.0377    0.0268
                0.4091  -2.4206e-003   5.7517e-004   7.5248e-004  -8.6564e+007  -1.9118e+006   3.1002e+006    0.0000    0.1099    0.0000    0.0373    0.0277

               lamina:  3     
              matName:  (blade-shell)
                     s           e11           e22           e12           s11           s22           s12   s11_fcT   s11_fcC   s22_fcT   s22_fcC   s12_fcS
                   (m)         (m/m)         (m/m)         (rad)          (Pa)          (Pa)          (Pa)       (-)       (-)       (-)       (-)       (-)
                0.0000  -1.6983e-003   4.5047e-004   6.3990e-004  -3.2024e+007   4.4860e+006   2.5276e+006    0.0000    0.0644    0.0133   -0.0000    0.0220
                0.0079  -1.7201e-003   4.5590e-004   6.1397e-004  -3.2436e+007   4.5366e+006   2.4252e+006    0.0000    0.0653    0.0135   -0.0000    0.0211
                0.0329  -1.7806e-003   4.7153e-004   5.3036e-004  -3.3579e+007   4.6881e+006   2.0949e+006    0.0000    0.0676    0.0139   -0.0000    0.0182
                0.0567  -1.8196e-003   4.8208e-004   4.4914e-004  -3.4313e+007   4.7953e+006   1.7741e+006    0.0000    0.0690    0.0142   -0.0000    0.0154
                0.0816  -1.8587e-003   4.9211e-004   3.6229e-004  -3.5050e+007   4.8920e+006   1.4310e+006    0.0000    0.0705    0.0145   -0.0000    0.0124
                0.1060  -1.8938e-003   5.0139e-004   2.7602e-004  -3.5712e+007   4.9841e+006   1.0903e+006    0.0000    0.0719    0.0148   -0.0000    0.0095
                0.1297  -1.9056e-003   5.0473e-004   1.9142e-004  -3.5935e+007   5.0192e+006   7.5612e+005    0.0000    0.0723    0.0149   -0.0000    0.0066
                0.1551  -1.9225e-003   5.0903e-004   1.0051e-004  -3.6255e+007   5.0602e+006   3.9702e+005    0.0000    0.0729    0.0150   -0.0000    0.0035
                0.1792  -1.9305e-003   5.1112e-004   1.4000e-005  -3.6405e+007   5.0808e+006   5.5299e+004    0.0000    0.0732    0.0151   -0.0000    0.0005
                0.2040  -1.9228e-003   5.0916e-004   7.4519e-005  -3.6259e+007   5.0622e+006   2.9435e+005    0.0000    0.0730    0.0150   -0.0000    0.0026
                0.2287  -1.9170e-003   5.0759e-004   1.6248e-004  -3.6150e+007   5.0462e+006   6.4180e+005    0.0000    0.0727    0.0150   -0.0000    0.0056
                0.2529  -1.8972e-003   5.0233e-004   2.4755e-004  -3.5777e+007   4.9936e+006   9.7780e+005    0.0000    0.0720    0.0148   -0.0000    0.0085
                0.2784  -1.8655e-003   4.9427e-004   3.3571e-004  -3.5179e+007   4.9168e+006   1.3261e+006    0.0000    0.0708    0.0146   -0.0000    0.0115
                0.3023  -1.8419e-003   4.8779e-004   4.1684e-004  -3.4734e+007   4.8501e+006   1.6465e+006    0.0000    0.0699    0.0144   -0.0000    0.0143
                0.3269  -1.7953e-003   4.7547e-004   4.9851e-004  -3.3855e+007   4.7278e+006   1.9691e+006    0.0000    0.0681    0.0140   -0.0000    0.0171
                0.3520  -1.7428e-003   4.6202e-004   5.7938e-004  -3.2864e+007   4.5984e+006   2.2885e+006    0.0000    0.0661    0.0136   -0.0000    0.0199
                0.3760  -1.6930e-003   4.4859e-004   6.5402e-004  -3.1925e+007   4.4628e+006   2.5834e+006    0.0000    0.0642    0.0132   -0.0000    0.0225
                0.4012  -1.6208e-003   4.3001e-004   7.2941e-004  -3.0563e+007   4.2829e+006   2.8812e+006    0.0000    0.0615    0.0127   -0.0000    0.0251
                0.4091  -1.5950e-003   4.2358e-004   7.5248e-004  -3.0075e+007   4.2230e+006   2.9723e+006    0.0000    0.0605    0.0125   -0.0000    0.0258

            panel:  3     
           lam_num    nPlies        tPly      fibAng     matID  matName
               (-)       (-)         (m)       (deg)       (-)  (-)
                 1         1    0.006094      0.0000         2  (blade-shell)
                 2         1    0.040665      0.0000         1  (blade-root)
                 3         1    0.006094      0.0000         2  (blade-shell)

               lamina:  1     
              matName:  (blade-shell)
                     s           e11           e22           e12           s11           s22           s12   s11_fcT   s11_fcC   s22_fcT   s22_fcC   s12_fcS
                   (m)         (m/m)         (m/m)         (rad)          (Pa)          (Pa)          (Pa)       (-)       (-)       (-)       (-)       (-)
                0.0000  -2.5444e-003   5.9788e-004   6.5711e-004  -4.8174e+007   5.2168e+006   2.5956e+006    0.0000    0.0969    0.0155   -0.0000    0.0226
                0.0155  -2.4694e-003   5.8087e-004   7.0121e-004  -4.6754e+007   5.0747e+006   2.7698e+006    0.0000    0.0941    0.0151   -0.0000    0.0241
                0.0402  -2.3480e-003   5.5223e-004   7.6844e-004  -4.4455e+007   4.8237e+006   3.0354e+006    0.0000    0.0894    0.0143   -0.0000    0.0264
                0.0652  -2.2339e-003   5.2459e-004   8.3266e-004  -4.2297e+007   4.5736e+006   3.2890e+006    0.0000    0.0851    0.0136   -0.0000    0.0286
                0.0880  -2.1032e-003   4.9429e-004   8.8767e-004  -3.9820e+007   4.3138e+006   3.5063e+006    0.0000    0.0801    0.0128   -0.0000    0.0305
                0.1129  -1.9531e-003   4.5884e-004   9.4335e-004  -3.6979e+007   4.0023e+006   3.7262e+006    0.0000    0.0744    0.0119   -0.0000    0.0324
                0.1365  -1.8161e-003   4.2621e-004   9.9183e-004  -3.4387e+007   3.7129e+006   3.9177e+006    0.0000    0.0692    0.0110   -0.0000    0.0341
                0.1600  -1.6526e-003   3.8816e-004   1.0356e-003  -3.1289e+007   3.3850e+006   4.0907e+006    0.0000    0.0630    0.0100   -0.0000    0.0356
                0.1849  -1.4969e-003   3.5062e-004   1.0771e-003  -2.8343e+007   3.0472e+006   4.2546e+006    0.0000    0.0570    0.0090   -0.0000    0.0370
                0.2061  -1.3358e-003   3.1344e-004   1.1083e-003  -2.5292e+007   2.7302e+006   4.3778e+006    0.0000    0.0509    0.0081   -0.0000    0.0381
                0.2312  -1.1411e-003   2.6787e-004   1.1402e-003  -2.1606e+007   2.3344e+006   4.5036e+006    0.0000    0.0435    0.0069   -0.0000    0.0392
                0.2548  -9.7779e-004   2.2863e-004   1.1647e-003  -1.8516e+007   1.9826e+006   4.6007e+006    0.0000    0.0373    0.0059   -0.0000    0.0400
                0.2765  -7.9107e-004   1.8565e-004   1.1828e-003  -1.4978e+007   1.6174e+006   4.6719e+006    0.0000    0.0301    0.0048   -0.0000    0.0406
                0.3030  -5.9054e-004   1.3782e-004   1.1988e-003  -1.1183e+007   1.1923e+006   4.7352e+006    0.0000    0.0225    0.0035   -0.0000    0.0412
                0.3225  -4.1355e-004   9.7218e-005   1.2063e-003  -7.8298e+006   8.4871e+005   4.7647e+006    0.0000    0.0158    0.0025   -0.0000    0.0414
                0.3541  -1.6298e-004   3.7765e-005   1.2105e-003  -3.0872e+006   3.2375e+005   4.7815e+006    0.0000    0.0062    0.0010   -0.0000    0.0416
                0.3816   3.4838e-005  -1.0223e-005   1.2063e-003   6.5442e+005  -1.1121e+005   4.7648e+006    0.0019   -0.0000    0.0000    0.0003    0.0414
                0.3909   9.5718e-005  -2.5365e-005   1.2032e-003   1.8050e+006  -2.5237e+005   4.7525e+006    0.0054   -0.0000    0.0000    0.0007    0.0413

               lamina:  2     
              matName:  (blade-root)
                     s           e11           e22           e12           s11           s22           s12   s11_fcT   s11_fcC   s22_fcT   s22_fcC   s12_fcS
                   (m)         (m/m)         (m/m)         (rad)          (Pa)          (Pa)          (Pa)       (-)       (-)       (-)       (-)       (-)
                0.0000  -2.4206e-003   5.7517e-004   6.5711e-004  -8.6564e+007  -1.9118e+006   2.7073e+006    0.0000    0.1099    0.0000    0.0373    0.0242
                0.0155  -2.3515e-003   5.5921e-004   7.0121e-004  -8.4088e+007  -1.8531e+006   2.8890e+006    0.0000    0.1067    0.0000    0.0362    0.0258
                0.0402  -2.2356e-003   5.3159e-004   7.6844e-004  -7.9945e+007  -1.7623e+006   3.1660e+006    0.0000    0.1015    0.0000    0.0344    0.0283
                0.0652  -2.1241e-003   5.0443e-004   8.3266e-004  -7.5959e+007  -1.6800e+006   3.4306e+006    0.0000    0.0964    0.0000    0.0328    0.0306
                0.0880  -2.0012e-003   4.7557e-004   8.8767e-004  -7.1564e+007  -1.5800e+006   3.6572e+006    0.0000    0.0908    0.0000    0.0309    0.0327
                0.1129  -1.8577e-003   4.4133e-004   9.4335e-004  -6.6434e+007  -1.4680e+006   3.8866e+006    0.0000    0.0843    0.0000    0.0287    0.0347
                0.1365  -1.7259e-003   4.0964e-004   9.9183e-004  -6.1719e+007  -1.3669e+006   4.0864e+006    0.0000    0.0783    0.0000    0.0267    0.0365
                0.1600  -1.5716e-003   3.7329e-004   1.0356e-003  -5.6202e+007  -1.2424e+006   4.2668e+006    0.0000    0.0713    0.0000    0.0243    0.0381
                0.1849  -1.4201e-003   3.3653e-004   1.0771e-003  -5.0786e+007  -1.1293e+006   4.4377e+006    0.0000    0.0644    0.0000    0.0221    0.0396
                0.2061  -1.2693e-003   3.0123e-004   1.1083e-003  -4.5390e+007  -1.0055e+006   4.5662e+006    0.0000    0.0576    0.0000    0.0196    0.0408
                0.2312  -1.0847e-003   2.5751e-004   1.1402e-003  -3.8789e+007  -8.5853e+005   4.6975e+006    0.0000    0.0492    0.0000    0.0168    0.0419
                0.2548  -9.2622e-004   2.1916e-004   1.1647e-003  -3.3125e+007  -7.3937e+005   4.7987e+006    0.0000    0.0420    0.0000    0.0144    0.0428
                0.2765  -7.5177e-004   1.7844e-004   1.1828e-003  -2.6884e+007  -5.9537e+005   4.8730e+006    0.0000    0.0341    0.0000    0.0116    0.0435
                0.3030  -5.5847e-004   1.3193e-004   1.1988e-003  -1.9973e+007  -4.4764e+005   4.9390e+006    0.0000    0.0253    0.0000    0.0087    0.0441
                0.3225  -3.9358e-004   9.3552e-005   1.2063e-003  -1.4075e+007  -3.1057e+005   4.9698e+006    0.0000    0.0179    0.0000    0.0061    0.0444
                0.3541  -1.5317e-004   3.5963e-005   1.2105e-003  -5.4786e+006  -1.2466e+005   4.9873e+006    0.0000    0.0070    0.0000    0.0024    0.0445
                0.3816   8.2718e-005  -1.9014e-005   1.2063e-003   2.9598e+006   7.0803e+004   4.9699e+006    0.0029   -0.0000    0.0014   -0.0000    0.0444
                0.3909   1.4360e-004  -3.4156e-005   1.2032e-003   5.1351e+006   1.1311e+005   4.9571e+006    0.0051   -0.0000    0.0022   -0.0000    0.0443

               lamina:  3     
              matName:  (blade-shell)
                     s           e11           e22           e12           s11           s22           s12   s11_fcT   s11_fcC   s22_fcT   s22_fcC   s12_fcS
                   (m)         (m/m)         (m/m)         (rad)          (Pa)          (Pa)          (Pa)       (-)       (-)       (-)       (-)       (-)
                0.0000  -1.5950e-003   4.2358e-004   6.5711e-004  -3.0075e+007   4.2230e+006   2.5956e+006    0.0000    0.0605    0.0125   -0.0000    0.0226
                0.0155  -1.5641e-003   4.1465e-004   7.0121e-004  -2.9495e+007   4.1270e+006   2.7698e+006    0.0000    0.0593    0.0122   -0.0000    0.0241
                0.0402  -1.4851e-003   3.9379e-004   7.6844e-004  -2.8003e+007   3.9203e+006   3.0354e+006    0.0000    0.0563    0.0116   -0.0000    0.0264
                0.0652  -1.3911e-003   3.6985e-004   8.3266e-004  -2.6229e+007   3.6913e+006   3.2890e+006    0.0000    0.0528    0.0110   -0.0000    0.0286
                0.0880  -1.3206e-003   3.5061e-004   8.8767e-004  -2.4902e+007   3.4946e+006   3.5063e+006    0.0000    0.0501    0.0104   -0.0000    0.0305
                0.1129  -1.2213e-003   3.2448e-004   9.4335e-004  -2.3028e+007   3.2363e+006   3.7262e+006    0.0000    0.0463    0.0096   -0.0000    0.0324
                0.1365  -1.1235e-003   2.9904e-004   9.9183e-004  -2.1183e+007   2.9879e+006   3.9177e+006    0.0000    0.0426    0.0089   -0.0000    0.0341
                0.1600  -1.0313e-003   2.7409e-004   1.0356e-003  -1.9446e+007   2.7346e+006   4.0907e+006    0.0000    0.0391    0.0081   -0.0000    0.0356
                0.1849  -9.0795e-004   2.4249e-004   1.0771e-003  -1.7117e+007   2.4307e+006   4.2546e+006    0.0000    0.0344    0.0072   -0.0000    0.0370
                0.2061  -8.2546e-004   2.1975e-004   1.1083e-003  -1.5563e+007   2.1960e+006   4.3778e+006    0.0000    0.0313    0.0065   -0.0000    0.0381
                0.2312  -7.0795e-004   1.8834e-004   1.1402e-003  -1.3348e+007   1.8809e+006   4.5036e+006    0.0000    0.0269    0.0056   -0.0000    0.0392
                0.2548  -5.8211e-004   1.5598e-004   1.1647e-003  -1.0973e+007   1.5684e+006   4.6007e+006    0.0000    0.0221    0.0047   -0.0000    0.0400
                0.2765  -4.8953e-004   1.3029e-004   1.1828e-003  -9.2298e+006   1.3017e+006   4.6719e+006    0.0000    0.0186    0.0039   -0.0000    0.0406
                0.3030  -3.4440e-004   9.2626e-005   1.1988e-003  -6.4909e+006   9.3460e+005   4.7352e+006    0.0000    0.0131    0.0028   -0.0000    0.0412
                0.3225  -2.6035e-004   6.9091e-005   1.2063e-003  -4.9093e+006   6.8834e+005   4.7647e+006    0.0000    0.0099    0.0020   -0.0000    0.0414
                0.3541  -8.7672e-005   2.3938e-005   1.2105e-003  -1.6515e+006   2.4491e+005   4.7815e+006    0.0000    0.0033    0.0007   -0.0000    0.0416
                0.3816   8.9893e-005  -2.0332e-005   1.2063e-003   1.7040e+006  -1.6885e+005   4.7648e+006    0.0051   -0.0000    0.0000    0.0005    0.0414
                0.3909   1.5077e-004  -3.5474e-005   1.2032e-003   2.8545e+006  -3.1000e+005   4.7525e+006    0.0085   -0.0000    0.0000    0.0009    0.0413

  Bottom:  panel  nNode   nLam     xc_St    xc_End         b         t         E_eff         G_eff      nu_eff     density  buckleCrit
            (-)    (-)    (-)       (-)       (-)       (m)       (m)          (Pa)          (Pa)         (-)    (kg/m^3)         (-)
              1     18      3    0.0000    0.2507    0.3928    0.0529   3.1848e+010   4.0808e+009      0.2487   1754.6346      0.0001
              2     19      3    0.2507    0.7493    0.4090    0.0529   3.1848e+010   4.0808e+009      0.2487   1754.6346      0.0000
              3     18      3    0.7493    1.0000    0.3892    0.0529   3.1848e+010   4.0808e+009      0.2487   1754.6346      0.0000

            panel:  1     
           lam_num    nPlies        tPly      fibAng     matID  matName
               (-)       (-)         (m)       (deg)       (-)  (-)
                 1         1    0.006094      0.0000         2  (blade-shell)
                 2         1    0.040665      0.0000         1  (blade-root)
                 3         1    0.006094      0.0000         2  (blade-shell)

               lamina:  1     
              matName:  (blade-shell)
                     s           e11           e22           e12           s11           s22           s12   s11_fcT   s11_fcC   s22_fcT   s22_fcC   s12_fcS
                   (m)         (m/m)         (m/m)         (rad)          (Pa)          (Pa)          (Pa)       (-)       (-)       (-)       (-)       (-)
                0.0000  -8.2588e-005   2.2059e-005   1.3288e-003  -1.5570e+006   2.2112e+005   5.2490e+006    0.0000    0.0031    0.0007   -0.0000    0.0456
                0.0095  -2.0778e-005   6.6854e-006   1.3318e-003  -3.8881e+005   7.7813e+004   5.2606e+006    0.0000    0.0008    0.0002   -0.0000    0.0457
                0.0373   1.7952e-004  -4.1943e-005   1.3354e-003   3.3996e+006  -3.6335e+005   5.2749e+006    0.0101   -0.0000    0.0000    0.0011    0.0459
                0.0695   4.3297e-004  -1.0215e-004   1.3301e-003   8.1965e+006  -8.9575e+005   5.2541e+006    0.0243   -0.0000    0.0000    0.0027    0.0457
                0.0893   6.1154e-004  -1.4319e-004   1.3219e-003   1.1580e+007  -1.2438e+006   5.2215e+006    0.0344   -0.0000    0.0000    0.0037    0.0454
                0.1162   8.1453e-004  -1.9165e-004   1.3046e-003   1.5421e+007  -1.6748e+006   5.1533e+006    0.0458   -0.0000    0.0000    0.0050    0.0448
                0.1381   1.0030e-003  -2.3507e-004   1.2855e-003   1.8992e+007  -2.0443e+006   5.0777e+006    0.0564   -0.0000    0.0000    0.0061    0.0442
                0.1619   1.1681e-003  -2.7474e-004   1.2597e-003   2.2115e+007  -2.4000e+006   4.9756e+006    0.0656   -0.0000    0.0000    0.0071    0.0433
                0.1873   1.3648e-003  -3.2080e-004   1.2263e-003   2.5839e+007  -2.8002e+006   4.8440e+006    0.0767   -0.0000    0.0000    0.0083    0.0421
                0.2086   1.5271e-003  -3.5824e-004   1.1940e-003   2.8914e+007  -3.1193e+006   4.7165e+006    0.0858   -0.0000    0.0000    0.0093    0.0410
                0.2336   1.6839e-003  -3.9603e-004   1.1512e-003   3.1882e+007  -3.4592e+006   4.5472e+006    0.0946   -0.0000    0.0000    0.0103    0.0395
                0.2571   1.8486e-003  -4.3430e-004   1.1062e-003   3.5000e+007  -3.7885e+006   4.3696e+006    0.1039   -0.0000    0.0000    0.0112    0.0380
                0.2806   1.9858e-003  -4.6696e-004   1.0567e-003   3.7598e+007  -4.0778e+006   4.1739e+006    0.1116   -0.0000    0.0000    0.0121    0.0363
                0.3055   2.1363e-003  -5.0247e-004   9.9994e-004   4.0447e+007  -4.3893e+006   3.9498e+006    0.1200   -0.0000    0.0000    0.0130    0.0343
                0.3281   2.2668e-003  -5.3264e-004   9.4426e-004   4.2919e+007  -4.6472e+006   3.7298e+006    0.1274   -0.0000    0.0000    0.0138    0.0324
                0.3530   2.3800e-003  -5.6002e-004   8.7926e-004   4.5059e+007  -4.8947e+006   3.4731e+006    0.1337   -0.0000    0.0000    0.0145    0.0302
                0.3775   2.5004e-003  -5.8837e-004   8.1149e-004   4.7339e+007  -5.1427e+006   3.2054e+006    0.1405   -0.0000    0.0000    0.0153    0.0279
                0.3928   2.5742e-003  -6.0507e-004   7.6730e-004   4.8738e+007  -5.2814e+006   3.0308e+006    0.1446   -0.0000    0.0000    0.0157    0.0264

               lamina:  2     
              matName:  (blade-root)
                     s           e11           e22           e12           s11           s22           s12   s11_fcT   s11_fcC   s22_fcT   s22_fcC   s12_fcS
                   (m)         (m/m)         (m/m)         (rad)          (Pa)          (Pa)          (Pa)       (-)       (-)       (-)       (-)       (-)
                0.0000  -1.2921e-004   3.0617e-005   1.3288e-003  -4.6207e+006  -1.0275e+005   5.4749e+006    0.0000    0.0059    0.0000    0.0020    0.0489
                0.0095  -6.7394e-005   1.5244e-005   1.3318e-003  -2.4122e+006  -5.9804e+004   5.4870e+006    0.0000    0.0031    0.0000    0.0012    0.0490
                0.0373   1.6993e-004  -4.0182e-005   1.3354e-003   6.0775e+006   1.3589e+005   5.5019e+006    0.0060   -0.0000    0.0027   -0.0000    0.0491
                0.0695   4.1337e-004  -9.8553e-005   1.3301e-003   1.4781e+007   3.2364e+005   5.4802e+006    0.0147   -0.0000    0.0063   -0.0000    0.0489
                0.0893   5.7998e-004  -1.3739e-004   1.3219e-003   2.0741e+007   4.6163e+005   5.4462e+006    0.0206   -0.0000    0.0090   -0.0000    0.0486
                0.1162   7.7579e-004  -1.8453e-004   1.3046e-003   2.7742e+007   6.1102e+005   5.3751e+006    0.0276   -0.0000    0.0119   -0.0000    0.0480
                0.1381   9.5204e-004  -2.2571e-004   1.2855e-003   3.4047e+007   7.5622e+005   5.2962e+006    0.0339   -0.0000    0.0148   -0.0000    0.0473
                0.1619   1.1122e-003  -2.6448e-004   1.2597e-003   3.9772e+007   8.7659e+005   5.1898e+006    0.0396   -0.0000    0.0171   -0.0000    0.0463
                0.1873   1.2988e-003  -3.0868e-004   1.2263e-003   4.6444e+007   1.0251e+006   5.0525e+006    0.0462   -0.0000    0.0200   -0.0000    0.0451
                0.2086   1.4507e-003  -3.4421e-004   1.1940e-003   5.1879e+007   1.1499e+006   4.9194e+006    0.0516   -0.0000    0.0225   -0.0000    0.0439
                0.2336   1.6032e-003  -3.8122e-004   1.1512e-003   5.7332e+007   1.2639e+006   4.7429e+006    0.0570   -0.0000    0.0247   -0.0000    0.0423
                0.2571   1.7584e-003  -4.1774e-004   1.1062e-003   6.2881e+007   1.3893e+006   4.5576e+006    0.0626   -0.0000    0.0271   -0.0000    0.0407
                0.2806   1.8904e-003  -4.4943e-004   1.0567e-003   6.7601e+007   1.4908e+006   4.3535e+006    0.0673   -0.0000    0.0291   -0.0000    0.0389
                0.3055   2.0341e-003  -4.8370e-004   9.9994e-004   7.2740e+007   1.6033e+006   4.1198e+006    0.0724   -0.0000    0.0313   -0.0000    0.0368
                0.3281   2.1565e-003  -5.1238e-004   9.4426e-004   7.7118e+007   1.7034e+006   3.8903e+006    0.0767   -0.0000    0.0333   -0.0000    0.0347
                0.3530   2.2670e-003  -5.3927e-004   8.7926e-004   8.1066e+007   1.7851e+006   3.6226e+006    0.0807   -0.0000    0.0349   -0.0000    0.0323
                0.3775   2.3817e-003  -5.6658e-004   8.1149e-004   8.5170e+007   1.8754e+006   3.3433e+006    0.0847   -0.0000    0.0366   -0.0000    0.0299
                0.3928   2.4497e-003  -5.8221e-004   7.6730e-004   8.7601e+007   1.9335e+006   3.1613e+006    0.0872   -0.0000    0.0378   -0.0000    0.0282

               lamina:  3     
              matName:  (blade-shell)
                     s           e11           e22           e12           s11           s22           s12   s11_fcT   s11_fcC   s22_fcT   s22_fcC   s12_fcS
                   (m)         (m/m)         (m/m)         (rad)          (Pa)          (Pa)          (Pa)       (-)       (-)       (-)       (-)       (-)
                0.0000  -1.3619e-004   3.1900e-005   1.3288e-003  -2.5788e+006   2.7723e+005   5.2490e+006    0.0000    0.0052    0.0008   -0.0000    0.0456
                0.0095  -7.4380e-005   1.6527e-005   1.3318e-003  -1.4107e+006   1.3393e+005   5.2606e+006    0.0000    0.0028    0.0004   -0.0000    0.0457
                0.0373   1.0595e-004  -2.8435e-005   1.3354e-003   1.9971e+006  -2.8634e+005   5.2749e+006    0.0059   -0.0000    0.0000    0.0008    0.0459
                0.0695   2.8258e-004  -7.4540e-005   1.3301e-003   5.3296e+006  -7.3833e+005   5.2541e+006    0.0158   -0.0000    0.0000    0.0022    0.0457
                0.0893   3.6932e-004  -9.8713e-005   1.3219e-003   6.9622e+006  -9.9021e+005   5.2215e+006    0.0207   -0.0000    0.0000    0.0029    0.0454
                0.1162   5.1725e-004  -1.3707e-004   1.3046e-003   9.7540e+006  -1.3636e+006   5.1533e+006    0.0289   -0.0000    0.0000    0.0040    0.0448
                0.1381   6.1182e-004  -1.6325e-004   1.2855e-003   1.1534e+007  -1.6348e+006   5.0777e+006    0.0342   -0.0000    0.0000    0.0049    0.0442
                0.1619   7.3932e-004  -1.9602e-004   1.2597e-003   1.3941e+007  -1.9512e+006   4.9756e+006    0.0414   -0.0000    0.0000    0.0058    0.0433
                0.1873   8.5824e-004  -2.2780e-004   1.2263e-003   1.6183e+007  -2.2699e+006   4.8440e+006    0.0480   -0.0000    0.0000    0.0067    0.0421
                0.2086   9.4091e-004  -2.5061e-004   1.1940e-003   1.7740e+007  -2.5056e+006   4.7165e+006    0.0526   -0.0000    0.0000    0.0074    0.0410
                0.2336   1.0648e-003  -2.8236e-004   1.1512e-003   2.0079e+007  -2.8111e+006   4.5472e+006    0.0596   -0.0000    0.0000    0.0083    0.0395
                0.2571   1.1565e-003  -3.0723e-004   1.1062e-003   2.1806e+007  -3.0640e+006   4.3696e+006    0.0647   -0.0000    0.0000    0.0091    0.0380
                0.2806   1.2536e-003  -3.3251e-004   1.0567e-003   2.3638e+007  -3.3113e+006   4.1739e+006    0.0701   -0.0000    0.0000    0.0098    0.0363
                0.3055   1.3519e-003  -3.5845e-004   9.9994e-004   2.5492e+007  -3.5681e+006   3.9498e+006    0.0756   -0.0000    0.0000    0.0106    0.0343
                0.3281   1.4203e-003  -3.7722e-004   9.4426e-004   2.6781e+007  -3.7611e+006   3.7298e+006    0.0795   -0.0000    0.0000    0.0112    0.0324
                0.3530   1.5128e-003  -4.0080e-004   8.7926e-004   2.8527e+007  -3.9869e+006   3.4731e+006    0.0846   -0.0000    0.0000    0.0118    0.0302
                0.3775   1.5897e-003  -4.2117e-004   8.1149e-004   2.9978e+007  -4.1894e+006   3.2054e+006    0.0890   -0.0000    0.0000    0.0124    0.0279
                0.3928   1.6185e-003  -4.2960e-004   7.6730e-004   3.0519e+007  -4.2810e+006   3.0308e+006    0.0906   -0.0000    0.0000    0.0127    0.0264

            panel:  2     
           lam_num    nPlies        tPly      fibAng     matID  matName
               (-)       (-)         (m)       (deg)       (-)  (-)
                 1         1    0.006094      0.0000         2  (blade-shell)
                 2         1    0.040665      0.0000         1  (blade-root)
                 3         1    0.006094      0.0000         2  (blade-shell)

               lamina:  1     
              matName:  (blade-shell)
                     s           e11           e22           e12           s11           s22           s12   s11_fcT   s11_fcC   s22_fcT   s22_fcC   s12_fcS
                   (m)         (m/m)         (m/m)         (rad)          (Pa)          (Pa)          (Pa)       (-)       (-)       (-)       (-)       (-)
                0.0000   2.5742e-003  -6.0507e-004   8.6621e-004   4.8738e+007  -5.2814e+006   3.4215e+006    0.1446   -0.0000    0.0000    0.0157    0.0298
                0.0079   2.5994e-003  -6.1133e-004   8.4298e-004   4.9213e+007  -5.3397e+006   3.3298e+006    0.1460   -0.0000    0.0000    0.0158    0.0290
                0.0329   2.6923e-003  -6.3359e-004   7.6729e-004   5.0972e+007  -5.5385e+006   3.0308e+006    0.1513   -0.0000    0.0000    0.0164    0.0264
                0.0566   2.7757e-003  -6.5298e-004   6.9263e-004   5.2552e+007  -5.7056e+006   2.7359e+006    0.1559   -0.0000    0.0000    0.0169    0.0238
                0.0815   2.8387e-003  -6.6816e-004   6.1166e-004   5.3744e+007  -5.8419e+006   2.4161e+006    0.1595   -0.0000    0.0000    0.0173    0.0210
                0.1059   2.9076e-003  -6.8436e-004   5.3015e-004   5.5048e+007  -5.9835e+006   2.0941e+006    0.1633   -0.0000    0.0000    0.0178    0.0182
                0.1296   2.9484e-003  -6.9375e-004   4.4914e-004   5.5820e+007  -6.0634e+006   1.7741e+006    0.1656   -0.0000    0.0000    0.0180    0.0154
                0.1550   2.9820e-003  -7.0191e-004   3.6101e-004   5.6456e+007  -6.1374e+006   1.4260e+006    0.1675   -0.0000    0.0000    0.0182    0.0124
                0.1791   3.0092e-003  -7.0831e-004   2.7606e-004   5.6972e+007  -6.1931e+006   1.0904e+006    0.1691   -0.0000    0.0000    0.0184    0.0095
                0.2039   3.0149e-003  -7.0961e-004   1.8808e-004   5.7080e+007  -6.2040e+006   7.4291e+005    0.1694   -0.0000    0.0000    0.0184    0.0065
                0.2286   3.0193e-003  -7.1070e-004   9.9569e-005   5.7163e+007  -6.2143e+006   3.9330e+005    0.1696   -0.0000    0.0000    0.0184    0.0034
                0.2528   3.0030e-003  -7.0685e-004   1.2908e-005   5.6854e+007  -6.1805e+006   5.0987e+004    0.1687   -0.0000    0.0000    0.0183    0.0004
                0.2783   2.9791e-003  -7.0104e-004   7.8004e-005   5.6402e+007  -6.1278e+006   3.0812e+005    0.1674   -0.0000    0.0000    0.0182    0.0027
                0.3022   2.9495e-003  -6.9423e-004   1.6277e-004   5.5841e+007  -6.0699e+006   6.4295e+005    0.1657   -0.0000    0.0000    0.0180    0.0056
                0.3269   2.8925e-003  -6.8077e-004   2.4916e-004   5.4762e+007  -5.9518e+006   9.8420e+005    0.1625   -0.0000    0.0000    0.0177    0.0086
                0.3520   2.8400e-003  -6.6812e-004   3.3588e-004   5.3769e+007  -5.8380e+006   1.3267e+006    0.1596   -0.0000    0.0000    0.0173    0.0115
                0.3759   2.7689e-003  -6.5155e-004   4.1709e-004   5.2423e+007  -5.6947e+006   1.6475e+006    0.1556   -0.0000    0.0000    0.0169    0.0143
                0.4011   2.6875e-003  -6.3202e-004   5.0031e-004   5.0883e+007  -5.5200e+006   1.9762e+006    0.1510   -0.0000    0.0000    0.0164    0.0172
                0.4090   2.6654e-003  -6.2651e-004   5.2604e-004   5.0465e+007  -5.4686e+006   2.0779e+006    0.1497   -0.0000    0.0000    0.0162    0.0181

               lamina:  2     
              matName:  (blade-root)
                     s           e11           e22           e12           s11           s22           s12   s11_fcT   s11_fcC   s22_fcT   s22_fcC   s12_fcS
                   (m)         (m/m)         (m/m)         (rad)          (Pa)          (Pa)          (Pa)       (-)       (-)       (-)       (-)       (-)
                0.0000   2.4497e-003  -5.8221e-004   8.6621e-004   8.7601e+007   1.9335e+006   3.5688e+006    0.0872   -0.0000    0.0378   -0.0000    0.0319
                0.0079   2.4748e-003  -5.8846e-004   8.4298e-004   8.8499e+007   1.9510e+006   3.4731e+006    0.0881   -0.0000    0.0381   -0.0000    0.0310
                0.0329   2.5647e-003  -6.1016e-004   7.6729e-004   9.1714e+007   2.0191e+006   3.1612e+006    0.0913   -0.0000    0.0394   -0.0000    0.0282
                0.0566   2.6434e-003  -6.2869e-004   6.9263e-004   9.4526e+007   2.0826e+006   2.8536e+006    0.0941   -0.0000    0.0407   -0.0000    0.0255
                0.0815   2.7046e-003  -6.4353e-004   6.1166e-004   9.6715e+007   2.1284e+006   2.5201e+006    0.0962   -0.0000    0.0416   -0.0000    0.0225
                0.1059   2.7702e-003  -6.5913e-004   5.3015e-004   9.9061e+007   2.1801e+006   2.1842e+006    0.0986   -0.0000    0.0426   -0.0000    0.0195
                0.1296   2.8083e-003  -6.6804e-004   4.4914e-004   1.0042e+008   2.2115e+006   1.8504e+006    0.0999   -0.0000    0.0432   -0.0000    0.0165
                0.1550   2.8412e-003  -6.7607e-004   3.6101e-004   1.0160e+008   2.2357e+006   1.4874e+006    0.1011   -0.0000    0.0437   -0.0000    0.0133
                0.1791   2.8671e-003  -6.8221e-004   2.7606e-004   1.0253e+008   2.2562e+006   1.1374e+006    0.1020   -0.0000    0.0441   -0.0000    0.0102
                0.2039   2.8724e-003  -6.8344e-004   1.8808e-004   1.0272e+008   2.2606e+006   7.7489e+005    0.1022   -0.0000    0.0442   -0.0000    0.0069
                0.2286   2.8768e-003  -6.8453e-004   9.9569e-005   1.0287e+008   2.2637e+006   4.1023e+005    0.1024   -0.0000    0.0442   -0.0000    0.0037
                0.2528   2.8612e-003  -6.8082e-004   1.2908e-005   1.0232e+008   2.2515e+006   5.3181e+004    0.1018   -0.0000    0.0440   -0.0000    0.0005
                0.2783   2.8378e-003  -6.7510e-004   7.8004e-005   1.0148e+008   2.2343e+006   3.2138e+005    0.1010   -0.0000    0.0436   -0.0000    0.0029
                0.3022   2.8101e-003  -6.6865e-004   1.6277e-004   1.0049e+008   2.2115e+006   6.7062e+005    0.1000   -0.0000    0.0432   -0.0000    0.0060
                0.3269   2.7557e-003  -6.5566e-004   2.4916e-004   9.8542e+007   2.1689e+006   1.0266e+006    0.0981   -0.0000    0.0424   -0.0000    0.0092
                0.3520   2.7046e-003  -6.4327e-004   3.3588e-004   9.6717e+007   2.1307e+006   1.3838e+006    0.0962   -0.0000    0.0416   -0.0000    0.0124
                0.3759   2.6375e-003  -6.2741e-004   4.1709e-004   9.4315e+007   2.0769e+006   1.7184e+006    0.0938   -0.0000    0.0406   -0.0000    0.0153
                0.4011   2.5586e-003  -6.0834e-004   5.0031e-004   9.1496e+007   2.0174e+006   2.0613e+006    0.0910   -0.0000    0.0394   -0.0000    0.0184
                0.4090   2.5365e-003  -6.0284e-004   5.2604e-004   9.0705e+007   2.0020e+006   2.1673e+006    0.0903   -0.0000    0.0391   -0.0000    0.0194

               lamina:  3     
              matName:  (blade-shell)
                     s           e11           e22           e12           s11           s22           s12   s11_fcT   s11_fcC   s22_fcT   s22_fcC   s12_fcS
                   (m)         (m/m)         (m/m)         (rad)          (Pa)          (Pa)          (Pa)       (-)       (-)       (-)       (-)       (-)
                0.0000   1.6185e-003  -4.2960e-004   8.6621e-004   3.0519e+007  -4.2810e+006   3.4215e+006    0.0906   -0.0000    0.0000    0.0127    0.0298
                0.0079   1.6436e-003  -4.3586e-004   8.4298e-004   3.0994e+007  -4.3393e+006   3.3298e+006    0.0920   -0.0000    0.0000    0.0129    0.0290
                0.0329   1.7133e-003  -4.5384e-004   7.6729e-004   3.2308e+007  -4.5136e+006   3.0308e+006    0.0959   -0.0000    0.0000    0.0134    0.0264
                0.0566   1.7602e-003  -4.6654e-004   6.9263e-004   3.3192e+007  -4.6425e+006   2.7359e+006    0.0985   -0.0000    0.0000    0.0138    0.0238
                0.0815   1.8095e-003  -4.7919e-004   6.1166e-004   3.4123e+007  -4.7645e+006   2.4161e+006    0.1013   -0.0000    0.0000    0.0141    0.0210
                0.1059   1.8532e-003  -4.9078e-004   5.3015e-004   3.4948e+007  -4.8797e+006   2.0941e+006    0.1037   -0.0000    0.0000    0.0145    0.0182
                0.1296   1.8737e-003  -4.9644e-004   4.4914e-004   3.5333e+007  -4.9384e+006   1.7741e+006    0.1048   -0.0000    0.0000    0.0147    0.0154
                0.1550   1.9018e-003  -5.0359e-004   3.6101e-004   3.5863e+007  -5.0066e+006   1.4260e+006    0.1064   -0.0000    0.0000    0.0149    0.0124
                0.1791   1.9187e-003  -5.0808e-004   2.7606e-004   3.6182e+007  -5.0515e+006   1.0904e+006    0.1074   -0.0000    0.0000    0.0150    0.0095
                0.2039   1.9212e-003  -5.0880e-004   1.8808e-004   3.6229e+007  -5.0591e+006   7.4291e+005    0.1075   -0.0000    0.0000    0.0150    0.0065
                0.2286   1.9257e-003  -5.0990e-004   9.9569e-005   3.6314e+007  -5.0694e+006   3.9330e+005    0.1078   -0.0000    0.0000    0.0150    0.0034
                0.2528   1.9150e-003  -5.0710e-004   1.2908e-005   3.6113e+007  -5.0416e+006   5.0987e+004    0.1072   -0.0000    0.0000    0.0150    0.0004
                0.2783   1.8949e-003  -5.0199e-004   7.8004e-005   3.5733e+007  -4.9929e+006   3.0812e+005    0.1060   -0.0000    0.0000    0.0148    0.0027
                0.3022   1.8802e-003  -4.9790e-004   1.6277e-004   3.5456e+007  -4.9505e+006   6.4295e+005    0.1052   -0.0000    0.0000    0.0147    0.0056
                0.3269   1.8428e-003  -4.8806e-004   2.4916e-004   3.4751e+007  -4.8530e+006   9.8420e+005    0.1031   -0.0000    0.0000    0.0144    0.0086
                0.3520   1.8013e-003  -4.7742e-004   3.3588e-004   3.3967e+007  -4.7507e+006   1.3267e+006    0.1008   -0.0000    0.0000    0.0141    0.0115
                0.3759   1.7601e-003  -4.6632e-004   4.1709e-004   3.3190e+007  -4.6386e+006   1.6475e+006    0.0985   -0.0000    0.0000    0.0138    0.0143
                0.4011   1.6981e-003  -4.5035e-004   5.0031e-004   3.2020e+007  -4.4842e+006   1.9762e+006    0.0950   -0.0000    0.0000    0.0133    0.0172
                0.4090   1.6759e-003  -4.4485e-004   5.2604e-004   3.1602e+007  -4.4328e+006   2.0779e+006    0.0938   -0.0000    0.0000    0.0132    0.0181

            panel:  3     
           lam_num    nPlies        tPly      fibAng     matID  matName
               (-)       (-)         (m)       (deg)       (-)  (-)
                 1         1    0.006094      0.0000         2  (blade-shell)
                 2         1    0.040665      0.0000         1  (blade-root)
                 3         1    0.006094      0.0000         2  (blade-shell)

               lamina:  1     
              matName:  (blade-shell)
                     s           e11           e22           e12           s11           s22           s12   s11_fcT   s11_fcC   s22_fcT   s22_fcC   s12_fcS
                   (m)         (m/m)         (m/m)         (rad)          (Pa)          (Pa)          (Pa)       (-)       (-)       (-)       (-)       (-)
                0.0000   2.6654e-003  -6.2651e-004   4.3515e-004   5.0465e+007  -5.4686e+006   1.7189e+006    0.1497   -0.0000    0.0000    0.0162    0.0149
                0.0155   2.6010e-003  -6.1191e-004   4.8478e-004   4.9245e+007  -5.3468e+006   1.9149e+006    0.1461   -0.0000    0.0000    0.0159    0.0167
                0.0401   2.4932e-003  -5.8647e-004   5.6149e-004   4.7204e+007  -5.1237e+006   2.2179e+006    0.1401   -0.0000    0.0000    0.0152    0.0193
                0.0650   2.3911e-003  -5.6173e-004   6.3621e-004   4.5272e+007  -4.8998e+006   2.5130e+006    0.1343   -0.0000    0.0000    0.0145    0.0219
                0.0878   2.2732e-003  -5.3442e-004   7.0159e-004   4.3039e+007  -4.6658e+006   2.7713e+006    0.1277   -0.0000    0.0000    0.0138    0.0241
                0.1126   2.1350e-003  -5.0177e-004   7.6931e-004   4.0423e+007  -4.3790e+006   3.0388e+006    0.1199   -0.0000    0.0000    0.0130    0.0264
                0.1361   2.0087e-003  -4.7169e-004   8.2998e-004   3.8032e+007  -4.1123e+006   3.2784e+006    0.1129   -0.0000    0.0000    0.0122    0.0285
                0.1594   1.8558e-003  -4.3614e-004   8.8651e-004   3.5137e+007  -3.8061e+006   3.5017e+006    0.1043   -0.0000    0.0000    0.0113    0.0304
                0.1842   1.7092e-003  -4.0079e-004   9.4222e-004   3.2362e+007  -3.4880e+006   3.7218e+006    0.0960   -0.0000    0.0000    0.0104    0.0324
                0.2053   1.5570e-003  -3.6572e-004   9.8602e-004   2.9480e+007  -3.1893e+006   3.8948e+006    0.0875   -0.0000    0.0000    0.0095    0.0339
                0.2303   1.3704e-003  -3.2205e-004   1.0334e-003   2.5947e+007  -2.8102e+006   4.0820e+006    0.0770   -0.0000    0.0000    0.0083    0.0355
                0.2537   1.2136e-003  -2.8439e-004   1.0731e-003   2.2980e+007  -2.4728e+006   4.2387e+006    0.0682   -0.0000    0.0000    0.0073    0.0369
                0.2753   1.0331e-003  -2.4286e-004   1.1053e-003   1.9559e+007  -2.1203e+006   4.3661e+006    0.0580   -0.0000    0.0000    0.0063    0.0380
                0.3016   8.3740e-004  -1.9620e-004   1.1392e-003   1.5856e+007  -1.7058e+006   4.5000e+006    0.0471   -0.0000    0.0000    0.0051    0.0391
                0.3211   6.6432e-004  -1.5654e-004   1.1601e-003   1.2577e+007  -1.3706e+006   4.5825e+006    0.0373   -0.0000    0.0000    0.0041    0.0398
                0.3526   4.1660e-004  -9.7776e-005   1.1865e-003   7.8879e+006  -8.5188e+005   4.6867e+006    0.0234   -0.0000    0.0000    0.0025    0.0408
                0.3799   2.2763e-004  -5.1519e-005   1.2017e-003   4.3147e+006  -4.2826e+005   4.7466e+006    0.0128   -0.0000    0.0000    0.0013    0.0413
                0.3892   1.6729e-004  -3.6514e-005   1.2052e-003   3.1746e+006  -2.8838e+005   4.7604e+006    0.0094   -0.0000    0.0000    0.0009    0.0414

               lamina:  2     
              matName:  (blade-root)
                     s           e11           e22           e12           s11           s22           s12   s11_fcT   s11_fcC   s22_fcT   s22_fcC   s12_fcS
                   (m)         (m/m)         (m/m)         (rad)          (Pa)          (Pa)          (Pa)       (-)       (-)       (-)       (-)       (-)
                0.0000   2.5365e-003  -6.0284e-004   4.3515e-004   9.0705e+007   2.0020e+006   1.7928e+006    0.0903   -0.0000    0.0391   -0.0000    0.0160
                0.0155   2.4771e-003  -5.8914e-004   4.8478e-004   8.8579e+007   1.9515e+006   1.9973e+006    0.0881   -0.0000    0.0381   -0.0000    0.0178
                0.0401   2.3741e-003  -5.6460e-004   5.6149e-004   8.4899e+007   1.8709e+006   2.3133e+006    0.0845   -0.0000    0.0365   -0.0000    0.0207
                0.0650   2.2743e-003  -5.4029e-004   6.3621e-004   8.1332e+007   1.7972e+006   2.6212e+006    0.0809   -0.0000    0.0351   -0.0000    0.0234
                0.0878   2.1636e-003  -5.1429e-004   7.0159e-004   7.7370e+007   1.7070e+006   2.8905e+006    0.0770   -0.0000    0.0333   -0.0000    0.0258
                0.1126   2.0315e-003  -4.8275e-004   7.6931e-004   7.2646e+007   1.6039e+006   3.1696e+006    0.0723   -0.0000    0.0313   -0.0000    0.0283
                0.1361   1.9099e-003  -4.5355e-004   8.2998e-004   6.8299e+007   1.5106e+006   3.4195e+006    0.0680   -0.0000    0.0295   -0.0000    0.0305
                0.1594   1.7658e-003  -4.1961e-004   8.8651e-004   6.3145e+007   1.3942e+006   3.6524e+006    0.0628   -0.0000    0.0272   -0.0000    0.0326
                0.1842   1.6231e-003  -3.8499e-004   9.4222e-004   5.8045e+007   1.2877e+006   3.8819e+006    0.0578   -0.0000    0.0251   -0.0000    0.0347
                0.2053   1.4808e-003  -3.5171e-004   9.8602e-004   5.2953e+007   1.1706e+006   4.0624e+006    0.0527   -0.0000    0.0229   -0.0000    0.0363
                0.2303   1.3039e-003  -3.0982e-004   1.0334e-003   4.6627e+007   1.0297e+006   4.2577e+006    0.0464   -0.0000    0.0201   -0.0000    0.0380
                0.2537   1.1518e-003  -2.7304e-004   1.0731e-003   4.1191e+007   9.1519e+005   4.4211e+006    0.0410   -0.0000    0.0179   -0.0000    0.0395
                0.2753   9.8321e-004  -2.3371e-004   1.1053e-003   3.5160e+007   7.7577e+005   4.5540e+006    0.0350   -0.0000    0.0152   -0.0000    0.0407
                0.3016   7.9466e-004  -1.8836e-004   1.1392e-003   2.8419e+007   6.3156e+005   4.6937e+006    0.0283   -0.0000    0.0123   -0.0000    0.0419
                0.3211   6.3356e-004  -1.5089e-004   1.1601e-003   2.2655e+007   4.9736e+005   4.7797e+006    0.0225   -0.0000    0.0097   -0.0000    0.0427
                0.3526   3.9592e-004  -9.3981e-005   1.1865e-003   1.4159e+007   3.1350e+005   4.8884e+006    0.0141   -0.0000    0.0061   -0.0000    0.0436
                0.3799   2.0958e-004  -4.8207e-005   1.2017e-003   7.4994e+006   1.7914e+005   4.9508e+006    0.0075   -0.0000    0.0035   -0.0000    0.0442
                0.3892   1.4925e-004  -3.3202e-005   1.2052e-003   5.3438e+006   1.3722e+005   4.9653e+006    0.0053   -0.0000    0.0027   -0.0000    0.0443

               lamina:  3     
              matName:  (blade-shell)
                     s           e11           e22           e12           s11           s22           s12   s11_fcT   s11_fcC   s22_fcT   s22_fcC   s12_fcS
                   (m)         (m/m)         (m/m)         (rad)          (Pa)          (Pa)          (Pa)       (-)       (-)       (-)       (-)       (-)
                0.0000   1.6759e-003  -4.4485e-004   4.3515e-004   3.1602e+007  -4.4328e+006   1.7189e+006    0.0938   -0.0000    0.0000    0.0132    0.0149
                0.0155   1.6497e-003  -4.3724e-004   4.8478e-004   3.1108e+007  -4.3509e+006   1.9149e+006    0.0923   -0.0000    0.0000    0.0129    0.0167
                0.0401   1.5793e-003  -4.1866e-004   5.6149e-004   2.9780e+007  -4.1669e+006   2.2179e+006    0.0884   -0.0000    0.0000    0.0124    0.0193
                0.0650   1.4952e-003  -3.9723e-004   6.3621e-004   2.8192e+007  -3.9619e+006   2.5130e+006    0.0837   -0.0000    0.0000    0.0118    0.0219
                0.0878   1.4320e-003  -3.7997e-004   7.0159e-004   2.7002e+007  -3.7852e+006   2.7713e+006    0.0801   -0.0000    0.0000    0.0112    0.0241
                0.1126   1.3404e-003  -3.5589e-004   7.6931e-004   2.5275e+007  -3.5472e+006   3.0388e+006    0.0750   -0.0000    0.0000    0.0105    0.0264
                0.1361   1.2506e-003  -3.3250e-004   8.2998e-004   2.3580e+007  -3.3187e+006   3.2784e+006    0.0700   -0.0000    0.0000    0.0098    0.0285
                0.1594   1.1648e-003  -3.0927e-004   8.8651e-004   2.1963e+007  -3.0827e+006   3.5017e+006    0.0652   -0.0000    0.0000    0.0091    0.0304
                0.1842   1.0488e-003  -2.7954e-004   9.4222e-004   1.9772e+007  -2.7967e+006   3.7218e+006    0.0587   -0.0000    0.0000    0.0083    0.0324
                0.2053   9.7176e-004  -2.5826e-004   9.8602e-004   1.8323e+007  -2.5767e+006   3.8948e+006    0.0544   -0.0000    0.0000    0.0076    0.0339
                0.2303   8.5958e-004  -2.2825e-004   1.0334e-003   1.6208e+007  -2.2754e+006   4.0820e+006    0.0481   -0.0000    0.0000    0.0068    0.0355
                0.2537   7.3919e-004  -1.9728e-004   1.0731e-003   1.3936e+007  -1.9762e+006   4.2387e+006    0.0414   -0.0000    0.0000    0.0059    0.0369
                0.2753   6.5061e-004  -1.7265e-004   1.1053e-003   1.2268e+007  -1.7199e+006   4.3661e+006    0.0364   -0.0000    0.0000    0.0051    0.0380
                0.3016   5.0941e-004  -1.3599e-004   1.1392e-003   9.6036e+006  -1.3624e+006   4.5000e+006    0.0285   -0.0000    0.0000    0.0040    0.0391
                0.3211   4.2830e-004  -1.1321e-004   1.1601e-003   8.0773e+006  -1.1235e+006   4.5825e+006    0.0240   -0.0000    0.0000    0.0033    0.0398
                0.3526   2.5798e-004  -6.8654e-005   1.1865e-003   4.8640e+006  -6.8583e+005   4.6867e+006    0.0144   -0.0000    0.0000    0.0020    0.0408
                0.3799   8.9189e-005  -2.6102e-005   1.2017e-003   1.6756e+006  -2.8334e+005   4.7466e+006    0.0050   -0.0000    0.0000    0.0008    0.0413
                0.3892   2.8858e-005  -1.1097e-005   1.2052e-003   5.3542e+005  -1.4346e+005   4.7604e+006    0.0016   -0.0000    0.0000    0.0004    0.0414

     Web:  panel  nNode   nLam     xc_St    xc_End         b         t         E_eff         G_eff      nu_eff     density  buckleCrit
            (-)    (-)    (-)       (-)       (-)       (m)       (m)          (Pa)          (Pa)         (-)    (kg/m^3)         (-)
              1     10      3    0.2507    0.2507    0.5893    0.0121   6.5707e+009   1.3870e+009      0.1347    691.8998      0.0708
              2     10      3    0.7493    0.7493    0.5819    0.0121   6.5707e+009   1.3870e+009      0.1347    691.8998      0.0607

            panel:  1     
           lam_num    nPlies        tPly      fibAng     matID  matName
               (-)       (-)         (m)       (deg)       (-)  (-)
                 1         1    0.002023      0.0000         7  (web-shell)
                 2         1    0.008047      0.0000         8  (web-core)
                 3         1    0.002023      0.0000         7  (web-shell)

               lamina:  1     
              matName:  (web-shell)
                     s           e11           e22           e12           s11           s22           s12   s11_fcT   s11_fcC   s22_fcT   s22_fcC   s12_fcS
                   (m)         (m/m)         (m/m)         (rad)          (Pa)          (Pa)          (Pa)       (-)       (-)       (-)       (-)       (-)
                0.0000  -1.9713e-003   2.6551e-004   1.2142e-003  -3.7825e+007   1.8052e+005   4.7962e+006    0.0000    0.0761    0.0005   -0.0000    0.0417
                0.0655  -1.5428e-003   2.0781e-004   1.3219e-003  -2.9604e+007   1.4131e+005   5.2215e+006    0.0000    0.0596    0.0004   -0.0000    0.0454
                0.1309  -1.1144e-003   1.5011e-004   1.4042e-003  -2.1384e+007   1.0210e+005   5.5468e+006    0.0000    0.0430    0.0003   -0.0000    0.0482
                0.1964  -6.8604e-004   9.2405e-005   1.4613e-003  -1.3164e+007   6.2894e+004   5.7721e+006    0.0000    0.0265    0.0002   -0.0000    0.0502
                0.2619  -2.5763e-004   3.4705e-005   1.4930e-003  -4.9435e+006   2.3685e+004   5.8973e+006    0.0000    0.0099    0.0001   -0.0000    0.0513
                0.3274   1.7151e-004  -2.3092e-005   1.4994e-003   3.2910e+006  -1.5539e+004   5.9226e+006    0.0098   -0.0000    0.0000    0.0000    0.0515
                0.3928   5.9992e-004  -8.0792e-005   1.4805e-003   1.1511e+007  -5.4748e+004   5.8479e+006    0.0342   -0.0000    0.0000    0.0002    0.0509
                0.4583   1.0283e-003  -1.3849e-004   1.4362e-003   1.9732e+007  -9.3957e+004   5.6732e+006    0.0586   -0.0000    0.0000    0.0003    0.0493
                0.5238   1.4567e-003  -1.9619e-004   1.3667e-003   2.7952e+007  -1.3317e+005   5.3984e+006    0.0829   -0.0000    0.0000    0.0004    0.0469
                0.5893   1.8851e-003  -2.5389e-004   1.2718e-003   3.6172e+007  -1.7237e+005   5.0237e+006    0.1073   -0.0000    0.0000    0.0005    0.0437

               lamina:  2     
              matName:  (web-core)
                     s           e11           e22           e12           s11           s22           s12   s11_fcT   s11_fcC   s22_fcT   s22_fcC   s12_fcS
                   (m)         (m/m)         (m/m)         (rad)          (Pa)          (Pa)          (Pa)       (-)       (-)       (-)       (-)       (-)
                0.0000  -1.9742e-003   2.6589e-004   1.2142e-003  -4.4457e+005  -9.0870e+004   1.1899e+005    0.0000    0.1036    0.0000    0.0212    0.0403
                0.0655  -1.5458e-003   2.0819e-004   1.3219e-003  -3.4809e+005  -7.1151e+004   1.2955e+005    0.0000    0.0811    0.0000    0.0166    0.0439
                0.1309  -1.1174e-003   1.5049e-004   1.4042e-003  -2.5162e+005  -5.1432e+004   1.3762e+005    0.0000    0.0587    0.0000    0.0120    0.0466
                0.1964  -6.8897e-004   9.2789e-005   1.4613e-003  -1.5515e+005  -3.1713e+004   1.4321e+005    0.0000    0.0362    0.0000    0.0074    0.0485
                0.2619  -2.6057e-004   3.5089e-005   1.4930e-003  -5.8677e+004  -1.1995e+004   1.4631e+005    0.0000    0.0137    0.0000    0.0028    0.0496
                0.3274   1.7077e-004  -2.2995e-005   1.4994e-003   3.8457e+004   7.8617e+003   1.4694e+005    0.0090   -0.0000    0.0018   -0.0000    0.0498
                0.3928   5.9918e-004  -8.0696e-005   1.4805e-003   1.3493e+005   2.7580e+004   1.4509e+005    0.0315   -0.0000    0.0064   -0.0000    0.0492
                0.4583   1.0276e-003  -1.3840e-004   1.4362e-003   2.3140e+005   4.7299e+004   1.4075e+005    0.0539   -0.0000    0.0110   -0.0000    0.0477
                0.5238   1.4560e-003  -1.9610e-004   1.3667e-003   3.2787e+005   6.7018e+004   1.3394e+005    0.0764   -0.0000    0.0156   -0.0000    0.0454
                0.5893   1.8844e-003  -2.5380e-004   1.2718e-003   4.2435e+005   8.6737e+004   1.2464e+005    0.0989   -0.0000    0.0202   -0.0000    0.0423

               lamina:  3     
              matName:  (web-shell)
                     s           e11           e22           e12           s11           s22           s12   s11_fcT   s11_fcC   s22_fcT   s22_fcC   s12_fcS
                   (m)         (m/m)         (m/m)         (rad)          (Pa)          (Pa)          (Pa)       (-)       (-)       (-)       (-)       (-)
                0.0000  -1.9749e-003   2.6599e-004   1.2142e-003  -3.7895e+007   1.8059e+005   4.7962e+006    0.0000    0.0762    0.0005   -0.0000    0.0417
                0.0655  -1.5465e-003   2.0829e-004   1.3219e-003  -2.9675e+007   1.4138e+005   5.2215e+006    0.0000    0.0597    0.0004   -0.0000    0.0454
                0.1309  -1.1181e-003   1.5059e-004   1.4042e-003  -2.1454e+007   1.0217e+005   5.5468e+006    0.0000    0.0432    0.0003   -0.0000    0.0482
                0.1964  -6.8971e-004   9.2886e-005   1.4613e-003  -1.3234e+007   6.2966e+004   5.7721e+006    0.0000    0.0266    0.0002   -0.0000    0.0502
                0.2619  -2.6130e-004   3.5186e-005   1.4930e-003  -5.0139e+006   2.3757e+004   5.8973e+006    0.0000    0.0101    0.0001   -0.0000    0.0513
                0.3274   1.6784e-004  -2.2611e-005   1.4994e-003   3.2205e+006  -1.5467e+004   5.9226e+006    0.0096   -0.0000    0.0000    0.0000    0.0515
                0.3928   5.9624e-004  -8.0311e-005   1.4805e-003   1.1441e+007  -5.4676e+004   5.8479e+006    0.0339   -0.0000    0.0000    0.0002    0.0509
                0.4583   1.0246e-003  -1.3801e-004   1.4362e-003   1.9661e+007  -9.3885e+004   5.6732e+006    0.0583   -0.0000    0.0000    0.0003    0.0493
                0.5238   1.4531e-003  -1.9571e-004   1.3667e-003   2.7881e+007  -1.3309e+005   5.3984e+006    0.0827   -0.0000    0.0000    0.0004    0.0469
                0.5893   1.8815e-003  -2.5341e-004   1.2718e-003   3.6102e+007  -1.7230e+005   5.0237e+006    0.1071   -0.0000    0.0000    0.0005    0.0437

            panel:  2     
           lam_num    nPlies        tPly      fibAng     matID  matName
               (-)       (-)         (m)       (deg)       (-)  (-)
                 1         1    0.002023      0.0000         7  (web-shell)
                 2         1    0.008047      0.0000         8  (web-core)
                 3         1    0.002023      0.0000         7  (web-shell)

               lamina:  1     
              matName:  (web-shell)
                     s           e11           e22           e12           s11           s22           s12   s11_fcT   s11_fcC   s22_fcT   s22_fcC   s12_fcS
                   (m)         (m/m)         (m/m)         (rad)          (Pa)          (Pa)          (Pa)       (-)       (-)       (-)       (-)       (-)
                0.0000  -1.8562e-003   2.5001e-004   1.2263e-003  -3.5617e+007   1.6999e+005   4.8437e+006    0.0000    0.0717    0.0005   -0.0000    0.0421
                0.0647  -1.4332e-003   1.9304e-004   1.3186e-003  -2.7500e+007   1.3127e+005   5.2085e+006    0.0000    0.0553    0.0004   -0.0000    0.0453
                0.1293  -1.0101e-003   1.3606e-004   1.3863e-003  -1.9383e+007   9.2555e+004   5.4758e+006    0.0000    0.0390    0.0003   -0.0000    0.0476
                0.1940  -5.8710e-004   7.9079e-005   1.4293e-003  -1.1265e+007   5.3837e+004   5.6455e+006    0.0000    0.0227    0.0002   -0.0000    0.0491
                0.2586  -1.6406e-004   2.2101e-005   1.4475e-003  -3.1479e+006   1.5119e+004   5.7178e+006    0.0000    0.0063    0.0000   -0.0000    0.0497
                0.3233   2.5971e-004  -3.4972e-005   1.4411e-003   4.9834e+006  -2.3613e+004   5.6925e+006    0.0148   -0.0000    0.0000    0.0001    0.0495
                0.3879   6.8275e-004  -9.1950e-005   1.4101e-003   1.3101e+007  -6.2332e+004   5.5697e+006    0.0389   -0.0000    0.0000    0.0002    0.0484
                0.4526   1.1058e-003  -1.4893e-004   1.3543e-003   2.1218e+007  -1.0105e+005   5.3494e+006    0.0630   -0.0000    0.0000    0.0003    0.0465
                0.5172   1.5288e-003  -2.0591e-004   1.2738e-003   2.9335e+007  -1.3977e+005   5.0316e+006    0.0870   -0.0000    0.0000    0.0004    0.0438
                0.5819   1.9519e-003  -2.6288e-004   1.1687e-003   3.7453e+007  -1.7849e+005   4.6163e+006    0.1111   -0.0000    0.0000    0.0005    0.0401

               lamina:  2     
              matName:  (web-core)
                     s           e11           e22           e12           s11           s22           s12   s11_fcT   s11_fcC   s22_fcT   s22_fcC   s12_fcS
                   (m)         (m/m)         (m/m)         (rad)          (Pa)          (Pa)          (Pa)       (-)       (-)       (-)       (-)       (-)
                0.0000  -1.8591e-003   2.5039e-004   1.2263e-003  -4.1865e+005  -8.5573e+004   1.2017e+005    0.0000    0.0976    0.0000    0.0199    0.0407
                0.0647  -1.4361e-003   1.9341e-004   1.3186e-003  -3.2339e+005  -6.6101e+004   1.2922e+005    0.0000    0.0754    0.0000    0.0154    0.0438
                0.1293  -1.0130e-003   1.3644e-004   1.3863e-003  -2.2812e+005  -4.6630e+004   1.3585e+005    0.0000    0.0532    0.0000    0.0109    0.0461
                0.1940  -5.8999e-004   7.9458e-005   1.4293e-003  -1.3286e+005  -2.7158e+004   1.4007e+005    0.0000    0.0310    0.0000    0.0063    0.0475
                0.2586  -1.6695e-004   2.2481e-005   1.4475e-003  -3.7596e+004  -7.6857e+003   1.4186e+005    0.0000    0.0088    0.0000    0.0018    0.0481
                0.3233   2.5898e-004  -3.4876e-005   1.4411e-003   5.8321e+004   1.1922e+004   1.4123e+005    0.0136   -0.0000    0.0028   -0.0000    0.0479
                0.3879   6.8203e-004  -9.1854e-005   1.4101e-003   1.5359e+005   3.1394e+004   1.3819e+005    0.0358   -0.0000    0.0073   -0.0000    0.0468
                0.4526   1.1051e-003  -1.4883e-004   1.3543e-003   2.4885e+005   5.0866e+004   1.3272e+005    0.0580   -0.0000    0.0119   -0.0000    0.0450
                0.5172   1.5281e-003  -2.0581e-004   1.2738e-003   3.4411e+005   7.0338e+004   1.2483e+005    0.0802   -0.0000    0.0164   -0.0000    0.0423
                0.5819   1.9511e-003  -2.6279e-004   1.1687e-003   4.3938e+005   8.9809e+004   1.1453e+005    0.1024   -0.0000    0.0209   -0.0000    0.0388

               lamina:  3     
              matName:  (web-shell)
                     s           e11           e22           e12           s11           s22           s12   s11_fcT   s11_fcC   s22_fcT   s22_fcC   s12_fcS
                   (m)         (m/m)         (m/m)         (rad)          (Pa)          (Pa)          (Pa)       (-)       (-)       (-)       (-)       (-)
                0.0000  -1.8598e-003   2.5049e-004   1.2263e-003  -3.5687e+007   1.7006e+005   4.8437e+006    0.0000    0.0718    0.0005   -0.0000    0.0421
                0.0647  -1.4368e-003   1.9351e-004   1.3186e-003  -2.7570e+007   1.3134e+005   5.2085e+006    0.0000    0.0555    0.0004   -0.0000    0.0453
                0.1293  -1.0138e-003   1.3653e-004   1.3863e-003  -1.9452e+007   9.2626e+004   5.4758e+006    0.0000    0.0391    0.0003   -0.0000    0.0476
                0.1940  -5.9072e-004   7.9554e-005   1.4293e-003  -1.1335e+007   5.3908e+004   5.6455e+006    0.0000    0.0228    0.0002   -0.0000    0.0491
                0.2586  -1.6768e-004   2.2576e-005   1.4475e-003  -3.2174e+006   1.5190e+004   5.7178e+006    0.0000    0.0065    0.0000   -0.0000    0.0497
                0.3233   2.5609e-004  -3.4497e-005   1.4411e-003   4.9139e+006  -2.3542e+004   5.6925e+006    0.0146   -0.0000    0.0000    0.0001    0.0495
                0.3879   6.7913e-004  -9.1475e-005   1.4101e-003   1.3031e+007  -6.2261e+004   5.5697e+006    0.0387   -0.0000    0.0000    0.0002    0.0484
                0.4526   1.1022e-003  -1.4845e-004   1.3543e-003   2.1149e+007  -1.0098e+005   5.3494e+006    0.0628   -0.0000    0.0000    0.0003    0.0465
                0.5172   1.5252e-003  -2.0543e-004   1.2738e-003   2.9266e+007  -1.3970e+005   5.0316e+006    0.0868   -0.0000    0.0000    0.0004    0.0438
                0.5819   1.9483e-003  -2.6241e-004   1.1687e-003   3.7383e+007  -1.7842e+005   4.6163e+006    0.1109   -0.0000    0.0000    0.0005    0.0401

================================================================================
sec        =  3      
zSec       =  0.6030  (m)
nPanelsTop =  3      
nPanelsBot =  3      
nWebs      =  2      

    Top:  panel  nNode   nLam     xc_St    xc_End         b         t         E_eff         G_eff      nu_eff     density  buckleCrit
            (-)    (-)    (-)       (-)       (-)       (m)       (m)          (Pa)          (Pa)         (-)    (kg/m^3)         (-)
              1     18      5    0.0000    0.2590    0.4239    0.0446   3.1118e+010   4.0684e+009      0.2375   1747.9347      0.0125
              2     16      7    0.2590    0.6690    0.3998    0.0464   3.4682e+010   4.0972e+009      0.2396   1738.8489      0.0286
              3     21      5    0.6690    1.0000    0.4799    0.0455   3.0552e+010   3.9956e+009      0.2376   1719.5576      0.0130

            panel:  1     
           lam_num    nPlies        tPly      fibAng     matID  matName
               (-)       (-)         (m)       (deg)       (-)  (-)
                 1         1    0.006094      0.0000         2  (blade-shell)
                 2         1    0.016193      0.0000         1  (blade-root)
                 3         1    0.000057      0.0000         5  (LEP-core)
                 4         1    0.016193      0.0000         1  (blade-root)
                 5         1    0.006094      0.0000         2  (blade-shell)

               lamina:  1     
              matName:  (blade-shell)
                     s           e11           e22           e12           s11           s22           s12   s11_fcT   s11_fcC   s22_fcT   s22_fcC   s12_fcS
                   (m)         (m/m)         (m/m)         (rad)          (Pa)          (Pa)          (Pa)       (-)       (-)       (-)       (-)       (-)
                0.0000  -1.0885e-004   2.1106e-005   1.5746e-003  -2.0723e+006   1.3583e+005   6.2195e+006    0.0000    0.0042    0.0004   -0.0000    0.0541
                0.0091  -1.6922e-004   3.5445e-005   1.5719e-003  -3.2148e+006   2.6262e+005   6.2089e+006    0.0000    0.0065    0.0008   -0.0000    0.0540
                0.0358  -3.5886e-004   7.9712e-005   1.5591e-003  -6.8062e+006   6.4566e+005   6.1583e+006    0.0000    0.0137    0.0019   -0.0000    0.0536
                0.0668  -6.0909e-004   1.3620e-004   1.5352e-003  -1.1550e+007   1.1135e+006   6.0638e+006    0.0000    0.0232    0.0033   -0.0000    0.0527
                0.0864  -7.8536e-004   1.7467e-004   1.5151e-003  -1.4895e+007   1.4174e+006   5.9845e+006    0.0000    0.0300    0.0042   -0.0000    0.0520
                0.1130  -9.8411e-004   2.1991e-004   1.4819e-003  -1.8661e+007   1.7963e+006   5.8535e+006    0.0000    0.0375    0.0053   -0.0000    0.0509
                0.1353  -1.1671e-003   2.6016e-004   1.4490e-003  -2.2133e+007   2.1178e+006   5.7236e+006    0.0000    0.0445    0.0063   -0.0000    0.0498
                0.1598  -1.3273e-003   2.9697e-004   1.4079e-003  -2.5168e+007   2.4300e+006   5.5611e+006    0.0000    0.0506    0.0072   -0.0000    0.0484
                0.1860  -1.5167e-003   3.3943e-004   1.3579e-003  -2.8759e+007   2.7784e+006   5.3638e+006    0.0000    0.0579    0.0082   -0.0000    0.0466
                0.2089  -1.6695e-003   3.7326e-004   1.3100e-003  -3.1657e+007   3.0512e+006   5.1744e+006    0.0000    0.0637    0.0091   -0.0000    0.0450
                0.2354  -1.8187e-003   4.0772e-004   1.2493e-003  -3.4484e+007   3.3453e+006   4.9347e+006    0.0000    0.0694    0.0099   -0.0000    0.0429
                0.2610  -1.9712e-003   4.4184e-004   1.1860e-003  -3.7375e+007   3.6247e+006   4.6848e+006    0.0000    0.0752    0.0108   -0.0000    0.0407
                0.2870  -2.0977e-003   4.7080e-004   1.1173e-003  -3.9773e+007   3.8689e+006   4.4133e+006    0.0000    0.0800    0.0115   -0.0000    0.0384
                0.3145  -2.2355e-003   5.0213e-004   1.0401e-003  -4.2384e+007   4.1309e+006   4.1083e+006    0.0000    0.0853    0.0123   -0.0000    0.0357
                0.3405  -2.3499e-003   5.2772e-004   9.6327e-004  -4.4553e+007   4.3404e+006   3.8049e+006    0.0000    0.0896    0.0129   -0.0000    0.0331
                0.3686  -2.4511e-003   5.5127e-004   8.7633e-004  -4.6471e+007   4.5431e+006   3.4615e+006    0.0000    0.0935    0.0135   -0.0000    0.0301
                0.3965  -2.5575e-003   5.7532e-004   7.8655e-004  -4.8487e+007   4.7429e+006   3.1069e+006    0.0000    0.0976    0.0141   -0.0000    0.0270
                0.4239  -2.6357e-003   5.9305e-004   6.9517e-004  -4.9970e+007   4.8906e+006   2.7459e+006    0.0000    0.1005    0.0145   -0.0000    0.0239

               lamina:  2     
              matName:  (blade-root)
                     s           e11           e22           e12           s11           s22           s12   s11_fcT   s11_fcC   s22_fcT   s22_fcC   s12_fcS
                   (m)         (m/m)         (m/m)         (rad)          (Pa)          (Pa)          (Pa)       (-)       (-)       (-)       (-)       (-)
                0.0000  -8.8784e-005   1.7636e-005   1.5746e-003  -3.1847e+006  -9.9696e+004   6.4872e+006    0.0000    0.0040    0.0000    0.0019    0.0579
                0.0091  -1.4915e-004   3.1976e-005   1.5719e-003  -5.3435e+006  -1.4741e+005   6.4761e+006    0.0000    0.0068    0.0000    0.0029    0.0578
                0.0358  -3.3549e-004   7.5671e-005   1.5591e-003  -1.2009e+007  -2.9954e+005   6.4234e+006    0.0000    0.0152    0.0000    0.0059    0.0574
                0.0668  -5.7324e-004   1.3000e-004   1.5352e-003  -2.0517e+007  -5.0581e+005   6.3248e+006    0.0000    0.0260    0.0000    0.0099    0.0565
                0.0864  -7.3516e-004   1.6599e-004   1.5151e-003  -2.6314e+007  -6.5490e+005   6.2421e+006    0.0000    0.0334    0.0000    0.0128    0.0557
                0.1130  -9.2558e-004   2.0979e-004   1.4819e-003  -3.3128e+007  -8.1764e+005   6.1054e+006    0.0000    0.0420    0.0000    0.0160    0.0545
                0.1353  -1.0950e-003   2.4769e-004   1.4490e-003  -3.9192e+007  -9.7153e+005   5.9699e+006    0.0000    0.0497    0.0000    0.0190    0.0533
                0.1598  -1.2499e-003   2.8359e-004   1.4079e-003  -4.4735e+007  -1.1017e+006   5.8004e+006    0.0000    0.0568    0.0000    0.0215    0.0518
                0.1860  -1.4286e-003   3.2421e-004   1.3579e-003  -5.1132e+007  -1.2587e+006   5.5946e+006    0.0000    0.0649    0.0000    0.0246    0.0500
                0.2089  -1.5710e-003   3.5624e-004   1.3100e-003  -5.6228e+007  -1.3865e+006   5.3971e+006    0.0000    0.0714    0.0000    0.0271    0.0482
                0.2354  -1.7161e-003   3.8998e-004   1.2493e-003  -6.1418e+007  -1.5073e+006   5.1471e+006    0.0000    0.0779    0.0000    0.0294    0.0460
                0.2610  -1.8597e-003   4.2257e-004   1.1860e-003  -6.6558e+007  -1.6338e+006   4.8864e+006    0.0000    0.0845    0.0000    0.0319    0.0436
                0.2870  -1.9816e-003   4.5072e-004   1.1173e-003  -7.0919e+007  -1.7370e+006   4.6032e+006    0.0000    0.0900    0.0000    0.0339    0.0411
                0.3145  -2.1134e-003   4.8103e-004   1.0401e-003  -7.5637e+007  -1.8499e+006   4.2851e+006    0.0000    0.0960    0.0000    0.0361    0.0383
                0.3405  -2.2212e-003   5.0547e-004   9.6327e-004  -7.9493e+007  -1.9449e+006   3.9687e+006    0.0000    0.1009    0.0000    0.0380    0.0354
                0.3686  -2.3203e-003   5.2864e-004   8.7633e-004  -8.3038e+007  -2.0264e+006   3.6105e+006    0.0000    0.1054    0.0000    0.0396    0.0322
                0.3965  -2.4215e-003   5.5181e-004   7.8655e-004  -8.6661e+007  -2.1139e+006   3.2406e+006    0.0000    0.1100    0.0000    0.0413    0.0289
                0.4239  -2.4961e-003   5.6893e-004   6.9517e-004  -8.9332e+007  -2.1782e+006   2.8641e+006    0.0000    0.1134    0.0000    0.0425    0.0256

               lamina:  3     
              matName:  (LEP-core)
                     s           e11           e22           e12           s11           s22           s12   s11_fcT   s11_fcC   s22_fcT   s22_fcC   s12_fcS
                   (m)         (m/m)         (m/m)         (rad)          (Pa)          (Pa)          (Pa)       (-)       (-)       (-)       (-)       (-)
                0.0000  -3.5458e-005   8.4168e-006   1.5746e-003  -7.7017e+003  -7.7402e+002   1.5431e+005    0.0000    0.0018    0.0000    0.0002    0.0523
                0.0091  -9.5824e-005   2.2756e-005   1.5719e-003  -2.0813e+004  -2.0893e+003   1.5404e+005    0.0000    0.0049    0.0000    0.0005    0.0522
                0.0358  -2.7339e-004   6.4934e-005   1.5591e-003  -5.9378e+004  -5.9584e+003   1.5279e+005    0.0000    0.0138    0.0000    0.0014    0.0518
                0.0668  -4.7798e-004   1.1353e-004   1.5352e-003  -1.0381e+005  -1.0417e+004   1.5044e+005    0.0000    0.0242    0.0000    0.0024    0.0510
                0.0864  -6.0175e-004   1.4293e-004   1.5151e-003  -1.3070e+005  -1.3115e+004   1.4848e+005    0.0000    0.0305    0.0000    0.0031    0.0503
                0.1130  -7.7007e-004   1.8291e-004   1.4819e-003  -1.6725e+005  -1.6783e+004   1.4523e+005    0.0000    0.0390    0.0000    0.0039    0.0492
                0.1353  -9.0331e-004   2.1455e-004   1.4490e-003  -1.9619e+005  -1.9687e+004   1.4200e+005    0.0000    0.0457    0.0000    0.0046    0.0481
                0.1598  -1.0443e-003   2.4805e-004   1.4079e-003  -2.2682e+005  -2.2760e+004   1.3797e+005    0.0000    0.0529    0.0000    0.0053    0.0468
                0.1860  -1.1946e-003   2.8375e-004   1.3579e-003  -2.5947e+005  -2.6036e+004   1.3308e+005    0.0000    0.0605    0.0000    0.0061    0.0451
                0.2089  -1.3094e-003   3.1101e-004   1.3100e-003  -2.8439e+005  -2.8537e+004   1.2838e+005    0.0000    0.0663    0.0000    0.0067    0.0435
                0.2354  -1.4434e-003   3.4284e-004   1.2493e-003  -3.1349e+005  -3.1457e+004   1.2243e+005    0.0000    0.0731    0.0000    0.0073    0.0415
                0.2610  -1.5635e-003   3.7137e-004   1.1860e-003  -3.3958e+005  -3.4075e+004   1.1623e+005    0.0000    0.0792    0.0000    0.0079    0.0394
                0.2870  -1.6730e-003   3.9738e-004   1.1173e-003  -3.6336e+005  -3.6461e+004   1.0949e+005    0.0000    0.0847    0.0000    0.0085    0.0371
                0.3145  -1.7892e-003   4.2496e-004   1.0401e-003  -3.8859e+005  -3.8992e+004   1.0193e+005    0.0000    0.0906    0.0000    0.0091    0.0346
                0.3405  -1.8792e-003   4.4634e-004   9.6327e-004  -4.0814e+005  -4.0954e+004   9.4400e+004    0.0000    0.0951    0.0000    0.0095    0.0320
                0.3686  -1.9725e-003   4.6852e-004   8.7633e-004  -4.2842e+005  -4.2988e+004   8.5880e+004    0.0000    0.0999    0.0000    0.0100    0.0291
                0.3965  -2.0602e-003   4.8935e-004   7.8655e-004  -4.4746e+005  -4.4899e+004   7.7082e+004    0.0000    0.1043    0.0000    0.0105    0.0261
                0.4239  -2.1253e-003   5.0481e-004   6.9517e-004  -4.6160e+005  -4.6318e+004   6.8127e+004    0.0000    0.1076    0.0000    0.0108    0.0231

               lamina:  4     
              matName:  (blade-root)
                     s           e11           e22           e12           s11           s22           s12   s11_fcT   s11_fcC   s22_fcT   s22_fcC   s12_fcS
                   (m)         (m/m)         (m/m)         (rad)          (Pa)          (Pa)          (Pa)       (-)       (-)       (-)       (-)       (-)
                0.0000  -3.5270e-005   8.3842e-006   1.5746e-003  -1.2613e+006   4.3795e+004   6.4872e+006    0.0000    0.0016    0.0009   -0.0000    0.0579
                0.0091  -9.5636e-005   2.2724e-005   1.5719e-003  -3.4200e+006  -7.5534e+004   6.4761e+006    0.0000    0.0043    0.0000    0.0015    0.0578
                0.0358  -2.7317e-004   6.4896e-005   1.5591e-003  -9.7687e+006  -2.1584e+005   6.4234e+006    0.0000    0.0124    0.0000    0.0042    0.0574
                0.0668  -4.7765e-004   1.1347e-004   1.5352e-003  -1.7081e+007  -3.7742e+005   6.3248e+006    0.0000    0.0217    0.0000    0.0074    0.0565
                0.0864  -6.0128e-004   1.4285e-004   1.5151e-003  -2.1502e+007  -4.7510e+005   6.2421e+006    0.0000    0.0273    0.0000    0.0093    0.0557
                0.1130  -7.6952e-004   1.8281e-004   1.4819e-003  -2.7519e+007  -6.0805e+005   6.1054e+006    0.0000    0.0349    0.0000    0.0119    0.0545
                0.1353  -9.0264e-004   2.1444e-004   1.4490e-003  -3.2279e+007  -7.1322e+005   5.9699e+006    0.0000    0.0410    0.0000    0.0139    0.0533
                0.1598  -1.0436e-003   2.4792e-004   1.4079e-003  -3.7320e+007  -8.2461e+005   5.8004e+006    0.0000    0.0474    0.0000    0.0161    0.0518
                0.1860  -1.1938e-003   2.8361e-004   1.3579e-003  -4.2692e+007  -9.4332e+005   5.5946e+006    0.0000    0.0542    0.0000    0.0184    0.0500
                0.2089  -1.3085e-003   3.1085e-004   1.3100e-003  -4.6792e+007  -1.0339e+006   5.3971e+006    0.0000    0.0594    0.0000    0.0202    0.0482
                0.2354  -1.4424e-003   3.4267e-004   1.2493e-003  -5.1582e+007  -1.1398e+006   5.1471e+006    0.0000    0.0655    0.0000    0.0223    0.0460
                0.2610  -1.5625e-003   3.7118e-004   1.1860e-003  -5.5874e+007  -1.2346e+006   4.8864e+006    0.0000    0.0709    0.0000    0.0241    0.0436
                0.2870  -1.6719e-003   3.9719e-004   1.1173e-003  -5.9789e+007  -1.3211e+006   4.6032e+006    0.0000    0.0759    0.0000    0.0258    0.0411
                0.3145  -1.7880e-003   4.2477e-004   1.0401e-003  -6.3940e+007  -1.4129e+006   4.2851e+006    0.0000    0.0811    0.0000    0.0276    0.0383
                0.3405  -1.8780e-003   4.4613e-004   9.6327e-004  -6.7157e+007  -1.4839e+006   3.9687e+006    0.0000    0.0852    0.0000    0.0290    0.0354
                0.3686  -1.9713e-003   4.6831e-004   8.7633e-004  -7.0495e+007  -1.5577e+006   3.6105e+006    0.0000    0.0895    0.0000    0.0304    0.0322
                0.3965  -2.0589e-003   4.8913e-004   7.8655e-004  -7.3629e+007  -1.6269e+006   3.2406e+006    0.0000    0.0934    0.0000    0.0318    0.0289
                0.4239  -2.1240e-003   5.0459e-004   6.9517e-004  -7.5956e+007  -1.6784e+006   2.8641e+006    0.0000    0.0964    0.0000    0.0328    0.0256

               lamina:  5     
              matName:  (blade-shell)
                     s           e11           e22           e12           s11           s22           s12   s11_fcT   s11_fcC   s22_fcT   s22_fcC   s12_fcS
                   (m)         (m/m)         (m/m)         (rad)          (Pa)          (Pa)          (Pa)       (-)       (-)       (-)       (-)       (-)
                0.0000   3.8124e-005  -4.3048e-006   1.5746e-003   7.3363e+005   2.9528e+004   6.2195e+006    0.0022   -0.0000    0.0001   -0.0000    0.0541
                0.0091  -4.2310e-005   1.3504e-005   1.5719e-003  -7.9203e+005   1.5632e+005   6.2089e+006    0.0000    0.0016    0.0005   -0.0000    0.0540
                0.0358  -2.1106e-004   5.4159e-005   1.5591e-003  -3.9846e+006   5.2186e+005   6.1583e+006    0.0000    0.0080    0.0015   -0.0000    0.0536
                0.0668  -3.8239e-004   9.7004e-005   1.5352e-003  -7.2218e+006   9.2363e+005   6.0638e+006    0.0000    0.0145    0.0027   -0.0000    0.0527
                0.0864  -4.6788e-004   1.1978e-004   1.5151e-003  -8.8336e+006   1.1514e+006   5.9845e+006    0.0000    0.0178    0.0034   -0.0000    0.0520
                0.1130  -6.1401e-004   1.5593e-004   1.4819e-003  -1.1596e+007   1.4863e+006   5.8535e+006    0.0000    0.0233    0.0044   -0.0000    0.0509
                0.1353  -7.1098e-004   1.8130e-004   1.4490e-003  -1.3425e+007   1.7357e+006   5.7236e+006    0.0000    0.0270    0.0052   -0.0000    0.0498
                0.1598  -8.3801e-004   2.1238e-004   1.4079e-003  -1.5827e+007   2.0201e+006   5.5611e+006    0.0000    0.0318    0.0060   -0.0000    0.0484
                0.1860  -9.5983e-004   2.4316e-004   1.3579e-003  -1.8128e+007   2.3119e+006   5.3638e+006    0.0000    0.0365    0.0069   -0.0000    0.0466
                0.2089  -1.0468e-003   2.6562e-004   1.3100e-003  -1.9771e+007   2.5296e+006   5.1744e+006    0.0000    0.0398    0.0075   -0.0000    0.0450
                0.2354  -1.1697e-003   2.9553e-004   1.2493e-003  -2.2095e+007   2.8018e+006   4.9347e+006    0.0000    0.0445    0.0083   -0.0000    0.0429
                0.2610  -1.2663e-003   3.1998e-004   1.1860e-003  -2.3918e+007   3.0342e+006   4.6848e+006    0.0000    0.0481    0.0090   -0.0000    0.0407
                0.2870  -1.3633e-003   3.4384e-004   1.1173e-003  -2.5753e+007   3.2538e+006   4.4133e+006    0.0000    0.0518    0.0097   -0.0000    0.0384
                0.3145  -1.4637e-003   3.6870e-004   1.0401e-003  -2.7651e+007   3.4845e+006   4.1083e+006    0.0000    0.0556    0.0103   -0.0000    0.0357
                0.3405  -1.5359e-003   3.8701e-004   9.6327e-004  -2.9015e+007   3.6586e+006   3.8049e+006    0.0000    0.0584    0.0109   -0.0000    0.0331
                0.3686  -1.6236e-003   4.0819e-004   8.7633e-004  -3.0672e+007   3.8499e+006   3.4615e+006    0.0000    0.0617    0.0114   -0.0000    0.0301
                0.3965  -1.6976e-003   4.2667e-004   7.8655e-004  -3.2072e+007   4.0226e+006   3.1069e+006    0.0000    0.0645    0.0119   -0.0000    0.0270
                0.4239  -1.7532e-003   4.4047e-004   6.9517e-004  -3.3121e+007   4.1513e+006   2.7459e+006    0.0000    0.0666    0.0123   -0.0000    0.0239

            panel:  2     
           lam_num    nPlies        tPly      fibAng     matID  matName
               (-)       (-)         (m)       (deg)       (-)  (-)
                 1         1    0.006094      0.0000         2  (blade-shell)
                 2         1    0.016193      0.0000         1  (blade-root)
                 3         1    0.000891      0.0000         3  (spar-uni)
                 4         1    0.000010      0.0000         4  (spar-core)
                 5         1    0.000891      0.0000         3  (spar-uni)
                 6         1    0.016193      0.0000         1  (blade-root)
                 7         1    0.006094      0.0000         2  (blade-shell)

               lamina:  1     
              matName:  (blade-shell)
                     s           e11           e22           e12           s11           s22           s12   s11_fcT   s11_fcC   s22_fcT   s22_fcC   s12_fcS
                   (m)         (m/m)         (m/m)         (rad)          (Pa)          (Pa)          (Pa)       (-)       (-)       (-)       (-)       (-)
                0.0000  -2.7046e-003   6.1026e-004   8.0742e-004  -5.1272e+007   5.0516e+006   3.1893e+006    0.0000    0.1032    0.0150   -0.0000    0.0277
                0.0001  -2.7049e-003   6.1033e-004   8.0692e-004  -5.1278e+007   5.0523e+006   3.1873e+006    0.0000    0.1032    0.0150   -0.0000    0.0277
                0.0291  -2.7832e-003   6.2850e-004   6.9741e-004  -5.2761e+007   5.2083e+006   2.7548e+006    0.0000    0.1062    0.0155   -0.0000    0.0240
                0.0573  -2.8478e-003   6.4313e-004   5.8846e-004  -5.3986e+007   5.3299e+006   2.3244e+006    0.0000    0.1086    0.0158   -0.0000    0.0202
                0.0867  -2.8934e-003   6.5374e-004   4.7286e-004  -5.4848e+007   5.4216e+006   1.8678e+006    0.0000    0.1104    0.0161   -0.0000    0.0162
                0.1159  -2.9421e-003   6.6492e-004   3.5659e-004  -5.5771e+007   5.5162e+006   1.4085e+006    0.0000    0.1122    0.0164   -0.0000    0.0122
                0.1447  -2.9596e-003   6.6881e-004   2.4072e-004  -5.6103e+007   5.5477e+006   9.5083e+005    0.0000    0.1129    0.0165   -0.0000    0.0083
                0.1750  -2.9727e-003   6.7188e-004   1.1865e-004  -5.6351e+007   5.5746e+006   4.6869e+005    0.0000    0.1134    0.0165   -0.0000    0.0041
                0.2044  -2.9761e-003   6.7271e-004   5.2631e-008  -5.6416e+007   5.5818e+006   2.0789e+002    0.0000    0.1135    0.0166   -0.0000    0.0000
                0.2345  -2.9584e-003   6.6856e-004   1.2042e-004  -5.6080e+007   5.5459e+006   4.7567e+005    0.0000    0.1128    0.0165   -0.0000    0.0041
                0.2646  -2.9397e-003   6.6427e-004   2.3989e-004  -5.5726e+007   5.5095e+006   9.4755e+005    0.0000    0.1121    0.0163   -0.0000    0.0082
                0.2944  -2.8996e-003   6.5506e-004   3.5641e-004  -5.4966e+007   5.4317e+006   1.4078e+006    0.0000    0.1106    0.0161   -0.0000    0.0122
                0.3252  -2.8536e-003   6.4424e-004   4.7410e-004  -5.4095e+007   5.3371e+006   1.8727e+006    0.0000    0.1088    0.0158   -0.0000    0.0163
                0.3547  -2.8018e-003   6.3245e-004   5.8447e-004  -5.3114e+007   5.2382e+006   2.3087e+006    0.0000    0.1069    0.0155   -0.0000    0.0201
                0.3847  -2.7242e-003   6.1457e-004   6.9366e-004  -5.1643e+007   5.0861e+006   2.7399e+006    0.0000    0.1039    0.0151   -0.0000    0.0238
                0.3998  -2.6909e-003   6.0660e-004   7.4706e-004  -5.1014e+007   5.0149e+006   2.9509e+006    0.0000    0.1026    0.0149   -0.0000    0.0257

               lamina:  2     
              matName:  (blade-root)
                     s           e11           e22           e12           s11           s22           s12   s11_fcT   s11_fcC   s22_fcT   s22_fcC   s12_fcS
                   (m)         (m/m)         (m/m)         (rad)          (Pa)          (Pa)          (Pa)       (-)       (-)       (-)       (-)       (-)
                0.0000  -2.5507e-003   5.8329e-004   8.0742e-004  -9.1280e+007  -2.2094e+006   3.3266e+006    0.0000    0.1158    0.0000    0.0432    0.0297
                0.0001  -2.5510e-003   5.8337e-004   8.0692e-004  -9.1291e+007  -2.2096e+006   3.3245e+006    0.0000    0.1159    0.0000    0.0432    0.0297
                0.0291  -2.6269e-003   6.0111e-004   6.9741e-004  -9.4006e+007  -2.2720e+006   2.8733e+006    0.0000    0.1193    0.0000    0.0444    0.0257
                0.0573  -2.6881e-003   6.1513e-004   5.8846e-004  -9.6194e+007  -2.3246e+006   2.4245e+006    0.0000    0.1221    0.0000    0.0454    0.0216
                0.0867  -2.7324e-003   6.2553e-004   4.7286e-004  -9.7779e+007  -2.3608e+006   1.9482e+006    0.0000    0.1241    0.0000    0.0461    0.0174
                0.1159  -2.7791e-003   6.3635e-004   3.5659e-004  -9.9450e+007  -2.4000e+006   1.4691e+006    0.0000    0.1262    0.0000    0.0469    0.0131
                0.1447  -2.7954e-003   6.4002e-004   2.4072e-004  -1.0003e+008  -2.4145e+006   9.9175e+005    0.0000    0.1269    0.0000    0.0472    0.0089
                0.1750  -2.8082e-003   6.4306e-004   1.1865e-004  -1.0049e+008  -2.4247e+006   4.8886e+005    0.0000    0.1275    0.0000    0.0474    0.0044
                0.2044  -2.8116e-003   6.4388e-004   5.2631e-008  -1.0061e+008  -2.4275e+006   2.1684e+002    0.0000    0.1277    0.0000    0.0474    0.0000
                0.2345  -2.7943e-003   6.3980e-004   1.2042e-004  -9.9994e+007  -2.4134e+006   4.9614e+005    0.0000    0.1269    0.0000    0.0471    0.0044
                0.2646  -2.7764e-003   6.3564e-004   2.3989e-004  -9.9353e+007  -2.3984e+006   9.8833e+005    0.0000    0.1261    0.0000    0.0468    0.0088
                0.2944  -2.7379e-003   6.2673e-004   3.5641e-004  -9.7977e+007  -2.3661e+006   1.4684e+006    0.0000    0.1243    0.0000    0.0462    0.0131
                0.3252  -2.6928e-003   6.1605e-004   4.7410e-004  -9.6362e+007  -2.3299e+006   1.9533e+006    0.0000    0.1223    0.0000    0.0455    0.0174
                0.3547  -2.6435e-003   6.0470e-004   5.8447e-004  -9.4598e+007  -2.2879e+006   2.4080e+006    0.0000    0.1200    0.0000    0.0447    0.0215
                0.3847  -2.5688e-003   5.8733e-004   6.9366e-004  -9.1926e+007  -2.2257e+006   2.8579e+006    0.0000    0.1167    0.0000    0.0435    0.0255
                0.3998  -2.5355e-003   5.7936e-004   7.4706e-004  -9.0736e+007  -2.2000e+006   3.0779e+006    0.0000    0.1151    0.0000    0.0430    0.0275

               lamina:  3     
              matName:  (spar-uni)
                     s           e11           e22           e12           s11           s22           s12   s11_fcT   s11_fcC   s22_fcT   s22_fcC   s12_fcS
                   (m)         (m/m)         (m/m)         (rad)          (Pa)          (Pa)          (Pa)       (-)       (-)       (-)       (-)       (-)
                0.0000  -2.1418e-003   5.1163e-004   8.0742e-004  -2.6384e+008  -1.2572e+006   3.8029e+006    0.0000    0.2638    0.0000    0.0210    0.0369
                0.0001  -2.1422e-003   5.1171e-004   8.0692e-004  -2.6387e+008  -1.2574e+006   3.8006e+006    0.0000    0.2639    0.0000    0.0210    0.0369
                0.0291  -2.2117e-003   5.2833e-004   6.9741e-004  -2.7244e+008  -1.2980e+006   3.2848e+006    0.0000    0.2724    0.0000    0.0217    0.0319
                0.0573  -2.2635e-003   5.4072e-004   5.8846e-004  -2.7882e+008  -1.3284e+006   2.7717e+006    0.0000    0.2788    0.0000    0.0222    0.0269
                0.0867  -2.3046e-003   5.5056e-004   4.7286e-004  -2.8389e+008  -1.3524e+006   2.2272e+006    0.0000    0.2839    0.0000    0.0226    0.0216
                0.1159  -2.3460e-003   5.6044e-004   3.5659e-004  -2.8898e+008  -1.3766e+006   1.6795e+006    0.0000    0.2890    0.0000    0.0230    0.0163
                0.1447  -2.3589e-003   5.6353e-004   2.4072e-004  -2.9057e+008  -1.3842e+006   1.1338e+006    0.0000    0.2906    0.0000    0.0231    0.0110
                0.1750  -2.3712e-003   5.6647e-004   1.1865e-004  -2.9209e+008  -1.3914e+006   5.5886e+005    0.0000    0.2921    0.0000    0.0232    0.0054
                0.2044  -2.3745e-003   5.6727e-004   5.2631e-008  -2.9250e+008  -1.3933e+006   2.4789e+002    0.0000    0.2925    0.0000    0.0233    0.0000
                0.2345  -2.3583e-003   5.6339e-004   1.2042e-004  -2.9050e+008  -1.3839e+006   5.6719e+005    0.0000    0.2905    0.0000    0.0231    0.0055
                0.2646  -2.3424e-003   5.5959e-004   2.3989e-004  -2.8854e+008  -1.3746e+006   1.1299e+006    0.0000    0.2885    0.0000    0.0229    0.0110
                0.2944  -2.3084e-003   5.5146e-004   3.5641e-004  -2.8435e+008  -1.3547e+006   1.6787e+006    0.0000    0.2844    0.0000    0.0226    0.0163
                0.3252  -2.2653e-003   5.4114e-004   4.7410e-004  -2.7904e+008  -1.3296e+006   2.2330e+006    0.0000    0.2790    0.0000    0.0222    0.0217
                0.3547  -2.2227e-003   5.3095e-004   5.8447e-004  -2.7379e+008  -1.3046e+006   2.7529e+006    0.0000    0.2738    0.0000    0.0218    0.0267
                0.3847  -2.1557e-003   5.1495e-004   6.9366e-004  -2.6555e+008  -1.2654e+006   3.2671e+006    0.0000    0.2655    0.0000    0.0211    0.0317
                0.3998  -2.1225e-003   5.0697e-004   7.4706e-004  -2.6145e+008  -1.2461e+006   3.5187e+006    0.0000    0.2614    0.0000    0.0208    0.0342

               lamina:  4     
              matName:  (spar-core)
                     s           e11           e22           e12           s11           s22           s12   s11_fcT   s11_fcC   s22_fcT   s22_fcC   s12_fcS
                   (m)         (m/m)         (m/m)         (rad)          (Pa)          (Pa)          (Pa)       (-)       (-)       (-)       (-)       (-)
                0.0000  -2.1193e-003   5.0769e-004   8.0742e-004  -4.5997e+005  -4.5176e+004   7.9127e+004    0.0000    0.1072    0.0000    0.0105    0.0268
                0.0001  -2.1197e-003   5.0776e-004   8.0692e-004  -4.6004e+005  -4.5183e+004   7.9079e+004    0.0000    0.1072    0.0000    0.0105    0.0268
                0.0291  -2.1888e-003   5.2433e-004   6.9741e-004  -4.7505e+005  -4.6657e+004   6.8346e+004    0.0000    0.1107    0.0000    0.0109    0.0232
                0.0573  -2.2401e-003   5.3663e-004   5.8846e-004  -4.8619e+005  -4.7751e+004   5.7669e+004    0.0000    0.1133    0.0000    0.0111    0.0195
                0.0867  -2.2811e-003   5.4643e-004   4.7286e-004  -4.9507e+005  -4.8623e+004   4.6340e+004    0.0000    0.1154    0.0000    0.0113    0.0157
                0.1159  -2.3221e-003   5.5627e-004   3.5659e-004  -5.0398e+005  -4.9498e+004   3.4945e+004    0.0000    0.1175    0.0000    0.0115    0.0118
                0.1447  -2.3349e-003   5.5932e-004   2.4072e-004  -5.0675e+005  -4.9770e+004   2.3590e+004    0.0000    0.1181    0.0000    0.0116    0.0080
                0.1750  -2.3471e-003   5.6225e-004   1.1865e-004  -5.0941e+005  -5.0031e+004   1.1628e+004    0.0000    0.1187    0.0000    0.0117    0.0039
                0.2044  -2.3505e-003   5.6305e-004   5.2631e-008  -5.1013e+005  -5.0102e+004   5.1578e+000    0.0000    0.1189    0.0000    0.0117    0.0000
                0.2345  -2.3343e-003   5.5919e-004   1.2042e-004  -5.0663e+005  -4.9759e+004   1.1801e+004    0.0000    0.1181    0.0000    0.0116    0.0040
                0.2646  -2.3185e-003   5.5540e-004   2.3989e-004  -5.0320e+005  -4.9422e+004   2.3509e+004    0.0000    0.1173    0.0000    0.0115    0.0080
                0.2944  -2.2848e-003   5.4732e-004   3.5641e-004  -4.9587e+005  -4.8702e+004   3.4928e+004    0.0000    0.1156    0.0000    0.0114    0.0118
                0.3252  -2.2418e-003   5.3702e-004   4.7410e-004  -4.8654e+005  -4.7786e+004   4.6462e+004    0.0000    0.1134    0.0000    0.0111    0.0157
                0.3547  -2.1995e-003   5.2690e-004   5.8447e-004  -4.7738e+005  -4.6885e+004   5.7278e+004    0.0000    0.1113    0.0000    0.0109    0.0194
                0.3847  -2.1330e-003   5.1096e-004   6.9366e-004  -4.6294e+005  -4.5467e+004   6.7978e+004    0.0000    0.1079    0.0000    0.0106    0.0230
                0.3998  -2.0997e-003   5.0299e-004   7.4706e-004  -4.5572e+005  -4.4758e+004   7.3212e+004    0.0000    0.1062    0.0000    0.0104    0.0248

               lamina:  5     
              matName:  (spar-uni)
                     s           e11           e22           e12           s11           s22           s12   s11_fcT   s11_fcC   s22_fcT   s22_fcC   s12_fcS
                   (m)         (m/m)         (m/m)         (rad)          (Pa)          (Pa)          (Pa)       (-)       (-)       (-)       (-)       (-)
                0.0000  -2.1191e-003   5.0765e-004   8.0742e-004  -2.6103e+008  -1.2320e+006   3.8029e+006    0.0000    0.2610    0.0000    0.0206    0.0369
                0.0001  -2.1194e-003   5.0772e-004   8.0692e-004  -2.6107e+008  -1.2321e+006   3.8006e+006    0.0000    0.2611    0.0000    0.0206    0.0369
                0.0291  -2.1886e-003   5.2429e-004   6.9741e-004  -2.6959e+008  -1.2723e+006   3.2848e+006    0.0000    0.2696    0.0000    0.0212    0.0319
                0.0573  -2.2399e-003   5.3658e-004   5.8846e-004  -2.7591e+008  -1.3022e+006   2.7717e+006    0.0000    0.2759    0.0000    0.0217    0.0269
                0.0867  -2.2808e-003   5.4639e-004   4.7286e-004  -2.8095e+008  -1.3260e+006   2.2272e+006    0.0000    0.2810    0.0000    0.0221    0.0216
                0.1159  -2.3219e-003   5.5622e-004   3.5659e-004  -2.8601e+008  -1.3499e+006   1.6795e+006    0.0000    0.2860    0.0000    0.0225    0.0163
                0.1447  -2.3346e-003   5.5928e-004   2.4072e-004  -2.8758e+008  -1.3573e+006   1.1338e+006    0.0000    0.2876    0.0000    0.0227    0.0110
                0.1750  -2.3469e-003   5.6221e-004   1.1865e-004  -2.8909e+008  -1.3644e+006   5.5886e+005    0.0000    0.2891    0.0000    0.0228    0.0054
                0.2044  -2.3502e-003   5.6301e-004   5.2631e-008  -2.8950e+008  -1.3663e+006   2.4789e+002    0.0000    0.2895    0.0000    0.0228    0.0000
                0.2345  -2.3341e-003   5.5915e-004   1.2042e-004  -2.8751e+008  -1.3569e+006   5.6719e+005    0.0000    0.2875    0.0000    0.0227    0.0055
                0.2646  -2.3183e-003   5.5536e-004   2.3989e-004  -2.8557e+008  -1.3478e+006   1.1299e+006    0.0000    0.2856    0.0000    0.0225    0.0110
                0.2944  -2.2845e-003   5.4727e-004   3.5641e-004  -2.8141e+008  -1.3281e+006   1.6787e+006    0.0000    0.2814    0.0000    0.0222    0.0163
                0.3252  -2.2415e-003   5.3697e-004   4.7410e-004  -2.7611e+008  -1.3031e+006   2.2330e+006    0.0000    0.2761    0.0000    0.0218    0.0217
                0.3547  -2.1993e-003   5.2685e-004   5.8447e-004  -2.7091e+008  -1.2786e+006   2.7529e+006    0.0000    0.2709    0.0000    0.0213    0.0267
                0.3847  -2.1328e-003   5.1092e-004   6.9366e-004  -2.6272e+008  -1.2399e+006   3.2671e+006    0.0000    0.2627    0.0000    0.0207    0.0317
                0.3998  -2.0995e-003   5.0295e-004   7.4706e-004  -2.5862e+008  -1.2206e+006   3.5187e+006    0.0000    0.2586    0.0000    0.0204    0.0342

               lamina:  6     
              matName:  (blade-root)
                     s           e11           e22           e12           s11           s22           s12   s11_fcT   s11_fcC   s22_fcT   s22_fcC   s12_fcS
                   (m)         (m/m)         (m/m)         (rad)          (Pa)          (Pa)          (Pa)       (-)       (-)       (-)       (-)       (-)
                0.0000  -2.0966e-003   5.0370e-004   8.0742e-004  -7.4961e+007  -1.6086e+006   3.3266e+006    0.0000    0.0951    0.0000    0.0314    0.0297
                0.0001  -2.0969e-003   5.0378e-004   8.0692e-004  -7.4972e+007  -1.6089e+006   3.3245e+006    0.0000    0.0951    0.0000    0.0314    0.0297
                0.0291  -2.1657e-003   5.2028e-004   6.9741e-004  -7.7432e+007  -1.6619e+006   2.8733e+006    0.0000    0.0983    0.0000    0.0325    0.0257
                0.0573  -2.2165e-003   5.3249e-004   5.8846e-004  -7.9249e+007  -1.7009e+006   2.4245e+006    0.0000    0.1006    0.0000    0.0332    0.0216
                0.0867  -2.2573e-003   5.4227e-004   4.7286e-004  -8.0706e+007  -1.7323e+006   1.9482e+006    0.0000    0.1024    0.0000    0.0338    0.0174
                0.1159  -2.2981e-003   5.5205e-004   3.5659e-004  -8.2163e+007  -1.7636e+006   1.4691e+006    0.0000    0.1043    0.0000    0.0344    0.0131
                0.1447  -2.3106e-003   5.5507e-004   2.4072e-004  -8.2613e+007  -1.7733e+006   9.9175e+005    0.0000    0.1048    0.0000    0.0346    0.0089
                0.1750  -2.3228e-003   5.5800e-004   1.1865e-004  -8.3049e+007  -1.7827e+006   4.8886e+005    0.0000    0.1054    0.0000    0.0348    0.0044
                0.2044  -2.3262e-003   5.5879e-004   5.2631e-008  -8.3168e+007  -1.7853e+006   2.1684e+002    0.0000    0.1055    0.0000    0.0349    0.0000
                0.2345  -2.3101e-003   5.5494e-004   1.2042e-004  -8.2594e+007  -1.7729e+006   4.9614e+005    0.0000    0.1048    0.0000    0.0346    0.0044
                0.2646  -2.2944e-003   5.5117e-004   2.3989e-004  -8.2032e+007  -1.7608e+006   9.8833e+005    0.0000    0.1041    0.0000    0.0344    0.0088
                0.2944  -2.2609e-003   5.4313e-004   3.5641e-004  -8.0834e+007  -1.7350e+006   1.4684e+006    0.0000    0.1026    0.0000    0.0339    0.0131
                0.3252  -2.2180e-003   5.3285e-004   4.7410e-004  -7.9301e+007  -1.7019e+006   1.9533e+006    0.0000    0.1006    0.0000    0.0332    0.0174
                0.3547  -2.1761e-003   5.2280e-004   5.8447e-004  -7.7804e+007  -1.6698e+006   2.4080e+006    0.0000    0.0987    0.0000    0.0326    0.0215
                0.3847  -2.1101e-003   5.0694e-004   6.9366e-004  -7.5441e+007  -1.6189e+006   2.8579e+006    0.0000    0.0957    0.0000    0.0316    0.0255
                0.3998  -2.0768e-003   4.9897e-004   7.4706e-004  -7.4252e+007  -1.5932e+006   3.0779e+006    0.0000    0.0942    0.0000    0.0311    0.0275

               lamina:  7     
              matName:  (blade-shell)
                     s           e11           e22           e12           s11           s22           s12   s11_fcT   s11_fcC   s22_fcT   s22_fcC   s12_fcS
                   (m)         (m/m)         (m/m)         (rad)          (Pa)          (Pa)          (Pa)       (-)       (-)       (-)       (-)       (-)
                0.0000  -1.6877e-003   4.3204e-004   8.0742e-004  -3.1864e+007   4.1529e+006   3.1893e+006    0.0000    0.0641    0.0123   -0.0000    0.0277
                0.0001  -1.6880e-003   4.3212e-004   8.0692e-004  -3.1870e+007   4.1535e+006   3.1873e+006    0.0000    0.0641    0.0123   -0.0000    0.0277
                0.0291  -1.7505e-003   4.4750e-004   6.9741e-004  -3.3050e+007   4.2955e+006   2.7548e+006    0.0000    0.0665    0.0127   -0.0000    0.0240
                0.0573  -1.7920e-003   4.5808e-004   5.8846e-004  -3.3834e+007   4.3967e+006   2.3244e+006    0.0000    0.0681    0.0130   -0.0000    0.0202
                0.0867  -1.8295e-003   4.6729e-004   4.7286e-004  -3.4544e+007   4.4813e+006   1.8678e+006    0.0000    0.0695    0.0133   -0.0000    0.0162
                0.1159  -1.8649e-003   4.7614e-004   3.5659e-004  -3.5213e+007   4.5641e+006   1.4085e+006    0.0000    0.0709    0.0135   -0.0000    0.0122
                0.1447  -1.8742e-003   4.7858e-004   2.4072e-004  -3.5388e+007   4.5883e+006   9.5083e+005    0.0000    0.0712    0.0136   -0.0000    0.0083
                0.1750  -1.8858e-003   4.8140e-004   1.1865e-004  -3.5608e+007   4.6140e+006   4.6869e+005    0.0000    0.0716    0.0137   -0.0000    0.0041
                0.2044  -1.8890e-003   4.8218e-004   5.2631e-008  -3.5669e+007   4.6210e+006   2.0789e+002    0.0000    0.0718    0.0137   -0.0000    0.0000
                0.2345  -1.8741e-003   4.7854e-004   1.2042e-004  -3.5387e+007   4.5876e+006   4.7567e+005    0.0000    0.0712    0.0136   -0.0000    0.0041
                0.2646  -1.8604e-003   4.7512e-004   2.3989e-004  -3.5128e+007   4.5556e+006   9.4755e+005    0.0000    0.0707    0.0135   -0.0000    0.0082
                0.2944  -1.8314e-003   4.6785e-004   3.5641e-004  -3.4579e+007   4.4875e+006   1.4078e+006    0.0000    0.0696    0.0133   -0.0000    0.0122
                0.3252  -1.7906e-003   4.5794e-004   4.7410e-004  -3.3807e+007   4.3975e+006   1.8727e+006    0.0000    0.0680    0.0130   -0.0000    0.0163
                0.3547  -1.7554e-003   4.4906e-004   5.8447e-004  -3.3142e+007   4.3134e+006   2.3087e+006    0.0000    0.0667    0.0128   -0.0000    0.0201
                0.3847  -1.6970e-003   4.3456e-004   6.9366e-004  -3.2040e+007   4.1783e+006   2.7399e+006    0.0000    0.0645    0.0124   -0.0000    0.0238
                0.3998  -1.6638e-003   4.2658e-004   7.4706e-004  -3.1410e+007   4.1071e+006   2.9509e+006    0.0000    0.0632    0.0122   -0.0000    0.0257

            panel:  3     
           lam_num    nPlies        tPly      fibAng     matID  matName
               (-)       (-)         (m)       (deg)       (-)  (-)
                 1         1    0.006094      0.0000         2  (blade-shell)
                 2         1    0.016193      0.0000         1  (blade-root)
                 3         1    0.000891      0.0000         6  (TEP-core)
                 4         1    0.016193      0.0000         1  (blade-root)
                 5         1    0.006094      0.0000         2  (blade-shell)

               lamina:  1     
              matName:  (blade-shell)
                     s           e11           e22           e12           s11           s22           s12   s11_fcT   s11_fcC   s22_fcT   s22_fcC   s12_fcS
                   (m)         (m/m)         (m/m)         (rad)          (Pa)          (Pa)          (Pa)       (-)       (-)       (-)       (-)       (-)
                0.0000  -2.6161e-003   5.8889e-004   6.2553e-004  -4.9598e+007   4.8591e+006   2.4708e+006    0.0000    0.0998    0.0144   -0.0000    0.0215
                0.0149  -2.5768e-003   5.7998e-004   6.7236e-004  -4.8853e+007   4.7846e+006   2.6558e+006    0.0000    0.0983    0.0142   -0.0000    0.0231
                0.0443  -2.4914e-003   5.6039e-004   7.6202e-004  -4.7235e+007   4.6189e+006   3.0100e+006    0.0000    0.0950    0.0137   -0.0000    0.0262
                0.0740  -2.3952e-003   5.3803e-004   8.4881e-004  -4.5412e+007   4.4267e+006   3.3528e+006    0.0000    0.0914    0.0131   -0.0000    0.0292
                0.1024  -2.2987e-003   5.1592e-004   9.2747e-004  -4.3584e+007   4.2397e+006   3.6635e+006    0.0000    0.0877    0.0126   -0.0000    0.0319
                0.1308  -2.1804e-003   4.8890e-004   1.0020e-003  -4.1342e+007   4.0125e+006   3.9580e+006    0.0000    0.0832    0.0119   -0.0000    0.0344
                0.1593  -2.0684e-003   4.6275e-004   1.0717e-003  -3.9221e+007   3.7861e+006   4.2332e+006    0.0000    0.0789    0.0112   -0.0000    0.0368
                0.1856  -1.9463e-003   4.3512e-004   1.1318e-003  -3.6906e+007   3.5566e+006   4.4708e+006    0.0000    0.0743    0.0106   -0.0000    0.0389
                0.2129  -1.8064e-003   4.0312e-004   1.1893e-003  -3.4256e+007   3.2867e+006   4.6977e+006    0.0000    0.0689    0.0098   -0.0000    0.0408
                0.2387  -1.6775e-003   3.7347e-004   1.2386e-003  -3.1814e+007   3.0349e+006   4.8925e+006    0.0000    0.0640    0.0090   -0.0000    0.0425
                0.2637  -1.5275e-003   3.3970e-004   1.2817e-003  -2.8969e+007   2.7564e+006   5.0628e+006    0.0000    0.0583    0.0082   -0.0000    0.0440
                0.2892  -1.3824e-003   3.0614e-004   1.3207e-003  -2.6221e+007   2.4691e+006   5.2166e+006    0.0000    0.0528    0.0073   -0.0000    0.0454
                0.3112  -1.2341e-003   2.7321e-004   1.3498e-003  -2.3409e+007   2.2025e+006   5.3318e+006    0.0000    0.0471    0.0065   -0.0000    0.0464
                0.3356  -1.0551e-003   2.3312e-004   1.3774e-003  -2.0015e+007   1.8740e+006   5.4408e+006    0.0000    0.0403    0.0056   -0.0000    0.0473
                0.3583  -9.0380e-004   1.9842e-004   1.3981e-003  -1.7148e+007   1.5805e+006   5.5227e+006    0.0000    0.0345    0.0047   -0.0000    0.0480
                0.3786  -7.2946e-004   1.6033e-004   1.4126e-003  -1.3839e+007   1.2792e+006   5.5799e+006    0.0000    0.0278    0.0038   -0.0000    0.0485
                0.4026  -5.4375e-004   1.1828e-004   1.4246e-003  -1.0319e+007   9.2941e+005   5.6272e+006    0.0000    0.0208    0.0028   -0.0000    0.0489
                0.4200  -3.7544e-004   8.1948e-005   1.4297e-003  -7.1243e+006   6.4724e+005   5.6472e+006    0.0000    0.0143    0.0019   -0.0000    0.0491
                0.4476  -1.4159e-004   2.9594e-005   1.4314e-003  -2.6902e+006   2.1848e+005   5.6540e+006    0.0000    0.0054    0.0006   -0.0000    0.0492
                0.4717   4.5790e-005  -1.3218e-005   1.4265e-003   8.6072e+005  -1.4190e+005   5.6346e+006    0.0026   -0.0000    0.0000    0.0004    0.0490
                0.4799   1.0062e-004  -2.6245e-005   1.4234e-003   1.8985e+006  -2.5710e+005   5.6226e+006    0.0056   -0.0000    0.0000    0.0008    0.0489

               lamina:  2     
              matName:  (blade-root)
                     s           e11           e22           e12           s11           s22           s12   s11_fcT   s11_fcC   s22_fcT   s22_fcC   s12_fcS
                   (m)         (m/m)         (m/m)         (rad)          (Pa)          (Pa)          (Pa)       (-)       (-)       (-)       (-)       (-)
                0.0000  -2.4784e-003   5.6493e-004   6.2553e-004  -8.8697e+007  -2.1623e+006   2.5772e+006    0.0000    0.1126    0.0000    0.0422    0.0230
                0.0149  -2.4409e-003   5.5632e-004   6.7236e-004  -8.7355e+007  -2.1301e+006   2.7701e+006    0.0000    0.1109    0.0000    0.0416    0.0247
                0.0443  -2.3585e-003   5.3724e-004   7.6202e-004  -8.4405e+007  -2.0606e+006   3.1395e+006    0.0000    0.1071    0.0000    0.0402    0.0280
                0.0740  -2.2644e-003   5.1527e-004   8.4881e-004  -8.1039e+007  -1.9830e+006   3.4971e+006    0.0000    0.1028    0.0000    0.0387    0.0312
                0.1024  -2.1713e-003   4.9374e-004   9.2747e-004  -7.7709e+007  -1.9044e+006   3.8212e+006    0.0000    0.0986    0.0000    0.0372    0.0341
                0.1308  -2.0576e-003   4.6753e-004   1.0020e-003  -7.3641e+007  -1.8077e+006   4.1283e+006    0.0000    0.0935    0.0000    0.0353    0.0369
                0.1593  -1.9475e-003   4.4171e-004   1.0717e-003  -6.9703e+007  -1.7179e+006   4.4154e+006    0.0000    0.0885    0.0000    0.0336    0.0394
                0.1856  -1.8312e-003   4.1510e-004   1.1318e-003  -6.5542e+007  -1.6174e+006   4.6632e+006    0.0000    0.0832    0.0000    0.0316    0.0416
                0.2129  -1.6966e-003   3.8400e-004   1.1893e-003  -6.0724e+007  -1.5033e+006   4.8998e+006    0.0000    0.0771    0.0000    0.0294    0.0437
                0.2387  -1.5718e-003   3.5507e-004   1.2386e-003  -5.6259e+007  -1.3986e+006   5.1030e+006    0.0000    0.0714    0.0000    0.0273    0.0456
                0.2637  -1.4296e-003   3.2268e-004   1.2817e-003  -5.1173e+007  -1.2746e+006   5.2807e+006    0.0000    0.0649    0.0000    0.0249    0.0471
                0.2892  -1.2884e-003   2.8977e-004   1.3207e-003  -4.6119e+007  -1.1574e+006   5.4411e+006    0.0000    0.0585    0.0000    0.0226    0.0486
                0.3112  -1.1498e-003   2.5854e-004   1.3498e-003  -4.1159e+007  -1.0335e+006   5.5613e+006    0.0000    0.0522    0.0000    0.0202    0.0497
                0.3356  -9.8106e-004   2.2023e-004   1.3774e-003  -3.5120e+007  -8.8494e+005   5.6749e+006    0.0000    0.0446    0.0000    0.0173    0.0507
                0.3583  -8.3502e-004   1.8645e-004   1.3981e-003  -2.9895e+007  -7.6173e+005   5.7603e+006    0.0000    0.0379    0.0000    0.0149    0.0514
                0.3786  -6.7471e-004   1.5080e-004   1.4126e-003  -2.4155e+007  -6.1426e+005   5.8200e+006    0.0000    0.0307    0.0000    0.0120    0.0520
                0.4026  -4.9774e-004   1.1027e-004   1.4246e-003  -1.7822e+007  -4.6149e+005   5.8693e+006    0.0000    0.0226    0.0000    0.0090    0.0524
                0.4200  -3.4486e-004   7.6626e-005   1.4297e-003  -1.2347e+007  -3.1781e+005   5.8903e+006    0.0000    0.0157    0.0000    0.0062    0.0526
                0.4476  -1.2453e-004   2.6623e-005   1.4314e-003  -4.4615e+006  -1.2370e+005   5.8974e+006    0.0000    0.0057    0.0000    0.0024    0.0527
                0.4717   8.1622e-005  -1.9454e-005   1.4265e-003   2.9187e+006   6.3951e+004   5.8771e+006    0.0029   -0.0000    0.0012   -0.0000    0.0525
                0.4799   1.3645e-004  -3.2481e-005   1.4234e-003   4.8795e+006   1.0727e+005   5.8646e+006    0.0049   -0.0000    0.0021   -0.0000    0.0524

               lamina:  3     
              matName:  (TEP-core)
                     s           e11           e22           e12           s11           s22           s12   s11_fcT   s11_fcC   s22_fcT   s22_fcC   s12_fcS
                   (m)         (m/m)         (m/m)         (rad)          (Pa)          (Pa)          (Pa)       (-)       (-)       (-)       (-)       (-)
                0.0000  -2.1125e-003   5.0125e-004   6.2553e-004  -4.5887e+005  -4.6163e+004   6.1302e+004    0.0000    0.1070    0.0000    0.0108    0.0208
                0.0149  -2.0796e-003   4.9345e-004   6.7236e-004  -4.5172e+005  -4.5444e+004   6.5891e+004    0.0000    0.1053    0.0000    0.0106    0.0223
                0.0443  -2.0051e-003   4.7574e-004   7.6202e-004  -4.3552e+005  -4.3817e+004   7.4678e+004    0.0000    0.1015    0.0000    0.0102    0.0253
                0.0740  -1.9167e-003   4.5477e-004   8.4881e-004  -4.1634e+005  -4.1890e+004   8.3183e+004    0.0000    0.0970    0.0000    0.0098    0.0282
                0.1024  -1.8326e-003   4.3481e-004   9.2747e-004  -3.9807e+005  -4.0055e+004   9.0892e+004    0.0000    0.0928    0.0000    0.0093    0.0308
                0.1308  -1.7313e-003   4.1074e-004   1.0020e-003  -3.7605e+005  -3.7842e+004   9.8198e+004    0.0000    0.0877    0.0000    0.0088    0.0333
                0.1593  -1.6263e-003   3.8581e-004   1.0717e-003  -3.5325e+005  -3.5553e+004   1.0503e+005    0.0000    0.0823    0.0000    0.0083    0.0356
                0.1856  -1.5256e-003   3.6190e-004   1.1318e-003  -3.3137e+005  -3.3353e+004   1.1092e+005    0.0000    0.0772    0.0000    0.0078    0.0376
                0.2129  -1.4046e-003   3.3319e-004   1.1893e-003  -3.0510e+005  -3.0712e+004   1.1655e+005    0.0000    0.0711    0.0000    0.0072    0.0395
                0.2387  -1.2908e-003   3.0617e-004   1.2386e-003  -2.8038e+005  -2.8229e+004   1.2138e+005    0.0000    0.0654    0.0000    0.0066    0.0411
                0.2637  -1.1697e-003   2.7744e-004   1.2817e-003  -2.5408e+005  -2.5584e+004   1.2561e+005    0.0000    0.0592    0.0000    0.0060    0.0426
                0.2892  -1.0385e-003   2.4628e-004   1.3207e-003  -2.2557e+005  -2.2721e+004   1.2943e+005    0.0000    0.0526    0.0000    0.0053    0.0439
                0.3112  -9.2573e-004   2.1954e-004   1.3498e-003  -2.0109e+005  -2.0255e+004   1.3228e+005    0.0000    0.0469    0.0000    0.0047    0.0448
                0.3356  -7.8425e-004   1.8598e-004   1.3774e-003  -1.7036e+005  -1.7162e+004   1.3499e+005    0.0000    0.0397    0.0000    0.0040    0.0458
                0.3583  -6.5225e-004   1.5464e-004   1.3981e-003  -1.4169e+005  -1.4282e+004   1.3702e+005    0.0000    0.0330    0.0000    0.0033    0.0464
                0.3786  -5.2923e-004   1.2548e-004   1.4126e-003  -1.1496e+005  -1.1587e+004   1.3844e+005    0.0000    0.0268    0.0000    0.0027    0.0469
                0.4026  -3.7546e-004   8.8988e-005   1.4246e-003  -8.1563e+004  -8.2281e+003   1.3961e+005    0.0000    0.0190    0.0000    0.0019    0.0473
                0.4200  -2.6361e-004   6.2485e-005   1.4297e-003  -5.7263e+004  -5.7749e+003   1.4011e+005    0.0000    0.0133    0.0000    0.0013    0.0475
                0.4476  -7.9172e-005   1.8730e-005   1.4314e-003  -1.7201e+004  -1.7431e+003   1.4028e+005    0.0000    0.0040    0.0000    0.0004    0.0476
                0.4717   8.3593e-005  -1.9797e-005   1.4265e-003   1.8160e+004   1.8354e+003   1.3980e+005    0.0042   -0.0000    0.0004   -0.0000    0.0474
                0.4799   1.3843e-004  -3.2824e-005   1.4234e-003   3.0069e+004   3.0297e+003   1.3950e+005    0.0070   -0.0000    0.0007   -0.0000    0.0473

               lamina:  4     
              matName:  (blade-root)
                     s           e11           e22           e12           s11           s22           s12   s11_fcT   s11_fcC   s22_fcT   s22_fcC   s12_fcS
                   (m)         (m/m)         (m/m)         (rad)          (Pa)          (Pa)          (Pa)       (-)       (-)       (-)       (-)       (-)
                0.0000  -2.0924e-003   4.9775e-004   6.2553e-004  -7.4824e+007  -1.6477e+006   2.5772e+006    0.0000    0.0950    0.0000    0.0322    0.0230
                0.0149  -2.0598e-003   4.8999e-004   6.7236e-004  -7.3657e+007  -1.6219e+006   2.7701e+006    0.0000    0.0935    0.0000    0.0317    0.0247
                0.0443  -1.9856e-003   4.7236e-004   7.6202e-004  -7.1006e+007  -1.5635e+006   3.1395e+006    0.0000    0.0901    0.0000    0.0305    0.0280
                0.0740  -1.8976e-003   4.5144e-004   8.4881e-004  -6.7858e+007  -1.4940e+006   3.4971e+006    0.0000    0.0861    0.0000    0.0292    0.0312
                0.1024  -1.8140e-003   4.3156e-004   9.2747e-004  -6.4869e+007  -1.4281e+006   3.8212e+006    0.0000    0.0823    0.0000    0.0279    0.0341
                0.1308  -1.7133e-003   4.0762e-004   1.0020e-003  -6.1268e+007  -1.3487e+006   4.1283e+006    0.0000    0.0778    0.0000    0.0263    0.0369
                0.1593  -1.6086e-003   3.8273e-004   1.0717e-003  -5.7523e+007  -1.2661e+006   4.4154e+006    0.0000    0.0730    0.0000    0.0247    0.0394
                0.1856  -1.5087e-003   3.5898e-004   1.1318e-003  -5.3952e+007  -1.1874e+006   4.6632e+006    0.0000    0.0685    0.0000    0.0232    0.0416
                0.2129  -1.3885e-003   3.3039e-004   1.1893e-003  -4.9653e+007  -1.0926e+006   4.8998e+006    0.0000    0.0630    0.0000    0.0213    0.0437
                0.2387  -1.2753e-003   3.0348e-004   1.2386e-003  -4.5605e+007  -1.0034e+006   5.1030e+006    0.0000    0.0579    0.0000    0.0196    0.0456
                0.2637  -1.1554e-003   2.7496e-004   1.2817e-003  -4.1317e+007  -9.0896e+005   5.2807e+006    0.0000    0.0524    0.0000    0.0178    0.0471
                0.2892  -1.0247e-003   2.4389e-004   1.3207e-003  -3.6643e+007  -8.0585e+005   5.4411e+006    0.0000    0.0465    0.0000    0.0157    0.0486
                0.3112  -9.1341e-004   2.1740e-004   1.3498e-003  -3.2663e+007  -7.1830e+005   5.5613e+006    0.0000    0.0415    0.0000    0.0140    0.0497
                0.3356  -7.7343e-004   1.8409e-004   1.3774e-003  -2.7657e+007  -6.0811e+005   5.6749e+006    0.0000    0.0351    0.0000    0.0119    0.0507
                0.3583  -6.4220e-004   1.5289e-004   1.3981e-003  -2.2965e+007  -5.0464e+005   5.7603e+006    0.0000    0.0291    0.0000    0.0099    0.0514
                0.3786  -5.2123e-004   1.2409e-004   1.4126e-003  -1.8639e+007  -4.0963e+005   5.8200e+006    0.0000    0.0237    0.0000    0.0080    0.0520
                0.4026  -3.6874e-004   8.7818e-005   1.4246e-003  -1.3186e+007  -2.8950e+005   5.8693e+006    0.0000    0.0167    0.0000    0.0057    0.0524
                0.4200  -2.5914e-004   6.1707e-005   1.4297e-003  -9.2665e+006  -2.0352e+005   5.8903e+006    0.0000    0.0118    0.0000    0.0040    0.0526
                0.4476  -7.6677e-005   1.8296e-005   1.4314e-003  -2.7418e+006  -5.9901e+004   5.8974e+006    0.0000    0.0035    0.0000    0.0012    0.0527
                0.4717   1.1943e-004  -2.6033e-005   1.4265e-003   4.2773e+006   1.1435e+005   5.8771e+006    0.0043   -0.0000    0.0022   -0.0000    0.0525
                0.4799   1.7426e-004  -3.9060e-005   1.4234e-003   6.2382e+006   1.5767e+005   5.8646e+006    0.0062   -0.0000    0.0031   -0.0000    0.0524

               lamina:  5     
              matName:  (blade-shell)
                     s           e11           e22           e12           s11           s22           s12   s11_fcT   s11_fcC   s22_fcT   s22_fcC   s12_fcS
                   (m)         (m/m)         (m/m)         (rad)          (Pa)          (Pa)          (Pa)       (-)       (-)       (-)       (-)       (-)
                0.0000  -1.7265e-003   4.3408e-004   6.2553e-004  -3.2617e+007   4.0940e+006   2.4708e+006    0.0000    0.0656    0.0121   -0.0000    0.0215
                0.0149  -1.6985e-003   4.2712e-004   6.7236e-004  -3.2088e+007   4.0293e+006   2.6558e+006    0.0000    0.0646    0.0120   -0.0000    0.0231
                0.0443  -1.6322e-003   4.1086e-004   7.6202e-004  -3.0835e+007   3.8800e+006   3.0100e+006    0.0000    0.0620    0.0115   -0.0000    0.0262
                0.0740  -1.5500e-003   3.9094e-004   8.4881e-004  -2.9278e+007   3.6998e+006   3.3528e+006    0.0000    0.0589    0.0110   -0.0000    0.0292
                0.1024  -1.4754e-003   3.7263e-004   9.2747e-004  -2.7868e+007   3.5316e+006   3.6635e+006    0.0000    0.0561    0.0105   -0.0000    0.0319
                0.1308  -1.3870e-003   3.5083e-004   1.0020e-003  -2.6198e+007   3.3302e+006   3.9580e+006    0.0000    0.0527    0.0099   -0.0000    0.0344
                0.1593  -1.2874e-003   3.2683e-004   1.0717e-003  -2.4313e+007   3.1144e+006   4.2332e+006    0.0000    0.0489    0.0092   -0.0000    0.0368
                0.1856  -1.2031e-003   3.0578e-004   1.1318e-003  -2.2720e+007   2.9174e+006   4.4708e+006    0.0000    0.0457    0.0087   -0.0000    0.0389
                0.2129  -1.0965e-003   2.7958e-004   1.1893e-003  -2.0706e+007   2.6762e+006   4.6977e+006    0.0000    0.0417    0.0079   -0.0000    0.0408
                0.2387  -9.9434e-004   2.5458e-004   1.2386e-003  -1.8773e+007   2.4474e+006   4.8925e+006    0.0000    0.0378    0.0073   -0.0000    0.0425
                0.2637  -8.9549e-004   2.2972e-004   1.2817e-003  -1.6906e+007   2.2129e+006   5.0628e+006    0.0000    0.0340    0.0066   -0.0000    0.0440
                0.2892  -7.7481e-004   2.0039e-004   1.3207e-003  -1.4623e+007   1.9466e+006   5.2166e+006    0.0000    0.0294    0.0058   -0.0000    0.0454
                0.3112  -6.8935e-004   1.7840e-004   1.3498e-003  -1.3010e+007   1.7340e+006   5.3318e+006    0.0000    0.0262    0.0051   -0.0000    0.0464
                0.3356  -5.7662e-004   1.4984e-004   1.3774e-003  -1.0881e+007   1.4624e+006   5.4408e+006    0.0000    0.0219    0.0043   -0.0000    0.0473
                0.3583  -4.5943e-004   1.2108e-004   1.3981e-003  -8.6653e+006   1.1983e+006   5.5227e+006    0.0000    0.0174    0.0036   -0.0000    0.0480
                0.3786  -3.7574e-004   9.8768e-005   1.4126e-003  -7.0875e+006   9.7496e+005   5.5799e+006    0.0000    0.0143    0.0029   -0.0000    0.0485
                0.4026  -2.4647e-004   6.6538e-005   1.4246e-003  -4.6445e+006   6.7374e+005   5.6272e+006    0.0000    0.0093    0.0020   -0.0000    0.0489
                0.4200  -1.7788e-004   4.7567e-005   1.4297e-003  -3.3533e+006   4.7735e+005   5.6472e+006    0.0000    0.0067    0.0014   -0.0000    0.0491
                0.4476  -3.1322e-005   1.0403e-005   1.4314e-003  -5.8531e+005   1.2364e+005   5.6540e+006    0.0000    0.0012    0.0004   -0.0000    0.0492
                0.4717   1.3291e-004  -2.8380e-005   1.4265e-003   2.5237e+006  -2.1682e+005   5.6346e+006    0.0075   -0.0000    0.0000    0.0006    0.0490
                0.4799   1.8774e-004  -4.1407e-005   1.4234e-003   3.5615e+006  -3.3202e+005   5.6226e+006    0.0106   -0.0000    0.0000    0.0010    0.0489

  Bottom:  panel  nNode   nLam     xc_St    xc_End         b         t         E_eff         G_eff      nu_eff     density  buckleCrit
            (-)    (-)    (-)       (-)       (-)       (m)       (m)          (Pa)          (Pa)         (-)    (kg/m^3)         (-)
              1     18      5    0.0000    0.2590    0.4169    0.0446   3.1118e+010   4.0684e+009      0.2375   1747.9347      0.0001
              2     16      7    0.2590    0.6690    0.3997    0.0464   3.4682e+010   4.0972e+009      0.2396   1738.8489      0.0000
              3     21      5    0.6690    1.0000    0.4715    0.0455   3.0552e+010   3.9956e+009      0.2376   1719.5576      0.0001

            panel:  1     
           lam_num    nPlies        tPly      fibAng     matID  matName
               (-)       (-)         (m)       (deg)       (-)  (-)
                 1         1    0.006094      0.0000         2  (blade-shell)
                 2         1    0.016193      0.0000         1  (blade-root)
                 3         1    0.000057      0.0000         5  (LEP-core)
                 4         1    0.016193      0.0000         1  (blade-root)
                 5         1    0.006094      0.0000         2  (blade-shell)

               lamina:  1     
              matName:  (blade-shell)
                     s           e11           e22           e12           s11           s22           s12   s11_fcT   s11_fcC   s22_fcT   s22_fcC   s12_fcS
                   (m)         (m/m)         (m/m)         (rad)          (Pa)          (Pa)          (Pa)       (-)       (-)       (-)       (-)       (-)
                0.0000  -3.5120e-005   1.0455e-005   1.5746e-003  -6.5935e+005   1.1503e+005   6.2195e+006    0.0000    0.0013    0.0003   -0.0000    0.0541
                0.0090   3.7182e-005  -5.9261e-006   1.5768e-003   7.1113e+005  -2.1334e+004   6.2285e+006    0.0021   -0.0000    0.0000    0.0001    0.0542
                0.0354   2.2599e-004  -4.9979e-005   1.5787e-003   4.2868e+006  -4.0231e+005   6.2358e+006    0.0127   -0.0000    0.0000    0.0012    0.0542
                0.0659   4.7613e-004  -1.0637e-004   1.5718e-003   9.0288e+006  -8.6848e+005   6.2088e+006    0.0268   -0.0000    0.0000    0.0026    0.0540
                0.0852   6.5382e-004  -1.4506e-004   1.5626e-003   1.2401e+007  -1.1730e+006   6.1724e+006    0.0368   -0.0000    0.0000    0.0035    0.0537
                0.1113   8.5381e-004  -1.9050e-004   1.5442e-003   1.6191e+007  -1.5527e+006   6.0994e+006    0.0480   -0.0000    0.0000    0.0046    0.0530
                0.1331   1.0392e-003  -2.3112e-004   1.5237e-003   1.9709e+007  -1.8755e+006   6.0185e+006    0.0585   -0.0000    0.0000    0.0056    0.0523
                0.1569   1.2006e-003  -2.6814e-004   1.4960e-003   2.2767e+007  -2.1887e+006   5.9093e+006    0.0676   -0.0000    0.0000    0.0065    0.0514
                0.1826   1.3920e-003  -3.1095e-004   1.4604e-003   2.6396e+007  -2.5387e+006   5.7687e+006    0.0783   -0.0000    0.0000    0.0075    0.0502
                0.2049   1.5477e-003  -3.4535e-004   1.4248e-003   2.9351e+007  -2.8152e+006   5.6279e+006    0.0871   -0.0000    0.0000    0.0084    0.0489
                0.2309   1.6992e-003  -3.8030e-004   1.3780e-003   3.2220e+007  -3.1131e+006   5.4430e+006    0.0956   -0.0000    0.0000    0.0092    0.0473
                0.2560   1.8552e-003  -4.1515e-004   1.3277e-003   3.5178e+007  -3.3977e+006   5.2446e+006    0.1044   -0.0000    0.0000    0.0101    0.0456
                0.2815   1.9854e-003  -4.4490e-004   1.2717e-003   3.7645e+007  -3.6483e+006   5.0231e+006    0.1117   -0.0000    0.0000    0.0108    0.0437
                0.3086   2.1270e-003  -4.7709e-004   1.2073e-003   4.0330e+007  -3.9173e+006   4.7689e+006    0.1197   -0.0000    0.0000    0.0116    0.0415
                0.3342   2.2466e-003  -5.0383e-004   1.1419e-003   4.2597e+007  -4.1360e+006   4.5104e+006    0.1264   -0.0000    0.0000    0.0123    0.0392
                0.3620   2.3528e-003  -5.2853e-004   1.0665e-003   4.4609e+007  -4.3486e+006   4.2125e+006    0.1324   -0.0000    0.0000    0.0129    0.0366
                0.3896   2.4651e-003  -5.5391e-004   9.8731e-004   4.6737e+007  -4.5594e+006   3.8999e+006    0.1387   -0.0000    0.0000    0.0135    0.0339
                0.4169   2.5500e-003  -5.7319e-004   9.0534e-004   4.8347e+007  -4.7200e+006   3.5761e+006    0.1435   -0.0000    0.0000    0.0140    0.0311

               lamina:  2     
              matName:  (blade-root)
                     s           e11           e22           e12           s11           s22           s12   s11_fcT   s11_fcC   s22_fcT   s22_fcC   s12_fcS
                   (m)         (m/m)         (m/m)         (rad)          (Pa)          (Pa)          (Pa)       (-)       (-)       (-)       (-)       (-)
                0.0000  -6.7740e-005   1.6095e-005   1.5746e-003  -2.4224e+006  -5.3507e+004   6.4872e+006    0.0000    0.0031    0.0000    0.0010    0.0579
                0.0090   2.4907e-005  -3.8037e-006   1.5768e-003   8.9665e+005   3.7746e+004   6.4966e+006    0.0009   -0.0000    0.0007   -0.0000    0.0580
                0.0354   2.1035e-004  -4.7273e-005   1.5787e-003   7.5298e+006   1.8927e+005   6.5042e+006    0.0075   -0.0000    0.0037   -0.0000    0.0581
                0.0659   4.4768e-004  -1.0145e-004   1.5718e-003   1.6023e+007   3.9568e+005   6.4760e+006    0.0159   -0.0000    0.0077   -0.0000    0.0578
                0.0852   6.1053e-004  -1.3757e-004   1.5626e-003   2.1854e+007   5.4624e+005   6.4381e+006    0.0217   -0.0000    0.0107   -0.0000    0.0575
                0.1113   8.0178e-004  -1.8150e-004   1.5442e-003   2.8698e+007   7.1025e+005   6.3619e+006    0.0286   -0.0000    0.0139   -0.0000    0.0568
                0.1331   9.7276e-004  -2.1964e-004   1.5237e-003   3.4819e+007   8.6657e+005   6.2775e+006    0.0346   -0.0000    0.0169   -0.0000    0.0560
                0.1569   1.1286e-003  -2.5570e-004   1.4960e-003   4.0394e+007   9.9793e+005   6.1636e+006    0.0402   -0.0000    0.0195   -0.0000    0.0550
                0.1826   1.3087e-003  -2.9655e-004   1.4604e-003   4.6842e+007   1.1568e+006   6.0170e+006    0.0466   -0.0000    0.0226   -0.0000    0.0537
                0.2049   1.4535e-003  -3.2907e-004   1.4248e-003   5.2026e+007   1.2874e+006   5.8701e+006    0.0518   -0.0000    0.0251   -0.0000    0.0524
                0.2309   1.6006e-003  -3.6326e-004   1.3780e-003   5.7288e+007   1.4101e+006   5.6772e+006    0.0570   -0.0000    0.0275   -0.0000    0.0507
                0.2560   1.7473e-003  -3.9650e-004   1.3277e-003   6.2538e+007   1.5397e+006   5.4703e+006    0.0622   -0.0000    0.0301   -0.0000    0.0488
                0.2815   1.8726e-003  -4.2540e-004   1.2717e-003   6.7019e+007   1.6460e+006   5.2393e+006    0.0667   -0.0000    0.0321   -0.0000    0.0468
                0.3086   2.0080e-003  -4.5652e-004   1.2073e-003   7.1867e+007   1.7621e+006   4.9742e+006    0.0715   -0.0000    0.0344   -0.0000    0.0444
                0.3342   2.1206e-003  -4.8205e-004   1.1419e-003   7.5895e+007   1.8614e+006   4.7045e+006    0.0755   -0.0000    0.0364   -0.0000    0.0420
                0.3620   2.2246e-003  -5.0635e-004   1.0665e-003   7.9614e+007   1.9469e+006   4.3938e+006    0.0792   -0.0000    0.0380   -0.0000    0.0392
                0.3896   2.3314e-003  -5.3080e-004   9.8731e-004   8.3438e+007   2.0393e+006   4.0677e+006    0.0830   -0.0000    0.0398   -0.0000    0.0363
                0.4169   2.4125e-003  -5.4941e-004   9.0534e-004   8.6340e+007   2.1091e+006   3.7300e+006    0.0859   -0.0000    0.0412   -0.0000    0.0333

               lamina:  3     
              matName:  (LEP-core)
                     s           e11           e22           e12           s11           s22           s12   s11_fcT   s11_fcC   s22_fcT   s22_fcC   s12_fcS
                   (m)         (m/m)         (m/m)         (rad)          (Pa)          (Pa)          (Pa)       (-)       (-)       (-)       (-)       (-)
                0.0000  -6.7856e-005   1.6115e-005   1.5746e-003  -1.4738e+004  -1.4794e+003   1.5431e+005    0.0000    0.0034    0.0000    0.0003    0.0523
                0.0090  -7.8286e-006   1.8559e-006   1.5768e-003  -1.7006e+003  -1.7145e+002   1.5453e+005    0.0000    0.0004    0.0000    0.0000    0.0524
                0.0354   1.6876e-004  -4.0084e-005   1.5787e-003   3.6654e+004   3.6783e+003   1.5471e+005    0.0085   -0.0000    0.0009   -0.0000    0.0524
                0.0659   3.7208e-004  -8.8377e-005   1.5718e-003   8.0813e+004   8.1092e+003   1.5404e+005    0.0188   -0.0000    0.0019   -0.0000    0.0522
                0.0852   4.9547e-004  -1.1768e-004   1.5626e-003   1.0761e+005   1.0799e+004   1.5314e+005    0.0251   -0.0000    0.0025   -0.0000    0.0519
                0.1113   6.6351e-004  -1.5760e-004   1.5442e-003   1.4411e+005   1.4461e+004   1.5133e+005    0.0336   -0.0000    0.0034   -0.0000    0.0513
                0.1331   7.9622e-004  -1.8912e-004   1.5237e-003   1.7293e+005   1.7353e+004   1.4932e+005    0.0403   -0.0000    0.0040   -0.0000    0.0506
                0.1569   9.3724e-004  -2.2261e-004   1.4960e-003   2.0356e+005   2.0426e+004   1.4661e+005    0.0475   -0.0000    0.0048   -0.0000    0.0497
                0.1826   1.0875e-003  -2.5831e-004   1.4604e-003   2.3620e+005   2.3702e+004   1.4312e+005    0.0551   -0.0000    0.0055   -0.0000    0.0485
                0.2049   1.2032e-003  -2.8579e-004   1.4248e-003   2.6133e+005   2.6224e+004   1.3963e+005    0.0609   -0.0000    0.0061   -0.0000    0.0473
                0.2309   1.3387e-003  -3.1797e-004   1.3780e-003   2.9076e+005   2.9176e+004   1.3504e+005    0.0678   -0.0000    0.0068   -0.0000    0.0458
                0.2560   1.4606e-003  -3.4693e-004   1.3277e-003   3.1724e+005   3.1833e+004   1.3012e+005    0.0739   -0.0000    0.0074   -0.0000    0.0441
                0.2815   1.5728e-003  -3.7358e-004   1.2717e-003   3.4160e+005   3.4278e+004   1.2462e+005    0.0796   -0.0000    0.0080   -0.0000    0.0422
                0.3086   1.6918e-003  -4.0185e-004   1.2073e-003   3.6745e+005   3.6872e+004   1.1832e+005    0.0857   -0.0000    0.0086   -0.0000    0.0401
                0.3342   1.7858e-003  -4.2416e-004   1.1419e-003   3.8786e+005   3.8919e+004   1.1190e+005    0.0904   -0.0000    0.0091   -0.0000    0.0379
                0.3620   1.8837e-003  -4.4742e-004   1.0665e-003   4.0913e+005   4.1053e+004   1.0451e+005    0.0954   -0.0000    0.0096   -0.0000    0.0354
                0.3896   1.9762e-003  -4.6939e-004   9.8731e-004   4.2921e+005   4.3068e+004   9.6757e+004    0.1000   -0.0000    0.0100   -0.0000    0.0328
                0.4169   2.0471e-003  -4.8623e-004   9.0534e-004   4.4461e+005   4.4613e+004   8.8723e+004    0.1036   -0.0000    0.0104   -0.0000    0.0301

               lamina:  4     
              matName:  (blade-root)
                     s           e11           e22           e12           s11           s22           s12   s11_fcT   s11_fcC   s22_fcT   s22_fcC   s12_fcS
                   (m)         (m/m)         (m/m)         (rad)          (Pa)          (Pa)          (Pa)       (-)       (-)       (-)       (-)       (-)
                0.0000  -1.0048e-004   2.1755e-005   1.5746e-003  -3.5991e+006  -9.7472e+004   6.4872e+006    0.0000    0.0046    0.0000    0.0019    0.0579
                0.0090  -4.0449e-005   7.4956e-006   1.5768e-003  -1.4524e+006  -5.0029e+004   6.4966e+006    0.0000    0.0018    0.0000    0.0010    0.0580
                0.0354   1.6862e-004  -4.0059e-005   1.5787e-003   6.0299e+006   1.3323e+005   6.5042e+006    0.0060   -0.0000    0.0026   -0.0000    0.0581
                0.0659   3.7181e-004  -8.8330e-005   1.5718e-003   1.3296e+007   2.9379e+005   6.4760e+006    0.0132   -0.0000    0.0057   -0.0000    0.0578
                0.0852   4.9506e-004  -1.1761e-004   1.5626e-003   1.7704e+007   3.9117e+005   6.4381e+006    0.0176   -0.0000    0.0076   -0.0000    0.0575
                0.1113   6.6302e-004  -1.5751e-004   1.5442e-003   2.3710e+007   5.2389e+005   6.3619e+006    0.0236   -0.0000    0.0102   -0.0000    0.0568
                0.1331   7.9559e-004  -1.8901e-004   1.5237e-003   2.8451e+007   6.2863e+005   6.2775e+006    0.0283   -0.0000    0.0123   -0.0000    0.0560
                0.1569   9.3657e-004  -2.2250e-004   1.4960e-003   3.3492e+007   7.4004e+005   6.1636e+006    0.0333   -0.0000    0.0145   -0.0000    0.0550
                0.1826   1.0867e-003  -2.5817e-004   1.4604e-003   3.8863e+007   8.5870e+005   6.0170e+006    0.0387   -0.0000    0.0168   -0.0000    0.0537
                0.2049   1.2024e-003  -2.8564e-004   1.4248e-003   4.2997e+007   9.5005e+005   5.8701e+006    0.0428   -0.0000    0.0186   -0.0000    0.0524
                0.2309   1.3378e-003  -3.1781e-004   1.3780e-003   4.7840e+007   1.0571e+006   5.6772e+006    0.0476   -0.0000    0.0206   -0.0000    0.0507
                0.2560   1.4596e-003  -3.4675e-004   1.3277e-003   5.2197e+007   1.1533e+006   5.4703e+006    0.0519   -0.0000    0.0225   -0.0000    0.0488
                0.2815   1.5718e-003  -3.7340e-004   1.2717e-003   5.6207e+007   1.2420e+006   5.2393e+006    0.0559   -0.0000    0.0243   -0.0000    0.0468
                0.3086   1.6907e-003  -4.0166e-004   1.2073e-003   6.0462e+007   1.3360e+006   4.9742e+006    0.0602   -0.0000    0.0261   -0.0000    0.0444
                0.3342   1.7846e-003  -4.2396e-004   1.1419e-003   6.3819e+007   1.4101e+006   4.7045e+006    0.0635   -0.0000    0.0275   -0.0000    0.0420
                0.3620   1.8825e-003  -4.4722e-004   1.0665e-003   6.7320e+007   1.4875e+006   4.3938e+006    0.0670   -0.0000    0.0291   -0.0000    0.0392
                0.3896   1.9749e-003  -4.6917e-004   9.8731e-004   7.0625e+007   1.5606e+006   4.0677e+006    0.0703   -0.0000    0.0305   -0.0000    0.0363
                0.4169   2.0458e-003  -4.8601e-004   9.0534e-004   7.3159e+007   1.6166e+006   3.7300e+006    0.0728   -0.0000    0.0316   -0.0000    0.0333

               lamina:  5     
              matName:  (blade-shell)
                     s           e11           e22           e12           s11           s22           s12   s11_fcT   s11_fcC   s22_fcT   s22_fcC   s12_fcS
                   (m)         (m/m)         (m/m)         (rad)          (Pa)          (Pa)          (Pa)       (-)       (-)       (-)       (-)       (-)
                0.0000  -1.1275e-004   2.3877e-005   1.5746e-003  -2.1414e+006   1.8005e+005   6.2195e+006    0.0000    0.0043    0.0005   -0.0000    0.0541
                0.0090  -5.2724e-005   9.6179e-006   1.5768e-003  -1.0053e+006   5.3977e+004   6.2285e+006    0.0000    0.0020    0.0002   -0.0000    0.0542
                0.0354   1.2704e-004  -3.2870e-005   1.5787e-003   2.3976e+006  -3.1941e+005   6.2358e+006    0.0071   -0.0000    0.0000    0.0009    0.0542
                0.0659   2.9621e-004  -7.5260e-005   1.5718e-003   5.5940e+006  -7.1777e+005   6.2088e+006    0.0166   -0.0000    0.0000    0.0021    0.0540
                0.0852   3.8001e-004  -9.7720e-005   1.5626e-003   7.1735e+006  -9.4368e+005   6.1724e+006    0.0213   -0.0000    0.0000    0.0028    0.0537
                0.1113   5.2476e-004  -1.3361e-004   1.5442e-003   9.9093e+006  -1.2771e+006   6.0994e+006    0.0294   -0.0000    0.0000    0.0038    0.0530
                0.1331   6.1906e-004  -1.5849e-004   1.5237e-003   1.1688e+007  -1.5235e+006   6.0185e+006    0.0347   -0.0000    0.0000    0.0045    0.0523
                0.1569   7.4522e-004  -1.8942e-004   1.4960e-003   1.4073e+007  -1.8072e+006   5.9093e+006    0.0418   -0.0000    0.0000    0.0054    0.0514
                0.1826   8.6554e-004  -2.1993e-004   1.4604e-003   1.6346e+007  -2.0977e+006   5.7687e+006    0.0485   -0.0000    0.0000    0.0062    0.0502
                0.2049   9.5205e-004  -2.4237e-004   1.4248e-003   1.7978e+007  -2.3162e+006   5.6279e+006    0.0533   -0.0000    0.0000    0.0069    0.0489
                0.2309   1.0759e-003  -2.7253e-004   1.3780e-003   2.0320e+007  -2.5910e+006   5.4430e+006    0.0603   -0.0000    0.0000    0.0077    0.0473
                0.2560   1.1729e-003  -2.9719e-004   1.3277e-003   2.2153e+007  -2.8262e+006   5.2446e+006    0.0657   -0.0000    0.0000    0.0084    0.0456
                0.2815   1.2720e-003  -3.2157e-004   1.2717e-003   2.4026e+007  -3.0508e+006   5.0231e+006    0.0713   -0.0000    0.0000    0.0091    0.0437
                0.3086   1.3745e-003  -3.4699e-004   1.2073e-003   2.5964e+007  -3.2869e+006   4.7689e+006    0.0770   -0.0000    0.0000    0.0098    0.0415
                0.3342   1.4498e-003  -3.6607e-004   1.1419e-003   2.7385e+007  -3.4686e+006   4.5104e+006    0.0813   -0.0000    0.0000    0.0103    0.0392
                0.3620   1.5417e-003  -3.8829e-004   1.0665e-003   2.9123e+007  -3.6691e+006   4.2125e+006    0.0864   -0.0000    0.0000    0.0109    0.0366
                0.3896   1.6197e-003  -4.0776e-004   9.8731e-004   3.0598e+007  -3.8513e+006   3.8999e+006    0.0908   -0.0000    0.0000    0.0114    0.0339
                0.4169   1.6804e-003  -4.2282e-004   9.0534e-004   3.1744e+007  -3.9915e+006   3.5761e+006    0.0942   -0.0000    0.0000    0.0118    0.0311

            panel:  2     
           lam_num    nPlies        tPly      fibAng     matID  matName
               (-)       (-)         (m)       (deg)       (-)  (-)
                 1         1    0.006094      0.0000         2  (blade-shell)
                 2         1    0.016193      0.0000         1  (blade-root)
                 3         1    0.000891      0.0000         3  (spar-uni)
                 4         1    0.000010      0.0000         4  (spar-core)
                 5         1    0.000891      0.0000         3  (spar-uni)
                 6         1    0.016193      0.0000         1  (blade-root)
                 7         1    0.006094      0.0000         2  (blade-shell)

               lamina:  1     
              matName:  (blade-shell)
                     s           e11           e22           e12           s11           s22           s12   s11_fcT   s11_fcC   s22_fcT   s22_fcC   s12_fcS
                   (m)         (m/m)         (m/m)         (rad)          (Pa)          (Pa)          (Pa)       (-)       (-)       (-)       (-)       (-)
                0.0000   2.6179e-003  -5.9005e-004   1.0130e-003   4.9631e+007  -4.8769e+006   4.0015e+006    0.1473   -0.0000    0.0000    0.0145    0.0348
                0.0001   2.6183e-003  -5.9013e-004   1.0126e-003   4.9637e+007  -4.8776e+006   3.9997e+006    0.1473   -0.0000    0.0000    0.0145    0.0348
                0.0289   2.7034e-003  -6.0989e-004   9.1305e-004   5.1250e+007  -5.0474e+006   3.6065e+006    0.1521   -0.0000    0.0000    0.0150    0.0314
                0.0570   2.7762e-003  -6.2638e-004   8.1250e-004   5.2630e+007  -5.1847e+006   3.2094e+006    0.1562   -0.0000    0.0000    0.0154    0.0279
                0.0864   2.8300e-003  -6.3894e-004   7.0447e-004   5.3649e+007  -5.2933e+006   2.7827e+006    0.1592   -0.0000    0.0000    0.0157    0.0242
                0.1154   2.8879e-003  -6.5219e-004   5.9449e-004   5.4744e+007  -5.4054e+006   2.3483e+006    0.1624   -0.0000    0.0000    0.0160    0.0204
                0.1443   2.9157e-003  -6.5844e-004   4.8341e-004   5.5272e+007  -5.4567e+006   1.9095e+006    0.1640   -0.0000    0.0000    0.0162    0.0166
                0.1746   2.9384e-003  -6.6378e-004   3.6519e-004   5.5701e+007  -5.5033e+006   1.4425e+006    0.1653   -0.0000    0.0000    0.0163    0.0125
                0.2040   2.9528e-003  -6.6710e-004   2.4885e-004   5.5975e+007  -5.5316e+006   9.8294e+005    0.1661   -0.0000    0.0000    0.0164    0.0085
                0.2342   2.9464e-003  -6.6558e-004   1.2937e-004   5.5854e+007  -5.5182e+006   5.1101e+005    0.1657   -0.0000    0.0000    0.0164    0.0044
                0.2644   2.9391e-003  -6.6392e-004   9.5120e-006   5.5715e+007  -5.5043e+006   3.7572e+004    0.1653   -0.0000    0.0000    0.0163    0.0003
                0.2943   2.9119e-003  -6.5766e-004   1.0881e-004   5.5199e+007  -5.4511e+006   4.2982e+005    0.1638   -0.0000    0.0000    0.0162    0.0037
                0.3250   2.8781e-003  -6.4969e-004   2.2955e-004   5.4559e+007  -5.3813e+006   9.0671e+005    0.1619   -0.0000    0.0000    0.0160    0.0079
                0.3546   2.8396e-003  -6.4093e-004   3.4441e-004   5.3831e+007  -5.3078e+006   1.3604e+006    0.1597   -0.0000    0.0000    0.0158    0.0118
                0.3846   2.7766e-003  -6.2638e-004   4.5924e-004   5.2637e+007  -5.1837e+006   1.8140e+006    0.1562   -0.0000    0.0000    0.0154    0.0158
                0.3997   2.7494e-003  -6.1986e-004   5.1589e-004   5.2122e+007  -5.1254e+006   2.0377e+006    0.1547   -0.0000    0.0000    0.0152    0.0177

               lamina:  2     
              matName:  (blade-root)
                     s           e11           e22           e12           s11           s22           s12   s11_fcT   s11_fcC   s22_fcT   s22_fcC   s12_fcS
                   (m)         (m/m)         (m/m)         (rad)          (Pa)          (Pa)          (Pa)       (-)       (-)       (-)       (-)       (-)
                0.0000   2.4663e-003  -5.6347e-004   1.0130e-003   8.8260e+007   2.1406e+006   4.1737e+006    0.0878   -0.0000    0.0418   -0.0000    0.0373
                0.0001   2.4667e-003  -5.6355e-004   1.0126e-003   8.8273e+007   2.1409e+006   4.1718e+006    0.0878   -0.0000    0.0418   -0.0000    0.0372
                0.0289   2.5492e-003  -5.8286e-004   9.1305e-004   9.1225e+007   2.2087e+006   3.7618e+006    0.0908   -0.0000    0.0431   -0.0000    0.0336
                0.0570   2.6181e-003  -5.9868e-004   8.1250e-004   9.3692e+007   2.2680e+006   3.3475e+006    0.0932   -0.0000    0.0443   -0.0000    0.0299
                0.0864   2.6706e-003  -6.1099e-004   7.0447e-004   9.5568e+007   2.3106e+006   2.9024e+006    0.0951   -0.0000    0.0451   -0.0000    0.0259
                0.1154   2.7260e-003  -6.2382e-004   5.9449e-004   9.7550e+007   2.3572e+006   2.4493e+006    0.0971   -0.0000    0.0460   -0.0000    0.0219
                0.1443   2.7521e-003  -6.2976e-004   4.8341e-004   9.8484e+007   2.3800e+006   1.9916e+006    0.0980   -0.0000    0.0465   -0.0000    0.0178
                0.1746   2.7744e-003  -6.3503e-004   3.6519e-004   9.9281e+007   2.3979e+006   1.5046e+006    0.0988   -0.0000    0.0468   -0.0000    0.0134
                0.2040   2.7883e-003  -6.3826e-004   2.4885e-004   9.9778e+007   2.4095e+006   1.0252e+006    0.0993   -0.0000    0.0471   -0.0000    0.0092
                0.2342   2.7819e-003  -6.3675e-004   1.2937e-004   9.9551e+007   2.4045e+006   5.3300e+005    0.0991   -0.0000    0.0470   -0.0000    0.0048
                0.2644   2.7750e-003  -6.3515e-004   9.5120e-006   9.9303e+007   2.3986e+006   3.9189e+004    0.0988   -0.0000    0.0468   -0.0000    0.0003
                0.2943   2.7488e-003  -6.2908e-004   1.0881e-004   9.8366e+007   2.3767e+006   4.4832e+005    0.0979   -0.0000    0.0464   -0.0000    0.0040
                0.3250   2.7155e-003  -6.2120e-004   2.2955e-004   9.7176e+007   2.3501e+006   9.4573e+005    0.0967   -0.0000    0.0459   -0.0000    0.0084
                0.3546   2.6789e-003  -6.1276e-004   3.4441e-004   9.5866e+007   2.3190e+006   1.4190e+006    0.0954   -0.0000    0.0453   -0.0000    0.0127
                0.3846   2.6181e-003  -5.9860e-004   4.5924e-004   9.3692e+007   2.2686e+006   1.8921e+006    0.0932   -0.0000    0.0443   -0.0000    0.0169
                0.3997   2.5909e-003  -5.9209e-004   5.1589e-004   9.2719e+007   2.2475e+006   2.1254e+006    0.0923   -0.0000    0.0439   -0.0000    0.0190

               lamina:  3     
              matName:  (spar-uni)
                     s           e11           e22           e12           s11           s22           s12   s11_fcT   s11_fcC   s22_fcT   s22_fcC   s12_fcS
                   (m)         (m/m)         (m/m)         (rad)          (Pa)          (Pa)          (Pa)       (-)       (-)       (-)       (-)       (-)
                0.0000   2.0634e-003  -4.9285e-004   1.0130e-003   2.5417e+008   1.2114e+006   4.7714e+006    0.1284   -0.0000    0.0202   -0.0000    0.0463
                0.0001   2.0637e-003  -4.9293e-004   1.0126e-003   2.5421e+008   1.2116e+006   4.7693e+006    0.1285   -0.0000    0.0202   -0.0000    0.0463
                0.0289   2.1394e-003  -5.1103e-004   9.1305e-004   2.6353e+008   1.2558e+006   4.3005e+006    0.1332   -0.0000    0.0210   -0.0000    0.0418
                0.0570   2.1980e-003  -5.2505e-004   8.1250e-004   2.7076e+008   1.2902e+006   3.8269e+006    0.1368   -0.0000    0.0215   -0.0000    0.0372
                0.0864   2.2468e-003  -5.3672e-004   7.0447e-004   2.7677e+008   1.3187e+006   3.3181e+006    0.1399   -0.0000    0.0220   -0.0000    0.0322
                0.1154   2.2958e-003  -5.4843e-004   5.9449e-004   2.8280e+008   1.3474e+006   2.8001e+006    0.1429   -0.0000    0.0225   -0.0000    0.0272
                0.1443   2.3173e-003  -5.5356e-004   4.8341e-004   2.8545e+008   1.3600e+006   2.2768e+006    0.1442   -0.0000    0.0227   -0.0000    0.0221
                0.1746   2.3385e-003  -5.5865e-004   3.6519e-004   2.8806e+008   1.3724e+006   1.7200e+006    0.1456   -0.0000    0.0229   -0.0000    0.0167
                0.2040   2.3510e-003  -5.6162e-004   2.4885e-004   2.8960e+008   1.3797e+006   1.1721e+006    0.1463   -0.0000    0.0230   -0.0000    0.0114
                0.2342   2.3447e-003  -5.6014e-004   1.2937e-004   2.8883e+008   1.3760e+006   6.0933e+005    0.1459   -0.0000    0.0230   -0.0000    0.0059
                0.2644   2.3388e-003  -5.5871e-004   9.5120e-006   2.8809e+008   1.3725e+006   4.4801e+004    0.1456   -0.0000    0.0229   -0.0000    0.0004
                0.2943   2.3154e-003  -5.5312e-004   1.0881e-004   2.8522e+008   1.3589e+006   5.1252e+005    0.1441   -0.0000    0.0227   -0.0000    0.0050
                0.3250   2.2836e-003  -5.4550e-004   2.2955e-004   2.8130e+008   1.3403e+006   1.0812e+006    0.1421   -0.0000    0.0224   -0.0000    0.0105
                0.3546   2.2518e-003  -5.3791e-004   3.4441e-004   2.7738e+008   1.3217e+006   1.6222e+006    0.1402   -0.0000    0.0221   -0.0000    0.0157
                0.3846   2.1970e-003  -5.2479e-004   4.5924e-004   2.7063e+008   1.2897e+006   2.1630e+006    0.1367   -0.0000    0.0215   -0.0000    0.0210
                0.3997   2.1698e-003  -5.1828e-004   5.1589e-004   2.6728e+008   1.2738e+006   2.4298e+006    0.1351   -0.0000    0.0213   -0.0000    0.0236

               lamina:  4     
              matName:  (spar-core)
                     s           e11           e22           e12           s11           s22           s12   s11_fcT   s11_fcC   s22_fcT   s22_fcC   s12_fcS
                   (m)         (m/m)         (m/m)         (rad)          (Pa)          (Pa)          (Pa)       (-)       (-)       (-)       (-)       (-)
                0.0000   2.0412e-003  -4.8897e-004   1.0130e-003   4.4301e+005   4.3510e+004   9.9277e+004    0.1033   -0.0000    0.0101   -0.0000    0.0337
                0.0001   2.0415e-003  -4.8905e-004   1.0126e-003   4.4308e+005   4.3517e+004   9.9233e+004    0.1033   -0.0000    0.0101   -0.0000    0.0336
                0.0289   2.1168e-003  -5.0708e-004   9.1305e-004   4.5942e+005   4.5122e+004   8.9479e+004    0.1071   -0.0000    0.0105   -0.0000    0.0303
                0.0570   2.1749e-003  -5.2100e-004   8.1250e-004   4.7203e+005   4.6361e+004   7.9625e+004    0.1100   -0.0000    0.0108   -0.0000    0.0270
                0.0864   2.2235e-003  -5.3264e-004   7.0447e-004   4.8257e+005   4.7396e+004   6.9038e+004    0.1125   -0.0000    0.0110   -0.0000    0.0234
                0.1154   2.2721e-003  -5.4428e-004   5.9449e-004   4.9312e+005   4.8432e+004   5.8261e+004    0.1149   -0.0000    0.0113   -0.0000    0.0197
                0.1443   2.2934e-003  -5.4937e-004   4.8341e-004   4.9774e+005   4.8885e+004   4.7374e+004    0.1160   -0.0000    0.0114   -0.0000    0.0161
                0.1746   2.3145e-003  -5.5445e-004   3.6519e-004   5.0233e+005   4.9337e+004   3.5788e+004    0.1171   -0.0000    0.0115   -0.0000    0.0121
                0.2040   2.3269e-003  -5.5741e-004   2.4885e-004   5.0502e+005   4.9600e+004   2.4387e+004    0.1177   -0.0000    0.0116   -0.0000    0.0083
                0.2342   2.3207e-003  -5.5592e-004   1.2937e-004   5.0367e+005   4.9468e+004   1.2678e+004    0.1174   -0.0000    0.0115   -0.0000    0.0043
                0.2644   2.3148e-003  -5.5450e-004   9.5120e-006   5.0239e+005   4.9342e+004   9.3217e+002    0.1171   -0.0000    0.0115   -0.0000    0.0003
                0.2943   2.2916e-003  -5.4895e-004   1.0881e-004   4.9735e+005   4.8847e+004   1.0664e+004    0.1159   -0.0000    0.0114   -0.0000    0.0036
                0.3250   2.2598e-003  -5.4134e-004   2.2955e-004   4.9046e+005   4.8170e+004   2.2496e+004    0.1143   -0.0000    0.0112   -0.0000    0.0076
                0.3546   2.2283e-003  -5.3379e-004   3.4441e-004   4.8362e+005   4.7499e+004   3.3752e+004    0.1127   -0.0000    0.0111   -0.0000    0.0114
                0.3846   2.1738e-003  -5.2073e-004   4.5924e-004   4.7179e+005   4.6337e+004   4.5005e+004    0.1100   -0.0000    0.0108   -0.0000    0.0153
                0.3997   2.1466e-003  -5.1422e-004   5.1589e-004   4.6588e+005   4.5757e+004   5.0557e+004    0.1086   -0.0000    0.0107   -0.0000    0.0171

               lamina:  5     
              matName:  (spar-uni)
                     s           e11           e22           e12           s11           s22           s12   s11_fcT   s11_fcC   s22_fcT   s22_fcC   s12_fcS
                   (m)         (m/m)         (m/m)         (rad)          (Pa)          (Pa)          (Pa)       (-)       (-)       (-)       (-)       (-)
                0.0000   2.0410e-003  -4.8893e-004   1.0130e-003   2.5141e+008   1.1865e+006   4.7714e+006    0.1270   -0.0000    0.0198   -0.0000    0.0463
                0.0001   2.0413e-003  -4.8901e-004   1.0126e-003   2.5145e+008   1.1867e+006   4.7693e+006    0.1271   -0.0000    0.0198   -0.0000    0.0463
                0.0289   2.1166e-003  -5.0704e-004   9.1305e-004   2.6072e+008   1.2305e+006   4.3005e+006    0.1317   -0.0000    0.0205   -0.0000    0.0418
                0.0570   2.1747e-003  -5.2096e-004   8.1250e-004   2.6788e+008   1.2643e+006   3.8269e+006    0.1354   -0.0000    0.0211   -0.0000    0.0372
                0.0864   2.2232e-003  -5.3259e-004   7.0447e-004   2.7386e+008   1.2925e+006   3.3181e+006    0.1384   -0.0000    0.0216   -0.0000    0.0322
                0.1154   2.2719e-003  -5.4424e-004   5.9449e-004   2.7985e+008   1.3208e+006   2.8001e+006    0.1414   -0.0000    0.0220   -0.0000    0.0272
                0.1443   2.2931e-003  -5.4933e-004   4.8341e-004   2.8246e+008   1.3331e+006   2.2768e+006    0.1427   -0.0000    0.0223   -0.0000    0.0221
                0.1746   2.3143e-003  -5.5440e-004   3.6519e-004   2.8507e+008   1.3454e+006   1.7200e+006    0.1440   -0.0000    0.0225   -0.0000    0.0167
                0.2040   2.3266e-003  -5.5736e-004   2.4885e-004   2.8660e+008   1.3526e+006   1.1721e+006    0.1448   -0.0000    0.0226   -0.0000    0.0114
                0.2342   2.3204e-003  -5.5588e-004   1.2937e-004   2.8583e+008   1.3490e+006   6.0933e+005    0.1444   -0.0000    0.0225   -0.0000    0.0059
                0.2644   2.3145e-003  -5.5446e-004   9.5120e-006   2.8510e+008   1.3456e+006   4.4801e+004    0.1441   -0.0000    0.0225   -0.0000    0.0004
                0.2943   2.2913e-003  -5.4890e-004   1.0881e-004   2.8225e+008   1.3321e+006   5.1252e+005    0.1426   -0.0000    0.0222   -0.0000    0.0050
                0.3250   2.2596e-003  -5.4129e-004   2.2955e-004   2.7833e+008   1.3136e+006   1.0812e+006    0.1406   -0.0000    0.0219   -0.0000    0.0105
                0.3546   2.2281e-003  -5.3375e-004   3.4441e-004   2.7446e+008   1.2953e+006   1.6222e+006    0.1387   -0.0000    0.0216   -0.0000    0.0157
                0.3846   2.1736e-003  -5.2069e-004   4.5924e-004   2.6774e+008   1.2636e+006   2.1630e+006    0.1353   -0.0000    0.0211   -0.0000    0.0210
                0.3997   2.1463e-003  -5.1417e-004   5.1589e-004   2.6439e+008   1.2478e+006   2.4298e+006    0.1336   -0.0000    0.0208   -0.0000    0.0236

               lamina:  6     
              matName:  (blade-root)
                     s           e11           e22           e12           s11           s22           s12   s11_fcT   s11_fcC   s22_fcT   s22_fcC   s12_fcS
                   (m)         (m/m)         (m/m)         (rad)          (Pa)          (Pa)          (Pa)       (-)       (-)       (-)       (-)       (-)
                0.0000   2.0188e-003  -4.8504e-004   1.0130e-003   7.2178e+007   1.5486e+006   4.1737e+006    0.0718   -0.0000    0.0302   -0.0000    0.0373
                0.0001   2.0191e-003  -4.8512e-004   1.0126e-003   7.2191e+007   1.5489e+006   4.1718e+006    0.0718   -0.0000    0.0303   -0.0000    0.0372
                0.0289   2.0940e-003  -5.0309e-004   9.1305e-004   7.4868e+007   1.6066e+006   3.7618e+006    0.0745   -0.0000    0.0314   -0.0000    0.0336
                0.0570   2.1516e-003  -5.1691e-004   8.1250e-004   7.6926e+007   1.6508e+006   3.3475e+006    0.0765   -0.0000    0.0322   -0.0000    0.0299
                0.0864   2.1999e-003  -5.2851e-004   7.0447e-004   7.8655e+007   1.6881e+006   2.9024e+006    0.0783   -0.0000    0.0330   -0.0000    0.0259
                0.1154   2.2482e-003  -5.4009e-004   5.9449e-004   8.0380e+007   1.7252e+006   2.4493e+006    0.0800   -0.0000    0.0337   -0.0000    0.0219
                0.1443   2.2692e-003  -5.4514e-004   4.8341e-004   8.1131e+007   1.7413e+006   1.9916e+006    0.0807   -0.0000    0.0340   -0.0000    0.0178
                0.1746   2.2903e-003  -5.5020e-004   3.6519e-004   8.1886e+007   1.7576e+006   1.5046e+006    0.0815   -0.0000    0.0343   -0.0000    0.0134
                0.2040   2.3026e-003  -5.5315e-004   2.4885e-004   8.2325e+007   1.7670e+006   1.0252e+006    0.0819   -0.0000    0.0345   -0.0000    0.0092
                0.2342   2.2964e-003  -5.5166e-004   1.2937e-004   8.2103e+007   1.7622e+006   5.3300e+005    0.0817   -0.0000    0.0344   -0.0000    0.0048
                0.2644   2.2905e-003  -5.5025e-004   9.5120e-006   8.1894e+007   1.7577e+006   3.9189e+004    0.0815   -0.0000    0.0343   -0.0000    0.0003
                0.2943   2.2675e-003  -5.4472e-004   1.0881e-004   8.1070e+007   1.7400e+006   4.4832e+005    0.0807   -0.0000    0.0340   -0.0000    0.0040
                0.3250   2.2358e-003  -5.3713e-004   2.2955e-004   7.9937e+007   1.7156e+006   9.4573e+005    0.0795   -0.0000    0.0335   -0.0000    0.0084
                0.3546   2.2046e-003  -5.2963e-004   3.4441e-004   7.8821e+007   1.6916e+006   1.4190e+006    0.0784   -0.0000    0.0330   -0.0000    0.0127
                0.3846   2.1504e-003  -5.1663e-004   4.5924e-004   7.6883e+007   1.6498e+006   1.8921e+006    0.0765   -0.0000    0.0322   -0.0000    0.0169
                0.3997   2.1232e-003  -5.1011e-004   5.1589e-004   7.5910e+007   1.6288e+006   2.1254e+006    0.0755   -0.0000    0.0318   -0.0000    0.0190

               lamina:  7     
              matName:  (blade-shell)
                     s           e11           e22           e12           s11           s22           s12   s11_fcT   s11_fcC   s22_fcT   s22_fcC   s12_fcS
                   (m)         (m/m)         (m/m)         (rad)          (Pa)          (Pa)          (Pa)       (-)       (-)       (-)       (-)       (-)
                0.0000   1.6158e-003  -4.1442e-004   1.0130e-003   3.0505e+007  -3.9912e+006   4.0015e+006    0.0905   -0.0000    0.0000    0.0118    0.0348
                0.0001   1.6162e-003  -4.1450e-004   1.0126e-003   3.0512e+007  -3.9919e+006   3.9997e+006    0.0905   -0.0000    0.0000    0.0118    0.0348
                0.0289   1.6842e-003  -4.3126e-004   9.1305e-004   3.1798e+007  -4.1466e+006   3.6065e+006    0.0944   -0.0000    0.0000    0.0123    0.0314
                0.0570   1.7315e-003  -4.4329e-004   8.1250e-004   3.2690e+007  -4.2613e+006   3.2094e+006    0.0970   -0.0000    0.0000    0.0126    0.0279
                0.0864   1.7762e-003  -4.5424e-004   7.0447e-004   3.3535e+007  -4.3618e+006   2.7827e+006    0.0995   -0.0000    0.0000    0.0129    0.0242
                0.1154   1.8180e-003  -4.6470e-004   5.9449e-004   3.4326e+007  -4.4598e+006   2.3483e+006    0.1019   -0.0000    0.0000    0.0132    0.0204
                0.1443   1.8344e-003  -4.6894e-004   4.8341e-004   3.4635e+007  -4.5010e+006   1.9095e+006    0.1028   -0.0000    0.0000    0.0134    0.0166
                0.1746   1.8545e-003  -4.7382e-004   3.6519e-004   3.5015e+007  -4.5453e+006   1.4425e+006    0.1039   -0.0000    0.0000    0.0135    0.0125
                0.2040   1.8653e-003  -4.7651e-004   2.4885e-004   3.5220e+007  -4.5704e+006   9.8294e+005    0.1045   -0.0000    0.0000    0.0136    0.0085
                0.2342   1.8592e-003  -4.7505e-004   1.2937e-004   3.5105e+007  -4.5573e+006   5.1101e+005    0.1042   -0.0000    0.0000    0.0135    0.0044
                0.2644   1.8543e-003  -4.7381e-004   9.5120e-006   3.5012e+007  -4.5455e+006   3.7572e+004    0.1039   -0.0000    0.0000    0.0135    0.0003
                0.2943   1.8341e-003  -4.6877e-004   1.0881e-004   3.4630e+007  -4.4985e+006   4.2982e+005    0.1028   -0.0000    0.0000    0.0133    0.0037
                0.3250   1.8039e-003  -4.6143e-004   2.2955e-004   3.4058e+007  -4.4319e+006   9.0671e+005    0.1011   -0.0000    0.0000    0.0132    0.0079
                0.3546   1.7775e-003  -4.5479e-004   3.4441e-004   3.3560e+007  -4.3691e+006   1.3604e+006    0.0996   -0.0000    0.0000    0.0130    0.0118
                0.3846   1.7292e-003  -4.4282e-004   4.5924e-004   3.2648e+007  -4.2579e+006   1.8140e+006    0.0969   -0.0000    0.0000    0.0126    0.0158
                0.3997   1.7020e-003  -4.3630e-004   5.1589e-004   3.2133e+007  -4.1997e+006   2.0377e+006    0.0953   -0.0000    0.0000    0.0125    0.0177

            panel:  3     
           lam_num    nPlies        tPly      fibAng     matID  matName
               (-)       (-)         (m)       (deg)       (-)  (-)
                 1         1    0.006094      0.0000         2  (blade-shell)
                 2         1    0.016193      0.0000         1  (blade-root)
                 3         1    0.000891      0.0000         6  (TEP-core)
                 4         1    0.016193      0.0000         1  (blade-root)
                 5         1    0.006094      0.0000         2  (blade-shell)

               lamina:  1     
              matName:  (blade-shell)
                     s           e11           e22           e12           s11           s22           s12   s11_fcT   s11_fcC   s22_fcT   s22_fcC   s12_fcS
                   (m)         (m/m)         (m/m)         (rad)          (Pa)          (Pa)          (Pa)       (-)       (-)       (-)       (-)       (-)
                0.0000   2.6731e-003  -6.0180e-004   3.8721e-004   5.0678e+007  -4.9663e+006   1.5295e+006    0.1504   -0.0000    0.0000    0.0147    0.0133
                0.0149   2.6412e-003  -5.9453e-004   4.3739e-004   5.0073e+007  -4.9055e+006   1.7277e+006    0.1486   -0.0000    0.0000    0.0146    0.0150
                0.0442   2.5701e-003  -5.7820e-004   5.3435e-004   4.8726e+007  -4.7671e+006   2.1107e+006    0.1446   -0.0000    0.0000    0.0141    0.0184
                0.0738   2.4882e-003  -5.5916e-004   6.2949e-004   4.7175e+007  -4.6032e+006   2.4865e+006    0.1400   -0.0000    0.0000    0.0137    0.0216
                0.1020   2.4060e-003  -5.4031e-004   7.1734e-004   4.5618e+007  -4.4436e+006   2.8335e+006    0.1354   -0.0000    0.0000    0.0132    0.0246
                0.1302   2.3031e-003  -5.1680e-004   8.0192e-004   4.3668e+007  -4.2456e+006   3.1676e+006    0.1296   -0.0000    0.0000    0.0126    0.0275
                0.1583   2.2051e-003  -4.9389e-004   8.8261e-004   4.1811e+007  -4.0472e+006   3.4863e+006    0.1241   -0.0000    0.0000    0.0120    0.0303
                0.1844   2.0976e-003  -4.6958e-004   9.5397e-004   3.9775e+007  -3.8452e+006   3.7682e+006    0.1180   -0.0000    0.0000    0.0114    0.0328
                0.2112   1.9725e-003  -4.4094e-004   1.0237e-003   3.7404e+007  -3.6037e+006   4.0437e+006    0.1110   -0.0000    0.0000    0.0107    0.0352
                0.2365   1.8569e-003  -4.1437e-004   1.0856e-003   3.5213e+007  -3.3782e+006   4.2882e+006    0.1045   -0.0000    0.0000    0.0100    0.0373
                0.2609   1.7206e-003  -3.8373e-004   1.1416e-003   3.2629e+007  -3.1259e+006   4.5095e+006    0.0968   -0.0000    0.0000    0.0093    0.0392
                0.2859   1.5880e-003  -3.5306e-004   1.1946e-003   3.0117e+007  -2.8636e+006   4.7186e+006    0.0894   -0.0000    0.0000    0.0085    0.0410
                0.3072   1.4514e-003  -3.2283e-004   1.2364e-003   2.7526e+007  -2.6199e+006   4.8836e+006    0.0817   -0.0000    0.0000    0.0078    0.0425
                0.3309   1.2838e-003  -2.8538e-004   1.2787e-003   2.4348e+007  -2.3140e+006   5.0507e+006    0.0722   -0.0000    0.0000    0.0069    0.0439
                0.3529   1.1421e-003  -2.5295e-004   1.3138e-003   2.1662e+007  -2.0405e+006   5.1894e+006    0.0643   -0.0000    0.0000    0.0061    0.0451
                0.3725   9.7608e-004  -2.1685e-004   1.3416e-003   1.8512e+007  -1.7568e+006   5.2992e+006    0.0549   -0.0000    0.0000    0.0052    0.0461
                0.3958   7.9797e-004  -1.7662e-004   1.3701e-003   1.5136e+007  -1.4234e+006   5.4119e+006    0.0449   -0.0000    0.0000    0.0042    0.0471
                0.4127   6.3487e-004  -1.4161e-004   1.3875e-003   1.2040e+007  -1.1538e+006   5.4806e+006    0.0357   -0.0000    0.0000    0.0034    0.0477
                0.4397   4.0546e-004  -9.0367e-005   1.4096e-003   7.6892e+006  -7.3545e+005   5.5680e+006    0.0228   -0.0000    0.0000    0.0022    0.0484
                0.4634   2.3479e-004  -5.0682e-005   1.4229e-003   4.4568e+006  -3.9371e+005   5.6204e+006    0.0132   -0.0000    0.0000    0.0012    0.0489
                0.4715   1.8108e-004  -3.7923e-005   1.4261e-003   3.4403e+006  -2.8088e+005   5.6331e+006    0.0102   -0.0000    0.0000    0.0008    0.0490

               lamina:  2     
              matName:  (blade-root)
                     s           e11           e22           e12           s11           s22           s12   s11_fcT   s11_fcC   s22_fcT   s22_fcC   s12_fcS
                   (m)         (m/m)         (m/m)         (rad)          (Pa)          (Pa)          (Pa)       (-)       (-)       (-)       (-)       (-)
                0.0000   2.5327e-003  -5.7736e-004   3.8721e-004   9.0641e+007   2.2092e+006   1.5953e+006    0.0902   -0.0000    0.0431   -0.0000    0.0142
                0.0149   2.5021e-003  -5.7033e-004   4.3739e-004   8.9547e+007   2.1830e+006   1.8020e+006    0.0891   -0.0000    0.0426   -0.0000    0.0161
                0.0442   2.4334e-003  -5.5442e-004   5.3435e-004   8.7088e+007   2.1253e+006   2.2015e+006    0.0867   -0.0000    0.0415   -0.0000    0.0197
                0.0738   2.3533e-003  -5.3568e-004   6.2949e-004   8.4221e+007   2.0593e+006   2.5935e+006    0.0838   -0.0000    0.0402   -0.0000    0.0232
                0.1020   2.2740e-003  -5.1732e-004   7.1734e-004   8.1383e+007   1.9925e+006   2.9554e+006    0.0810   -0.0000    0.0389   -0.0000    0.0264
                0.1302   2.1750e-003  -4.9449e-004   8.0192e-004   7.7841e+007   1.9085e+006   3.3039e+006    0.0775   -0.0000    0.0373   -0.0000    0.0295
                0.1583   2.0786e-003  -4.7187e-004   8.8261e-004   7.4392e+007   1.8298e+006   3.6364e+006    0.0740   -0.0000    0.0357   -0.0000    0.0325
                0.1844   1.9763e-003  -4.4846e-004   9.5397e-004   7.0732e+007   1.7414e+006   3.9304e+006    0.0704   -0.0000    0.0340   -0.0000    0.0351
                0.2112   1.8557e-003  -4.2062e-004   1.0237e-003   6.6419e+007   1.6393e+006   4.2178e+006    0.0661   -0.0000    0.0320   -0.0000    0.0377
                0.2365   1.7439e-003  -3.9471e-004   1.0856e-003   6.2419e+007   1.5454e+006   4.4728e+006    0.0621   -0.0000    0.0302   -0.0000    0.0399
                0.2609   1.6149e-003  -3.6534e-004   1.1416e-003   5.7803e+007   1.4326e+006   4.7036e+006    0.0575   -0.0000    0.0280   -0.0000    0.0420
                0.2859   1.4859e-003  -3.3529e-004   1.1946e-003   5.3185e+007   1.3254e+006   4.9216e+006    0.0529   -0.0000    0.0259   -0.0000    0.0439
                0.3072   1.3586e-003  -3.0668e-004   1.2364e-003   4.8631e+007   1.2110e+006   5.0938e+006    0.0484   -0.0000    0.0237   -0.0000    0.0455
                0.3309   1.2010e-003  -2.7097e-004   1.2787e-003   4.2989e+007   1.0716e+006   5.2680e+006    0.0428   -0.0000    0.0209   -0.0000    0.0470
                0.3529   1.0645e-003  -2.3945e-004   1.3138e-003   3.8106e+007   9.5604e+005   5.4128e+006    0.0379   -0.0000    0.0187   -0.0000    0.0483
                0.3725   9.1259e-004  -2.0580e-004   1.3416e-003   3.2666e+007   8.1516e+005   5.5273e+006    0.0325   -0.0000    0.0159   -0.0000    0.0494
                0.3958   7.4329e-004  -1.6710e-004   1.3701e-003   2.6608e+007   6.6834e+005   5.6448e+006    0.0265   -0.0000    0.0131   -0.0000    0.0504
                0.4127   5.9596e-004  -1.3484e-004   1.3875e-003   2.1331e+007   5.2855e+005   5.7165e+006    0.0212   -0.0000    0.0103   -0.0000    0.0510
                0.4397   3.8031e-004  -8.5991e-005   1.4096e-003   1.3613e+007   3.3777e+005   5.8076e+006    0.0135   -0.0000    0.0066   -0.0000    0.0519
                0.4634   2.1328e-004  -4.6938e-005   1.4229e-003   7.6375e+006   2.0041e+005   5.8623e+006    0.0076   -0.0000    0.0039   -0.0000    0.0523
                0.4715   1.5957e-004  -3.4179e-005   1.4261e-003   5.7170e+006   1.5797e+005   5.8756e+006    0.0057   -0.0000    0.0031   -0.0000    0.0525

               lamina:  3     
              matName:  (TEP-core)
                     s           e11           e22           e12           s11           s22           s12   s11_fcT   s11_fcC   s22_fcT   s22_fcC   s12_fcS
                   (m)         (m/m)         (m/m)         (rad)          (Pa)          (Pa)          (Pa)       (-)       (-)       (-)       (-)       (-)
                0.0000   2.1596e-003  -5.1243e-004   3.8721e-004   4.6910e+005   4.7191e+004   3.7947e+004    0.1093   -0.0000    0.0110   -0.0000    0.0129
                0.0149   2.1327e-003  -5.0604e-004   4.3739e-004   4.6324e+005   4.6603e+004   4.2864e+004    0.1080   -0.0000    0.0109   -0.0000    0.0145
                0.0442   2.0703e-003  -4.9122e-004   5.3435e-004   4.4969e+005   4.5241e+004   5.2367e+004    0.1048   -0.0000    0.0105   -0.0000    0.0178
                0.0738   1.9948e-003  -4.7329e-004   6.2949e-004   4.3329e+005   4.3595e+004   6.1690e+004    0.1010   -0.0000    0.0102   -0.0000    0.0209
                0.1020   1.9229e-003  -4.5624e-004   7.1734e-004   4.1769e+005   4.2027e+004   7.0299e+004    0.0974   -0.0000    0.0098   -0.0000    0.0238
                0.1302   1.8344e-003  -4.3521e-004   8.0192e-004   3.9845e+005   4.0094e+004   7.8588e+004    0.0929   -0.0000    0.0093   -0.0000    0.0266
                0.1583   1.7423e-003  -4.1336e-004   8.8261e-004   3.7846e+005   3.8087e+004   8.6496e+004    0.0882   -0.0000    0.0089   -0.0000    0.0293
                0.1844   1.6537e-003  -3.9232e-004   9.5397e-004   3.5921e+005   3.6151e+004   9.3489e+004    0.0837   -0.0000    0.0084   -0.0000    0.0317
                0.2112   1.5454e-003  -3.6662e-004   1.0237e-003   3.3569e+005   3.3787e+004   1.0033e+005    0.0782   -0.0000    0.0079   -0.0000    0.0340
                0.2365   1.4436e-003  -3.4245e-004   1.0856e-003   3.1358e+005   3.1566e+004   1.0639e+005    0.0731   -0.0000    0.0074   -0.0000    0.0361
                0.2609   1.3342e-003  -3.1648e-004   1.1416e-003   2.8980e+005   2.9174e+004   1.1188e+005    0.0676   -0.0000    0.0068   -0.0000    0.0379
                0.2859   1.2145e-003  -2.8806e-004   1.1946e-003   2.6381e+005   2.6564e+004   1.1707e+005    0.0615   -0.0000    0.0062   -0.0000    0.0397
                0.3072   1.1121e-003  -2.6377e-004   1.2364e-003   2.4156e+005   2.4323e+004   1.2116e+005    0.0563   -0.0000    0.0057   -0.0000    0.0411
                0.3309   9.8102e-004  -2.3268e-004   1.2787e-003   2.1309e+005   2.1458e+004   1.2531e+005    0.0497   -0.0000    0.0050   -0.0000    0.0425
                0.3529   8.5845e-004  -2.0359e-004   1.3138e-003   1.8647e+005   1.8782e+004   1.2875e+005    0.0435   -0.0000    0.0044   -0.0000    0.0436
                0.3725   7.4388e-004  -1.7643e-004   1.3416e-003   1.6158e+005   1.6271e+004   1.3147e+005    0.0377   -0.0000    0.0038   -0.0000    0.0446
                0.3958   5.9800e-004  -1.4182e-004   1.3701e-003   1.2990e+005   1.3084e+004   1.3427e+005    0.0303   -0.0000    0.0030   -0.0000    0.0455
                0.4127   4.9258e-004  -1.1684e-004   1.3875e-003   1.0700e+005   1.0771e+004   1.3597e+005    0.0249   -0.0000    0.0025   -0.0000    0.0461
                0.4397   3.1348e-004  -7.4360e-005   1.4096e-003   6.8094e+004   6.8553e+003   1.3814e+005    0.0159   -0.0000    0.0016   -0.0000    0.0468
                0.4634   1.5612e-004  -3.6991e-005   1.4229e-003   3.3915e+004   3.4239e+003   1.3944e+005    0.0079   -0.0000    0.0008   -0.0000    0.0473
                0.4715   1.0241e-004  -2.4231e-005   1.4261e-003   2.2251e+004   2.2541e+003   1.3976e+005    0.0052   -0.0000    0.0005   -0.0000    0.0474

               lamina:  4     
              matName:  (blade-root)
                     s           e11           e22           e12           s11           s22           s12   s11_fcT   s11_fcC   s22_fcT   s22_fcC   s12_fcS
                   (m)         (m/m)         (m/m)         (rad)          (Pa)          (Pa)          (Pa)       (-)       (-)       (-)       (-)       (-)
                0.0000   2.1391e-003  -5.0886e-004   3.8721e-004   7.6495e+007   1.6845e+006   1.5953e+006    0.0761   -0.0000    0.0329   -0.0000    0.0142
                0.0149   2.1124e-003  -5.0250e-004   4.3739e-004   7.5538e+007   1.6634e+006   1.8020e+006    0.0752   -0.0000    0.0325   -0.0000    0.0161
                0.0442   2.0503e-003  -4.8774e-004   5.3435e-004   7.3318e+007   1.6144e+006   2.2015e+006    0.0730   -0.0000    0.0315   -0.0000    0.0197
                0.0738   1.9751e-003  -4.6986e-004   6.2949e-004   7.0628e+007   1.5551e+006   2.5935e+006    0.0703   -0.0000    0.0304   -0.0000    0.0232
                0.1020   1.9036e-003  -4.5288e-004   7.1734e-004   6.8074e+007   1.4987e+006   2.9554e+006    0.0677   -0.0000    0.0293   -0.0000    0.0264
                0.1302   1.8156e-003  -4.3195e-004   8.0192e-004   6.4927e+007   1.4294e+006   3.3039e+006    0.0646   -0.0000    0.0279   -0.0000    0.0295
                0.1583   1.7238e-003  -4.1014e-004   8.8261e-004   6.1644e+007   1.3569e+006   3.6364e+006    0.0613   -0.0000    0.0265   -0.0000    0.0325
                0.1844   1.6360e-003  -3.8923e-004   9.5397e-004   5.8502e+007   1.2877e+006   3.9304e+006    0.0582   -0.0000    0.0252   -0.0000    0.0351
                0.2112   1.5283e-003  -3.6364e-004   1.0237e-003   5.4653e+007   1.2028e+006   4.2178e+006    0.0544   -0.0000    0.0235   -0.0000    0.0377
                0.2365   1.4271e-003  -3.3957e-004   1.0856e-003   5.1033e+007   1.1230e+006   4.4728e+006    0.0508   -0.0000    0.0219   -0.0000    0.0399
                0.2609   1.3187e-003  -3.1379e-004   1.1416e-003   4.7157e+007   1.0377e+006   4.7036e+006    0.0469   -0.0000    0.0203   -0.0000    0.0420
                0.2859   1.1996e-003  -2.8547e-004   1.1946e-003   4.2896e+007   9.4367e+005   4.9216e+006    0.0427   -0.0000    0.0184   -0.0000    0.0439
                0.3072   1.0985e-003  -2.6141e-004   1.2364e-003   3.9282e+007   8.6420e+005   5.0938e+006    0.0391   -0.0000    0.0169   -0.0000    0.0455
                0.3309   9.6892e-004  -2.3058e-004   1.2787e-003   3.4648e+007   7.6221e+005   5.2680e+006    0.0345   -0.0000    0.0149   -0.0000    0.0470
                0.3529   8.4711e-004  -2.0162e-004   1.3138e-003   3.0292e+007   6.6619e+005   5.4128e+006    0.0301   -0.0000    0.0130   -0.0000    0.0483
                0.3725   7.3460e-004  -1.7482e-004   1.3416e-003   2.6269e+007   5.7785e+005   5.5273e+006    0.0261   -0.0000    0.0113   -0.0000    0.0494
                0.3958   5.9001e-004  -1.4043e-004   1.3701e-003   2.1098e+007   4.6397e+005   5.6448e+006    0.0210   -0.0000    0.0091   -0.0000    0.0504
                0.4127   4.8689e-004  -1.1585e-004   1.3875e-003   1.7411e+007   3.8313e+005   5.7165e+006    0.0173   -0.0000    0.0075   -0.0000    0.0510
                0.4397   3.0981e-004  -7.3720e-005   1.4096e-003   1.1079e+007   2.4377e+005   5.8076e+006    0.0110   -0.0000    0.0048   -0.0000    0.0519
                0.4634   1.5297e-004  -3.6443e-005   1.4229e-003   5.4702e+006   1.2000e+005   5.8623e+006    0.0054   -0.0000    0.0023   -0.0000    0.0523
                0.4715   9.9269e-005  -2.3684e-005   1.4261e-003   3.5497e+006   7.7575e+004   5.8756e+006    0.0035   -0.0000    0.0015   -0.0000    0.0525

               lamina:  5     
              matName:  (blade-shell)
                     s           e11           e22           e12           s11           s22           s12   s11_fcT   s11_fcC   s22_fcT   s22_fcC   s12_fcS
                   (m)         (m/m)         (m/m)         (rad)          (Pa)          (Pa)          (Pa)       (-)       (-)       (-)       (-)       (-)
                0.0000   1.7660e-003  -4.4393e-004   3.8721e-004   3.3364e+007  -4.1862e+006   1.5295e+006    0.0990   -0.0000    0.0000    0.0124    0.0133
                0.0149   1.7429e-003  -4.3820e-004   4.3739e-004   3.2927e+007  -4.1330e+006   1.7277e+006    0.0977   -0.0000    0.0000    0.0123    0.0150
                0.0442   1.6871e-003  -4.2454e-004   5.3435e-004   3.1872e+007  -4.0078e+006   2.1107e+006    0.0946   -0.0000    0.0000    0.0119    0.0184
                0.0738   1.6166e-003  -4.0747e-004   6.2949e-004   3.0537e+007  -3.8536e+006   2.4865e+006    0.0906   -0.0000    0.0000    0.0114    0.0216
                0.1020   1.5526e-003  -3.9179e-004   7.1734e-004   2.9328e+007  -3.7097e+006   2.8335e+006    0.0870   -0.0000    0.0000    0.0110    0.0246
                0.1302   1.4751e-003  -3.7268e-004   8.0192e-004   2.7862e+007  -3.5334e+006   3.1676e+006    0.0827   -0.0000    0.0000    0.0105    0.0275
                0.1583   1.3876e-003  -3.5162e-004   8.8261e-004   2.6208e+007  -3.3442e+006   3.4863e+006    0.0778   -0.0000    0.0000    0.0099    0.0303
                0.1844   1.3134e-003  -3.3310e-004   9.5397e-004   2.4805e+007  -3.1708e+006   3.7682e+006    0.0736   -0.0000    0.0000    0.0094    0.0328
                0.2112   1.2180e-003  -3.0964e-004   1.0237e-003   2.3002e+007  -2.9548e+006   4.0437e+006    0.0683   -0.0000    0.0000    0.0088    0.0352
                0.2365   1.1268e-003  -2.8732e-004   1.0856e-003   2.1277e+007  -2.7504e+006   4.2882e+006    0.0631   -0.0000    0.0000    0.0082    0.0373
                0.2609   1.0380e-003  -2.6493e-004   1.1416e-003   1.9599e+007  -2.5388e+006   4.5095e+006    0.0582   -0.0000    0.0000    0.0075    0.0392
                0.2859   9.2820e-004  -2.3824e-004   1.1946e-003   1.7523e+007  -2.2962e+006   4.7186e+006    0.0520   -0.0000    0.0000    0.0068    0.0410
                0.3072   8.5196e-004  -2.1850e-004   1.2364e-003   1.6084e+007  -2.1044e+006   4.8836e+006    0.0477   -0.0000    0.0000    0.0062    0.0425
                0.3309   7.4893e-004  -1.9229e-004   1.2787e-003   1.4138e+007  -1.8540e+006   5.0507e+006    0.0420   -0.0000    0.0000    0.0055    0.0439
                0.3529   6.4105e-004  -1.6575e-004   1.3138e-003   1.2099e+007  -1.6096e+006   5.1894e+006    0.0359   -0.0000    0.0000    0.0048    0.0451
                0.3725   5.6588e-004  -1.4546e-004   1.3416e-003   1.0682e+007  -1.4041e+006   5.2992e+006    0.0317   -0.0000    0.0000    0.0042    0.0461
                0.3958   4.4471e-004  -1.1514e-004   1.3701e-003   8.3929e+006  -1.1196e+006   5.4119e+006    0.0249   -0.0000    0.0000    0.0033    0.0471
                0.4127   3.8350e-004  -9.7862e-005   1.3875e-003   7.2413e+006  -9.3758e+005   5.4806e+006    0.0215   -0.0000    0.0000    0.0028    0.0477
                0.4397   2.4298e-004  -6.2090e-005   1.4096e-003   4.5877e+006  -5.9572e+005   5.5680e+006    0.0136   -0.0000    0.0000    0.0018    0.0484
                0.4634   9.5815e-005  -2.6496e-005   1.4229e-003   1.8040e+006  -2.7420e+005   5.6204e+006    0.0054   -0.0000    0.0000    0.0008    0.0489
                0.4715   4.2110e-005  -1.3736e-005   1.4261e-003   7.8753e+005  -1.6136e+005   5.6331e+006    0.0023   -0.0000    0.0000    0.0005    0.0490

     Web:  panel  nNode   nLam     xc_St    xc_End         b         t         E_eff         G_eff      nu_eff     density  buckleCrit
            (-)    (-)    (-)       (-)       (-)       (m)       (m)          (Pa)          (Pa)         (-)    (kg/m^3)         (-)
              1     10      3    0.2590    0.2590    0.5807    0.0121   6.5707e+009   1.3870e+009      0.1347    691.8998      0.0827
              2     10      3    0.6690    0.6690    0.5890    0.0121   6.5707e+009   1.3870e+009      0.1347    691.8998      0.0873

            panel:  1     
           lam_num    nPlies        tPly      fibAng     matID  matName
               (-)       (-)         (m)       (deg)       (-)  (-)
                 1         1    0.002023      0.0000         7  (web-shell)
                 2         1    0.008047      0.0000         8  (web-core)
                 3         1    0.002023      0.0000         7  (web-shell)

               lamina:  1     
              matName:  (web-shell)
                     s           e11           e22           e12           s11           s22           s12   s11_fcT   s11_fcC   s22_fcT   s22_fcC   s12_fcS
                   (m)         (m/m)         (m/m)         (rad)          (Pa)          (Pa)          (Pa)       (-)       (-)       (-)       (-)       (-)
                0.0000  -1.9836e-003   2.6717e-004   1.6188e-003  -3.8062e+007   1.8163e+005   6.3941e+006    0.0000    0.0766    0.0005   -0.0000    0.0556
                0.0645  -1.5510e-003   2.0891e-004   1.7314e-003  -2.9761e+007   1.4203e+005   6.8391e+006    0.0000    0.0599    0.0004   -0.0000    0.0595
                0.1290  -1.1185e-003   1.5064e-004   1.8174e-003  -2.1461e+007   1.0244e+005   7.1787e+006    0.0000    0.0432    0.0003   -0.0000    0.0624
                0.1936  -6.8587e-004   9.2381e-005   1.8767e-003  -1.3161e+007   6.2852e+004   7.4129e+006    0.0000    0.0265    0.0002   -0.0000    0.0645
                0.2581  -2.5329e-004   3.4118e-005   1.9093e-003  -4.8601e+006   2.3261e+004   7.5418e+006    0.0000    0.0098    0.0001   -0.0000    0.0656
                0.3226   1.7985e-004  -2.4217e-005   1.9152e-003   3.4510e+006  -1.6342e+004   7.5652e+006    0.0102   -0.0000    0.0000    0.0000    0.0658
                0.3871   6.1243e-004  -8.2480e-005   1.8945e-003   1.1751e+007  -5.5933e+004   7.4833e+006    0.0349   -0.0000    0.0000    0.0002    0.0651
                0.4516   1.0450e-003  -1.4074e-004   1.8471e-003   2.0052e+007  -9.5524e+004   7.2961e+006    0.0595   -0.0000    0.0000    0.0003    0.0634
                0.5161   1.4776e-003  -1.9901e-004   1.7730e-003   2.8352e+007  -1.3512e+005   7.0035e+006    0.0841   -0.0000    0.0000    0.0004    0.0609
                0.5807   1.9102e-003  -2.5727e-004   1.6723e-003   3.6653e+007  -1.7471e+005   6.6055e+006    0.1088   -0.0000    0.0000    0.0005    0.0574

               lamina:  2     
              matName:  (web-core)
                     s           e11           e22           e12           s11           s22           s12   s11_fcT   s11_fcC   s22_fcT   s22_fcC   s12_fcS
                   (m)         (m/m)         (m/m)         (rad)          (Pa)          (Pa)          (Pa)       (-)       (-)       (-)       (-)       (-)
                0.0000  -1.9858e-003   2.6746e-004   1.6188e-003  -4.4718e+005  -9.1405e+004   1.5864e+005    0.0000    0.1042    0.0000    0.0213    0.0538
                0.0645  -1.5532e-003   2.0919e-004   1.7314e-003  -3.4977e+005  -7.1494e+004   1.6968e+005    0.0000    0.0815    0.0000    0.0167    0.0575
                0.1290  -1.1206e-003   1.5093e-004   1.8174e-003  -2.5236e+005  -5.1583e+004   1.7810e+005    0.0000    0.0588    0.0000    0.0120    0.0604
                0.1936  -6.8807e-004   9.2669e-005   1.8767e-003  -1.5495e+005  -3.1672e+004   1.8391e+005    0.0000    0.0361    0.0000    0.0074    0.0623
                0.2581  -2.5548e-004   3.4406e-005   1.9093e-003  -5.7533e+004  -1.1760e+004   1.8711e+005    0.0000    0.0134    0.0000    0.0027    0.0634
                0.3226   1.7930e-004  -2.4145e-005   1.9152e-003   4.0376e+004   8.2536e+003   1.8769e+005    0.0094   -0.0000    0.0019   -0.0000    0.0636
                0.3871   6.1188e-004  -8.2408e-005   1.8945e-003   1.3779e+005   2.8165e+004   1.8566e+005    0.0321   -0.0000    0.0066   -0.0000    0.0629
                0.4516   1.0445e-003  -1.4067e-004   1.8471e-003   2.3520e+005   4.8076e+004   1.8102e+005    0.0548   -0.0000    0.0112   -0.0000    0.0614
                0.5161   1.4770e-003  -1.9893e-004   1.7730e-003   3.3261e+005   6.7987e+004   1.7376e+005    0.0775   -0.0000    0.0158   -0.0000    0.0589
                0.5807   1.9096e-003  -2.5720e-004   1.6723e-003   4.3003e+005   8.7898e+004   1.6388e+005    0.1002   -0.0000    0.0205   -0.0000    0.0556

               lamina:  3     
              matName:  (web-shell)
                     s           e11           e22           e12           s11           s22           s12   s11_fcT   s11_fcC   s22_fcT   s22_fcC   s12_fcS
                   (m)         (m/m)         (m/m)         (rad)          (Pa)          (Pa)          (Pa)       (-)       (-)       (-)       (-)       (-)
                0.0000  -1.9864e-003   2.6753e-004   1.6188e-003  -3.8115e+007   1.8168e+005   6.3941e+006    0.0000    0.0767    0.0005   -0.0000    0.0556
                0.0645  -1.5538e-003   2.0927e-004   1.7314e-003  -2.9814e+007   1.4209e+005   6.8391e+006    0.0000    0.0600    0.0004   -0.0000    0.0595
                0.1290  -1.1212e-003   1.5100e-004   1.8174e-003  -2.1514e+007   1.0250e+005   7.1787e+006    0.0000    0.0433    0.0003   -0.0000    0.0624
                0.1936  -6.8862e-004   9.2741e-005   1.8767e-003  -1.3213e+007   6.2906e+004   7.4129e+006    0.0000    0.0266    0.0002   -0.0000    0.0645
                0.2581  -2.5604e-004   3.4478e-005   1.9093e-003  -4.9129e+006   2.3315e+004   7.5418e+006    0.0000    0.0099    0.0001   -0.0000    0.0656
                0.3226   1.7710e-004  -2.3857e-005   1.9152e-003   3.3982e+006  -1.6288e+004   7.5652e+006    0.0101   -0.0000    0.0000    0.0000    0.0658
                0.3871   6.0968e-004  -8.2120e-005   1.8945e-003   1.1699e+007  -5.5879e+004   7.4833e+006    0.0347   -0.0000    0.0000    0.0002    0.0651
                0.4516   1.0423e-003  -1.4038e-004   1.8471e-003   1.9999e+007  -9.5471e+004   7.2961e+006    0.0593   -0.0000    0.0000    0.0003    0.0634
                0.5161   1.4748e-003  -1.9865e-004   1.7730e-003   2.8299e+007  -1.3506e+005   7.0035e+006    0.0840   -0.0000    0.0000    0.0004    0.0609
                0.5807   1.9074e-003  -2.5691e-004   1.6723e-003   3.6600e+007  -1.7465e+005   6.6055e+006    0.1086   -0.0000    0.0000    0.0005    0.0574

            panel:  2     
           lam_num    nPlies        tPly      fibAng     matID  matName
               (-)       (-)         (m)       (deg)       (-)  (-)
                 1         1    0.002023      0.0000         7  (web-shell)
                 2         1    0.008047      0.0000         8  (web-core)
                 3         1    0.002023      0.0000         7  (web-shell)

               lamina:  1     
              matName:  (web-shell)
                     s           e11           e22           e12           s11           s22           s12   s11_fcT   s11_fcC   s22_fcT   s22_fcC   s12_fcS
                   (m)         (m/m)         (m/m)         (rad)          (Pa)          (Pa)          (Pa)       (-)       (-)       (-)       (-)       (-)
                0.0000  -1.9518e-003   2.6288e-004   1.6861e-003  -3.7450e+007   1.7870e+005   6.6599e+006    0.0000    0.0754    0.0005   -0.0000    0.0579
                0.0654  -1.5129e-003   2.0377e-004   1.7917e-003  -2.9030e+007   1.3854e+005   7.0774e+006    0.0000    0.0584    0.0004   -0.0000    0.0615
                0.1309  -1.0741e-003   1.4467e-004   1.8700e-003  -2.0610e+007   9.8378e+004   7.3864e+006    0.0000    0.0415    0.0003   -0.0000    0.0642
                0.1963  -6.3525e-004   8.5563e-005   1.9208e-003  -1.2189e+007   5.8214e+004   7.5870e+006    0.0000    0.0245    0.0002   -0.0000    0.0660
                0.2618  -1.9641e-004   2.6458e-005   1.9441e-003  -3.7688e+006   1.8050e+004   7.6792e+006    0.0000    0.0076    0.0001   -0.0000    0.0668
                0.3272   2.4294e-004  -3.2714e-005   1.9400e-003   4.6615e+006  -2.2123e+004   7.6629e+006    0.0138   -0.0000    0.0000    0.0001    0.0666
                0.3927   6.8177e-004  -9.1819e-005   1.9084e-003   1.3082e+007  -6.2287e+004   7.5381e+006    0.0388   -0.0000    0.0000    0.0002    0.0655
                0.4581   1.1206e-003  -1.5092e-004   1.8494e-003   2.1502e+007  -1.0245e+005   7.3049e+006    0.0638   -0.0000    0.0000    0.0003    0.0635
                0.5236   1.5594e-003  -2.1003e-004   1.7629e-003   2.9923e+007  -1.4261e+005   6.9633e+006    0.0888   -0.0000    0.0000    0.0004    0.0606
                0.5890   1.9983e-003  -2.6913e-004   1.6489e-003   3.8343e+007  -1.8278e+005   6.5132e+006    0.1138   -0.0000    0.0000    0.0005    0.0566

               lamina:  2     
              matName:  (web-core)
                     s           e11           e22           e12           s11           s22           s12   s11_fcT   s11_fcC   s22_fcT   s22_fcC   s12_fcS
                   (m)         (m/m)         (m/m)         (rad)          (Pa)          (Pa)          (Pa)       (-)       (-)       (-)       (-)       (-)
                0.0000  -1.9538e-003   2.6315e-004   1.6861e-003  -4.3998e+005  -8.9931e+004   1.6523e+005    0.0000    0.1026    0.0000    0.0210    0.0560
                0.0654  -1.5150e-003   2.0404e-004   1.7917e-003  -3.4116e+005  -6.9732e+004   1.7559e+005    0.0000    0.0795    0.0000    0.0163    0.0595
                0.1309  -1.0761e-003   1.4494e-004   1.8700e-003  -2.4233e+005  -4.9534e+004   1.8326e+005    0.0000    0.0565    0.0000    0.0115    0.0621
                0.1963  -6.3730e-004   8.5832e-005   1.9208e-003  -1.4351e+005  -2.9335e+004   1.8824e+005    0.0000    0.0335    0.0000    0.0068    0.0638
                0.2618  -1.9847e-004   2.6727e-005   1.9441e-003  -4.4693e+004  -9.1360e+003   1.9052e+005    0.0000    0.0104    0.0000    0.0021    0.0646
                0.3272   2.4242e-004  -3.2647e-005   1.9400e-003   5.4591e+004   1.1159e+004   1.9012e+005    0.0127   -0.0000    0.0026   -0.0000    0.0644
                0.3927   6.8125e-004  -9.1752e-005   1.9084e-003   1.5341e+005   3.1358e+004   1.8702e+005    0.0358   -0.0000    0.0073   -0.0000    0.0634
                0.4581   1.1201e-003  -1.5086e-004   1.8494e-003   2.5223e+005   5.1557e+004   1.8124e+005    0.0588   -0.0000    0.0120   -0.0000    0.0614
                0.5236   1.5589e-003  -2.0996e-004   1.7629e-003   3.5105e+005   7.1756e+004   1.7276e+005    0.0818   -0.0000    0.0167   -0.0000    0.0586
                0.5890   1.9978e-003  -2.6907e-004   1.6489e-003   4.4987e+005   9.1954e+004   1.6159e+005    0.1049   -0.0000    0.0214   -0.0000    0.0548

               lamina:  3     
              matName:  (web-shell)
                     s           e11           e22           e12           s11           s22           s12   s11_fcT   s11_fcC   s22_fcT   s22_fcC   s12_fcS
                   (m)         (m/m)         (m/m)         (rad)          (Pa)          (Pa)          (Pa)       (-)       (-)       (-)       (-)       (-)
                0.0000  -1.9543e-003   2.6321e-004   1.6861e-003  -3.7500e+007   1.7876e+005   6.6599e+006    0.0000    0.0755    0.0005   -0.0000    0.0579
                0.0654  -1.5155e-003   2.0411e-004   1.7917e-003  -2.9079e+007   1.3859e+005   7.0774e+006    0.0000    0.0585    0.0004   -0.0000    0.0615
                0.1309  -1.0767e-003   1.4500e-004   1.8700e-003  -2.0659e+007   9.8428e+004   7.3864e+006    0.0000    0.0416    0.0003   -0.0000    0.0642
                0.1963  -6.3782e-004   8.5899e-005   1.9208e-003  -1.2238e+007   5.8264e+004   7.5870e+006    0.0000    0.0246    0.0002   -0.0000    0.0660
                0.2618  -1.9898e-004   2.6794e-005   1.9441e-003  -3.8181e+006   1.8101e+004   7.6792e+006    0.0000    0.0077    0.0001   -0.0000    0.0668
                0.3272   2.4037e-004  -3.2378e-005   1.9400e-003   4.6122e+006  -2.2073e+004   7.6629e+006    0.0137   -0.0000    0.0000    0.0001    0.0666
                0.3927   6.7920e-004  -9.1483e-005   1.9084e-003   1.3033e+007  -6.2237e+004   7.5381e+006    0.0387   -0.0000    0.0000    0.0002    0.0655
                0.4581   1.1180e-003  -1.5059e-004   1.8494e-003   2.1453e+007  -1.0240e+005   7.3049e+006    0.0637   -0.0000    0.0000    0.0003    0.0635
                0.5236   1.5569e-003  -2.0969e-004   1.7629e-003   2.9873e+007  -1.4256e+005   6.9633e+006    0.0886   -0.0000    0.0000    0.0004    0.0606
                0.5890   1.9957e-003  -2.6880e-004   1.6489e-003   3.8294e+007  -1.8273e+005   6.5132e+006    0.1136   -0.0000    0.0000    0.0005    0.0566

================================================================================
sec        =  4      
zSec       =  0.9000  (m)
nPanelsTop =  3      
nPanelsBot =  3      
nWebs      =  2      

    Top:  panel  nNode   nLam     xc_St    xc_End         b         t         E_eff         G_eff      nu_eff     density  buckleCrit
            (-)    (-)    (-)       (-)       (-)       (m)       (m)          (Pa)          (Pa)         (-)    (kg/m^3)         (-)
              1     18      5    0.0000    0.2411    0.4359    0.0367   3.0092e+010   4.0511e+009      0.2233   1738.5570      0.0173
              2     12      7    0.2411    0.5589    0.3937    0.0401   3.8308e+010   4.1181e+009      0.2286   1718.6381      0.0446
              3     25      5    0.5589    1.0000    0.6519    0.0383   2.8811e+010   3.8815e+009      0.2234   1672.5679      0.0306

            panel:  1     
           lam_num    nPlies        tPly      fibAng     matID  matName
               (-)       (-)         (m)       (deg)       (-)  (-)
                 1         1    0.006094      0.0000         2  (blade-shell)
                 2         1    0.012175      0.0000         1  (blade-root)
                 3         1    0.000113      0.0000         5  (LEP-core)
                 4         1    0.012175      0.0000         1  (blade-root)
                 5         1    0.006094      0.0000         2  (blade-shell)

               lamina:  1     
              matName:  (blade-shell)
                     s           e11           e22           e12           s11           s22           s12   s11_fcT   s11_fcC   s22_fcT   s22_fcC   s12_fcS
                   (m)         (m/m)         (m/m)         (rad)          (Pa)          (Pa)          (Pa)       (-)       (-)       (-)       (-)       (-)
                0.0000  -5.1335e-005   5.9472e-006   2.0414e-003  -9.8747e+005  -3.2230e+004   8.0635e+006    0.0000    0.0020    0.0000    0.0001    0.0701
                0.0083  -1.1548e-004   2.0273e-005   2.0400e-003  -2.2040e+006   1.0272e+005   8.0580e+006    0.0000    0.0044    0.0003   -0.0000    0.0701
                0.0325  -3.1943e-004   6.4822e-005   2.0311e-003  -6.0740e+006   4.5496e+005   8.0227e+006    0.0000    0.0122    0.0014   -0.0000    0.0698
                0.0607  -5.9422e-004   1.2255e-004   2.0117e-003  -1.1294e+007   8.8474e+005   7.9462e+006    0.0000    0.0227    0.0026   -0.0000    0.0691
                0.0795  -7.9112e-004   1.6262e-004   1.9935e-003  -1.5038e+007   1.1674e+006   7.8745e+006    0.0000    0.0303    0.0035   -0.0000    0.0685
                0.1053  -1.0093e-003   2.0920e-004   1.9624e-003  -1.9180e+007   1.5232e+006   7.7513e+006    0.0000    0.0386    0.0045   -0.0000    0.0674
                0.1279  -1.2102e-003   2.5081e-004   1.9290e-003  -2.2999e+007   1.8258e+006   7.6195e+006    0.0000    0.0463    0.0054   -0.0000    0.0663
                0.1533  -1.3873e-003   2.8916e-004   1.8856e-003  -2.6359e+007   2.1252e+006   7.4482e+006    0.0000    0.0530    0.0063   -0.0000    0.0648
                0.1808  -1.5948e-003   3.3313e-004   1.8316e-003  -3.0300e+007   2.4572e+006   7.2347e+006    0.0000    0.0610    0.0073   -0.0000    0.0629
                0.2061  -1.7600e-003   3.6790e-004   1.7759e-003  -3.3439e+007   2.7167e+006   7.0148e+006    0.0000    0.0673    0.0081   -0.0000    0.0610
                0.2353  -1.9243e-003   4.0378e-004   1.7055e-003  -3.6557e+007   3.0001e+006   6.7369e+006    0.0000    0.0736    0.0089   -0.0000    0.0586
                0.2643  -2.0883e-003   4.3873e-004   1.6290e-003  -3.9670e+007   3.2665e+006   6.4346e+006    0.0000    0.0798    0.0097   -0.0000    0.0560
                0.2944  -2.2258e-003   4.6862e-004   1.5437e-003  -4.2280e+007   3.5010e+006   6.0977e+006    0.0000    0.0851    0.0104   -0.0000    0.0530
                0.3263  -2.3746e-003   5.0082e-004   1.4470e-003  -4.5105e+007   3.7521e+006   5.7156e+006    0.0000    0.0908    0.0111   -0.0000    0.0497
                0.3576  -2.4948e-003   5.2656e-004   1.3464e-003  -4.7387e+007   3.9497e+006   5.3184e+006    0.0000    0.0953    0.0117   -0.0000    0.0462
                0.3912  -2.6046e-003   5.5073e-004   1.2335e-003  -4.9469e+007   4.1430e+006   4.8722e+006    0.0000    0.0995    0.0123   -0.0000    0.0424
                0.4256  -2.7125e-003   5.7433e-004   1.1123e-003  -5.1518e+007   4.3299e+006   4.3936e+006    0.0000    0.1037    0.0128   -0.0000    0.0382
                0.4359  -2.7469e-003   5.8117e-004   1.0753e-003  -5.2171e+007   4.3763e+006   4.2473e+006    0.0000    0.1050    0.0130   -0.0000    0.0369

               lamina:  2     
              matName:  (blade-root)
                     s           e11           e22           e12           s11           s22           s12   s11_fcT   s11_fcC   s22_fcT   s22_fcC   s12_fcS
                   (m)         (m/m)         (m/m)         (rad)          (Pa)          (Pa)          (Pa)       (-)       (-)       (-)       (-)       (-)
                0.0000   3.7289e-005  -8.3440e-006   2.0414e-003   1.3349e+006  -5.1333e+004   8.4105e+006    0.0013   -0.0000    0.0000    0.0010    0.0751
                0.0083  -8.5924e-005   1.5506e-005   2.0400e-003  -3.0865e+006  -1.0984e+005   8.4048e+006    0.0000    0.0039    0.0000    0.0021    0.0750
                0.0325  -2.8454e-004   5.9195e-005   2.0311e-003  -1.0199e+007  -2.9666e+005   8.3680e+006    0.0000    0.0129    0.0000    0.0058    0.0747
                0.0607  -5.3985e-004   1.1378e-004   2.0117e-003  -1.9346e+007  -5.5024e+005   8.2882e+006    0.0000    0.0246    0.0000    0.0107    0.0740
                0.0795  -7.1584e-004   1.5048e-004   1.9935e-003  -2.5654e+007  -7.3301e+005   8.2134e+006    0.0000    0.0326    0.0000    0.0143    0.0733
                0.1053  -9.2254e-004   1.9521e-004   1.9624e-003  -3.3058e+007  -9.3372e+005   8.0849e+006    0.0000    0.0420    0.0000    0.0182    0.0722
                0.1279  -1.1060e-003   2.3401e-004   1.9290e-003  -3.9633e+007  -1.1196e+006   7.9475e+006    0.0000    0.0503    0.0000    0.0219    0.0710
                0.1533  -1.2767e-003   2.7134e-004   1.8856e-003  -4.5746e+007  -1.2821e+006   7.7688e+006    0.0000    0.0581    0.0000    0.0250    0.0694
                0.1808  -1.4715e-003   3.1326e-004   1.8316e-003  -5.2725e+007  -1.4733e+006   7.5461e+006    0.0000    0.0669    0.0000    0.0288    0.0674
                0.2061  -1.6253e-003   3.4619e-004   1.7759e-003  -5.8236e+007  -1.6257e+006   7.3167e+006    0.0000    0.0739    0.0000    0.0318    0.0653
                0.2353  -1.7853e-003   3.8136e-004   1.7055e-003  -6.3964e+007  -1.7763e+006   7.0268e+006    0.0000    0.0812    0.0000    0.0347    0.0627
                0.2643  -1.9403e-003   4.1487e-004   1.6290e-003  -6.9517e+007  -1.9271e+006   6.7116e+006    0.0000    0.0882    0.0000    0.0376    0.0599
                0.2944  -2.0734e-003   4.4405e-004   1.5437e-003  -7.4285e+007  -2.0532e+006   6.3602e+006    0.0000    0.0943    0.0000    0.0401    0.0568
                0.3263  -2.2167e-003   4.7536e-004   1.4470e-003  -7.9417e+007  -2.1898e+006   5.9616e+006    0.0000    0.1008    0.0000    0.0428    0.0532
                0.3576  -2.3310e-003   5.0015e-004   1.3464e-003  -8.3511e+007  -2.3003e+006   5.5473e+006    0.0000    0.1060    0.0000    0.0449    0.0495
                0.3912  -2.4390e-003   5.2402e-004   1.2335e-003  -8.7375e+007  -2.4007e+006   5.0819e+006    0.0000    0.1109    0.0000    0.0469    0.0454
                0.4256  -2.5442e-003   5.4719e-004   1.1123e-003  -9.1145e+007  -2.4996e+006   4.5826e+006    0.0000    0.1157    0.0000    0.0488    0.0409
                0.4359  -2.5741e-003   5.5331e-004   1.0753e-003  -9.2216e+007  -2.5316e+006   4.4301e+006    0.0000    0.1170    0.0000    0.0494    0.0396

               lamina:  3     
              matName:  (LEP-core)
                     s           e11           e22           e12           s11           s22           s12   s11_fcT   s11_fcC   s22_fcT   s22_fcC   s12_fcS
                   (m)         (m/m)         (m/m)         (rad)          (Pa)          (Pa)          (Pa)       (-)       (-)       (-)       (-)       (-)
                0.0000   3.7836e-005  -8.4323e-006   2.0414e-003   8.2608e+003   9.5529e+002   2.0006e+005    0.0019   -0.0000    0.0002   -0.0000    0.0678
                0.0083  -2.6862e-005   5.9815e-006   2.0400e-003  -5.8651e+003  -6.7936e+002   1.9992e+005    0.0000    0.0014    0.0000    0.0002    0.0678
                0.0325  -2.1482e-004   4.7952e-005   2.0311e-003  -4.6896e+004  -5.4058e+003   1.9904e+005    0.0000    0.0109    0.0000    0.0013    0.0675
                0.0607  -4.3121e-004   9.6263e-005   2.0117e-003  -9.4134e+004  -1.0849e+004   1.9715e+005    0.0000    0.0219    0.0000    0.0025    0.0668
                0.0795  -5.6543e-004   1.2622e-004   1.9935e-003  -1.2343e+005  -1.4226e+004   1.9537e+005    0.0000    0.0288    0.0000    0.0033    0.0662
                0.1053  -7.4923e-004   1.6726e-004   1.9624e-003  -1.6356e+005  -1.8849e+004   1.9231e+005    0.0000    0.0381    0.0000    0.0044    0.0652
                0.1279  -8.9785e-004   2.0044e-004   1.9290e-003  -1.9600e+005  -2.2588e+004   1.8904e+005    0.0000    0.0457    0.0000    0.0053    0.0641
                0.1533  -1.0558e-003   2.3572e-004   1.8856e-003  -2.3049e+005  -2.6561e+004   1.8479e+005    0.0000    0.0537    0.0000    0.0062    0.0626
                0.1808  -1.2253e-003   2.7356e-004   1.8316e-003  -2.6749e+005  -3.0824e+004   1.7949e+005    0.0000    0.0624    0.0000    0.0072    0.0608
                0.2061  -1.3563e-003   3.0280e-004   1.7759e-003  -2.9608e+005  -3.4118e+004   1.7404e+005    0.0000    0.0690    0.0000    0.0080    0.0590
                0.2353  -1.5074e-003   3.3655e-004   1.7055e-003  -3.2908e+005  -3.7919e+004   1.6714e+005    0.0000    0.0767    0.0000    0.0088    0.0567
                0.2643  -1.6448e-003   3.6721e-004   1.6290e-003  -3.5905e+005  -4.1373e+004   1.5964e+005    0.0000    0.0837    0.0000    0.0096    0.0541
                0.2944  -1.7690e-003   3.9496e-004   1.5437e-003  -3.8618e+005  -4.4499e+004   1.5129e+005    0.0000    0.0900    0.0000    0.0104    0.0513
                0.3263  -1.9013e-003   4.2450e-004   1.4470e-003  -4.1506e+005  -4.7825e+004   1.4181e+005    0.0000    0.0968    0.0000    0.0111    0.0481
                0.3576  -2.0038e-003   4.4739e-004   1.3464e-003  -4.3744e+005  -5.0403e+004   1.3195e+005    0.0000    0.1020    0.0000    0.0117    0.0447
                0.3912  -2.1080e-003   4.7066e-004   1.2335e-003  -4.6019e+005  -5.3023e+004   1.2088e+005    0.0000    0.1073    0.0000    0.0124    0.0410
                0.4256  -2.2080e-003   4.9297e-004   1.1123e-003  -4.8200e+005  -5.5536e+004   1.0900e+005    0.0000    0.1124    0.0000    0.0129    0.0370
                0.4359  -2.2289e-003   4.9765e-004   1.0753e-003  -4.8657e+005  -5.6063e+004   1.0538e+005    0.0000    0.1134    0.0000    0.0131    0.0357

               lamina:  4     
              matName:  (blade-root)
                     s           e11           e22           e12           s11           s22           s12   s11_fcT   s11_fcC   s22_fcT   s22_fcC   s12_fcS
                   (m)         (m/m)         (m/m)         (rad)          (Pa)          (Pa)          (Pa)       (-)       (-)       (-)       (-)       (-)
                0.0000   9.6898e-005  -1.7957e-005   2.0414e-003   3.4794e+006   1.1985e+005   8.4105e+006    0.0035   -0.0000    0.0023   -0.0000    0.0751
                0.0083   3.2748e-005   5.8933e-006   2.0400e-003   1.1828e+006   6.1342e+004   8.4048e+006    0.0012   -0.0000    0.0012   -0.0000    0.0750
                0.0325  -2.1417e-004   4.7848e-005   2.0311e-003  -7.6676e+006  -1.9516e+005   8.3680e+006    0.0000    0.0097    0.0000    0.0038    0.0747
                0.0607  -4.3020e-004   9.6100e-005   2.0117e-003  -1.5401e+007  -3.9208e+005   8.2882e+006    0.0000    0.0195    0.0000    0.0077    0.0740
                0.0795  -5.6403e-004   1.2600e-004   1.9935e-003  -2.0193e+007  -5.1403e+005   8.2134e+006    0.0000    0.0256    0.0000    0.0100    0.0733
                0.1053  -7.4762e-004   1.6700e-004   1.9624e-003  -2.6766e+007  -6.8141e+005   8.0849e+006    0.0000    0.0340    0.0000    0.0133    0.0722
                0.1279  -8.9592e-004   2.0013e-004   1.9290e-003  -3.2075e+007  -8.1657e+005   7.9475e+006    0.0000    0.0407    0.0000    0.0159    0.0710
                0.1533  -1.0538e-003   2.3539e-004   1.8856e-003  -3.7727e+007  -9.6052e+005   7.7688e+006    0.0000    0.0479    0.0000    0.0188    0.0694
                0.1808  -1.2230e-003   2.7319e-004   1.8316e-003  -4.3785e+007  -1.1148e+006   7.5461e+006    0.0000    0.0556    0.0000    0.0218    0.0674
                0.2061  -1.3538e-003   3.0239e-004   1.7759e-003  -4.8467e+007  -1.2340e+006   7.3167e+006    0.0000    0.0615    0.0000    0.0241    0.0653
                0.2353  -1.5049e-003   3.3614e-004   1.7055e-003  -5.3876e+007  -1.3718e+006   7.0268e+006    0.0000    0.0684    0.0000    0.0268    0.0627
                0.2643  -1.6420e-003   3.6677e-004   1.6290e-003  -5.8785e+007  -1.4968e+006   6.7116e+006    0.0000    0.0746    0.0000    0.0292    0.0599
                0.2944  -1.7662e-003   3.9451e-004   1.5437e-003  -6.3232e+007  -1.6101e+006   6.3602e+006    0.0000    0.0802    0.0000    0.0314    0.0568
                0.3263  -1.8984e-003   4.2403e-004   1.4470e-003  -6.7964e+007  -1.7306e+006   5.9616e+006    0.0000    0.0862    0.0000    0.0338    0.0532
                0.3576  -2.0008e-003   4.4690e-004   1.3464e-003  -7.1630e+007  -1.8239e+006   5.5473e+006    0.0000    0.0909    0.0000    0.0356    0.0495
                0.3912  -2.1050e-003   4.7016e-004   1.2335e-003  -7.5360e+007  -1.9189e+006   5.0819e+006    0.0000    0.0956    0.0000    0.0375    0.0454
                0.4256  -2.2048e-003   4.9247e-004   1.1123e-003  -7.8935e+007  -2.0100e+006   4.5826e+006    0.0000    0.1002    0.0000    0.0393    0.0409
                0.4359  -2.2257e-003   4.9713e-004   1.0753e-003  -7.9682e+007  -2.0290e+006   4.4301e+006    0.0000    0.1011    0.0000    0.0396    0.0396

               lamina:  5     
              matName:  (blade-shell)
                     s           e11           e22           e12           s11           s22           s12   s11_fcT   s11_fcC   s22_fcT   s22_fcC   s12_fcS
                   (m)         (m/m)         (m/m)         (rad)          (Pa)          (Pa)          (Pa)       (-)       (-)       (-)       (-)       (-)
                0.0000   1.2646e-004  -2.2723e-005   2.0414e-003   2.4121e+006  -1.2272e+005   8.0635e+006    0.0072   -0.0000    0.0000    0.0004    0.0701
                0.0083   6.2309e-005  -8.3980e-006   2.0400e-003   1.1956e+006   1.2230e+004   8.0580e+006    0.0035   -0.0000    0.0000   -0.0000    0.0701
                0.0325  -1.4446e-004   3.6605e-005   2.0311e-003  -2.7283e+006   3.4814e+005   8.0227e+006    0.0000    0.0055    0.0010   -0.0000    0.0698
                0.0607  -3.2156e-004   7.8581e-005   2.0117e-003  -6.0806e+006   7.1829e+005   7.9462e+006    0.0000    0.0122    0.0021   -0.0000    0.0691
                0.0795  -4.1362e-004   1.0174e-004   1.9935e-003  -7.8197e+006   9.3692e+005   7.8745e+006    0.0000    0.0157    0.0028   -0.0000    0.0685
                0.1053  -5.7432e-004   1.3906e-004   1.9624e-003  -1.0863e+007   1.2576e+006   7.7513e+006    0.0000    0.0219    0.0037   -0.0000    0.0674
                0.1279  -6.8775e-004   1.6656e-004   1.9290e-003  -1.3009e+007   1.5068e+006   7.6195e+006    0.0000    0.0262    0.0045   -0.0000    0.0663
                0.1533  -8.3292e-004   1.9977e-004   1.8856e-003  -1.5760e+007   1.7868e+006   7.4482e+006    0.0000    0.0317    0.0053   -0.0000    0.0648
                0.1808  -9.7681e-004   2.3348e-004   1.8316e-003  -1.8484e+007   2.0799e+006   7.2347e+006    0.0000    0.0372    0.0062   -0.0000    0.0629
                0.2061  -1.0847e-003   2.5900e-004   1.7759e-003  -2.0527e+007   2.3044e+006   7.0148e+006    0.0000    0.0413    0.0068   -0.0000    0.0610
                0.2353  -1.2270e-003   2.9133e-004   1.7055e-003  -2.3224e+007   2.5744e+006   6.7369e+006    0.0000    0.0467    0.0076   -0.0000    0.0586
                0.2643  -1.3464e-003   3.1911e-004   1.6290e-003  -2.5486e+007   2.8136e+006   6.4346e+006    0.0000    0.0513    0.0083   -0.0000    0.0560
                0.2944  -1.4618e-003   3.4542e-004   1.5437e-003  -2.7673e+007   3.0347e+006   6.0977e+006    0.0000    0.0557    0.0090   -0.0000    0.0530
                0.3263  -1.5830e-003   3.7316e-004   1.4470e-003  -2.9968e+007   3.2688e+006   5.7156e+006    0.0000    0.0603    0.0097   -0.0000    0.0497
                0.3576  -1.6736e-003   3.9413e-004   1.3464e-003  -3.1685e+007   3.4484e+006   5.3184e+006    0.0000    0.0638    0.0102   -0.0000    0.0462
                0.3912  -1.7741e-003   4.1680e-004   1.2335e-003  -3.3589e+007   3.6359e+006   4.8722e+006    0.0000    0.0676    0.0108   -0.0000    0.0424
                0.4256  -1.8686e-003   4.3824e-004   1.1123e-003  -3.5381e+007   3.8147e+006   4.3936e+006    0.0000    0.0712    0.0113   -0.0000    0.0382
                0.4359  -1.8805e-003   4.4146e-004   1.0753e-003  -3.5606e+007   3.8474e+006   4.2473e+006    0.0000    0.0716    0.0114   -0.0000    0.0369

            panel:  2     
           lam_num    nPlies        tPly      fibAng     matID  matName
               (-)       (-)         (m)       (deg)       (-)  (-)
                 1         1    0.006094      0.0000         2  (blade-shell)
                 2         1    0.012175      0.0000         1  (blade-root)
                 3         1    0.001755      0.0000         3  (spar-uni)
                 4         1    0.000019      0.0000         4  (spar-core)
                 5         1    0.001755      0.0000         3  (spar-uni)
                 6         1    0.012175      0.0000         1  (blade-root)
                 7         1    0.006094      0.0000         2  (blade-shell)

               lamina:  1     
              matName:  (blade-shell)
                     s           e11           e22           e12           s11           s22           s12   s11_fcT   s11_fcC   s22_fcT   s22_fcC   s12_fcS
                   (m)         (m/m)         (m/m)         (rad)          (Pa)          (Pa)          (Pa)       (-)       (-)       (-)       (-)       (-)
                0.0000  -2.9167e-003   6.2304e-004   1.2263e-003  -5.5381e+007   4.7628e+006   4.8437e+006    0.0000    0.1114    0.0141   -0.0000    0.0421
                0.0235  -2.9656e-003   6.3423e-004   1.1193e-003  -5.6309e+007   4.8570e+006   4.4211e+006    0.0000    0.1133    0.0144   -0.0000    0.0384
                0.0592  -3.0472e-003   6.5244e-004   9.5271e-004  -5.7856e+007   5.0055e+006   3.7632e+006    0.0000    0.1164    0.0149   -0.0000    0.0327
                0.0947  -3.1093e-003   6.6603e-004   7.8317e-004  -5.9034e+007   5.1133e+006   3.0935e+006    0.0000    0.1188    0.0152   -0.0000    0.0269
                0.1315  -3.1501e-003   6.7515e-004   6.0446e-004  -5.9807e+007   5.1881e+006   2.3876e+006    0.0000    0.1203    0.0154   -0.0000    0.0208
                0.1684  -3.1928e-003   6.8463e-004   4.2301e-004  -6.0617e+007   5.2648e+006   1.6709e+006    0.0000    0.1220    0.0156   -0.0000    0.0145
                0.2055  -3.1960e-003   6.8526e-004   2.3988e-004  -6.0677e+007   5.2689e+006   9.4751e+005    0.0000    0.1221    0.0156   -0.0000    0.0082
                0.2439  -3.1956e-003   6.8519e-004   5.0646e-005  -6.0671e+007   5.2684e+006   2.0005e+005    0.0000    0.1221    0.0156   -0.0000    0.0017
                0.2819  -3.1826e-003   6.8234e-004   1.3563e-004  -6.0424e+007   5.2458e+006   5.3575e+005    0.0000    0.1216    0.0156   -0.0000    0.0047
                0.3207  -3.1448e-003   6.7386e-004   3.2305e-004  -5.9707e+007   5.1762e+006   1.2760e+006    0.0000    0.1201    0.0154   -0.0000    0.0111
                0.3595  -3.1067e-003   6.6533e-004   5.0784e-004  -5.8984e+007   5.1065e+006   2.0060e+006    0.0000    0.1187    0.0152   -0.0000    0.0174
                0.3937  -3.0531e-003   6.5336e-004   6.6708e-004  -5.7968e+007   5.0087e+006   2.6350e+006    0.0000    0.1166    0.0149   -0.0000    0.0229

               lamina:  2     
              matName:  (blade-root)
                     s           e11           e22           e12           s11           s22           s12   s11_fcT   s11_fcC   s22_fcT   s22_fcC   s12_fcS
                   (m)         (m/m)         (m/m)         (rad)          (Pa)          (Pa)          (Pa)       (-)       (-)       (-)       (-)       (-)
                0.0000  -2.7031e-003   5.8750e-004   1.2263e-003  -9.6818e+007  -2.6031e+006   5.0522e+006    0.0000    0.1229    0.0000    0.0508    0.0451
                0.0235  -2.7520e-003   5.9868e-004   1.1193e-003  -9.8569e+007  -2.6455e+006   4.6114e+006    0.0000    0.1251    0.0000    0.0517    0.0412
                0.0592  -2.8314e-003   6.1654e-004   9.5271e-004  -1.0141e+008  -2.7170e+006   3.9252e+006    0.0000    0.1287    0.0000    0.0531    0.0350
                0.0947  -2.8906e-003   6.2964e-004   7.8317e-004  -1.0353e+008  -2.7719e+006   3.2267e+006    0.0000    0.1314    0.0000    0.0541    0.0288
                0.1315  -2.9304e-003   6.3861e-004   6.0446e-004  -1.0496e+008  -2.8075e+006   2.4904e+006    0.0000    0.1332    0.0000    0.0548    0.0222
                0.1684  -2.9717e-003   6.4786e-004   4.2301e-004  -1.0644e+008  -2.8450e+006   1.7428e+006    0.0000    0.1351    0.0000    0.0556    0.0156
                0.2055  -2.9744e-003   6.4840e-004   2.3988e-004  -1.0653e+008  -2.8480e+006   9.8829e+005    0.0000    0.1352    0.0000    0.0556    0.0088
                0.2439  -2.9741e-003   6.4833e-004   5.0646e-005  -1.0652e+008  -2.8477e+006   2.0866e+005    0.0000    0.1352    0.0000    0.0556    0.0019
                0.2819  -2.9617e-003   6.4559e-004   1.3563e-004  -1.0608e+008  -2.8362e+006   5.5880e+005    0.0000    0.1346    0.0000    0.0554    0.0050
                0.3207  -2.9247e-003   6.3724e-004   3.2305e-004  -1.0475e+008  -2.8031e+006   1.3310e+006    0.0000    0.1329    0.0000    0.0547    0.0119
                0.3595  -2.8875e-003   6.2887e-004   5.0784e-004  -1.0342e+008  -2.7697e+006   2.0923e+006    0.0000    0.1312    0.0000    0.0541    0.0187
                0.3937  -2.8353e-003   6.1712e-004   6.6708e-004  -1.0155e+008  -2.7228e+006   2.7484e+006    0.0000    0.1289    0.0000    0.0532    0.0245

               lamina:  3     
              matName:  (spar-uni)
                     s           e11           e22           e12           s11           s22           s12   s11_fcT   s11_fcC   s22_fcT   s22_fcC   s12_fcS
                   (m)         (m/m)         (m/m)         (rad)          (Pa)          (Pa)          (Pa)       (-)       (-)       (-)       (-)       (-)
                0.0000  -2.2762e-003   5.1648e-004   1.2263e-003  -2.8046e+008  -1.5610e+006   5.7757e+006    0.0000    0.2805    0.0000    0.0261    0.0561
                0.0235  -2.3252e-003   5.2767e-004   1.1193e-003  -2.8649e+008  -1.5939e+006   5.2718e+006    0.0000    0.2865    0.0000    0.0266    0.0512
                0.0592  -2.4003e-003   5.4480e-004   9.5271e-004  -2.9575e+008  -1.6447e+006   4.4873e+006    0.0000    0.2957    0.0000    0.0275    0.0436
                0.0947  -2.4536e-003   5.5693e-004   7.8317e-004  -3.0231e+008  -1.6809e+006   3.6887e+006    0.0000    0.3023    0.0000    0.0281    0.0358
                0.1315  -2.4915e-003   5.6559e-004   6.0446e-004  -3.0699e+008  -1.7066e+006   2.8470e+006    0.0000    0.3070    0.0000    0.0285    0.0276
                0.1684  -2.5301e-003   5.7438e-004   4.2301e-004  -3.1174e+008  -1.7327e+006   1.9924e+006    0.0000    0.3117    0.0000    0.0289    0.0193
                0.2055  -2.5317e-003   5.7475e-004   2.3988e-004  -3.1194e+008  -1.7339e+006   1.1298e+006    0.0000    0.3119    0.0000    0.0289    0.0110
                0.2439  -2.5315e-003   5.7470e-004   5.0646e-005  -3.1191e+008  -1.7337e+006   2.3854e+005    0.0000    0.3119    0.0000    0.0289    0.0023
                0.2819  -2.5203e-003   5.7215e-004   1.3563e-004  -3.1054e+008  -1.7261e+006   6.3883e+005    0.0000    0.3105    0.0000    0.0288    0.0062
                0.3207  -2.4850e-003   5.6408e-004   3.2305e-004  -3.0618e+008  -1.7022e+006   1.5216e+006    0.0000    0.3062    0.0000    0.0284    0.0148
                0.3595  -2.4496e-003   5.5602e-004   5.0784e-004  -3.0183e+008  -1.6784e+006   2.3919e+006    0.0000    0.3018    0.0000    0.0280    0.0232
                0.3937  -2.4001e-003   5.4471e-004   6.6708e-004  -2.9572e+008  -1.6448e+006   3.1420e+006    0.0000    0.2957    0.0000    0.0275    0.0305

               lamina:  4     
              matName:  (spar-core)
                     s           e11           e22           e12           s11           s22           s12   s11_fcT   s11_fcC   s22_fcT   s22_fcC   s12_fcS
                   (m)         (m/m)         (m/m)         (rad)          (Pa)          (Pa)          (Pa)       (-)       (-)       (-)       (-)       (-)
                0.0000  -2.2147e-003   5.0624e-004   1.2263e-003  -4.8255e+005  -5.2931e+004   1.2017e+005    0.0000    0.1125    0.0000    0.0123    0.0407
                0.0235  -2.2636e-003   5.1743e-004   1.1193e-003  -4.9322e+005  -5.4101e+004   1.0969e+005    0.0000    0.1150    0.0000    0.0126    0.0372
                0.0592  -2.3381e-003   5.3446e-004   9.5271e-004  -5.0945e+005  -5.5881e+004   9.3366e+004    0.0000    0.1188    0.0000    0.0130    0.0316
                0.0947  -2.3906e-003   5.4644e-004   7.8317e-004  -5.2087e+005  -5.7134e+004   7.6751e+004    0.0000    0.1214    0.0000    0.0133    0.0260
                0.1315  -2.4283e-003   5.5506e-004   6.0446e-004  -5.2909e+005  -5.8035e+004   5.9237e+004    0.0000    0.1233    0.0000    0.0135    0.0201
                0.1684  -2.4664e-003   5.6379e-004   4.2301e-004  -5.3741e+005  -5.8948e+004   4.1455e+004    0.0000    0.1253    0.0000    0.0137    0.0141
                0.2055  -2.4679e-003   5.6413e-004   2.3988e-004  -5.3773e+005  -5.8983e+004   2.3508e+004    0.0000    0.1253    0.0000    0.0137    0.0080
                0.2439  -2.4677e-003   5.6408e-004   5.0646e-005  -5.3768e+005  -5.8978e+004   4.9633e+003    0.0000    0.1253    0.0000    0.0137    0.0017
                0.2819  -2.4567e-003   5.6157e-004   1.3563e-004  -5.3529e+005  -5.8715e+004   1.3292e+004    0.0000    0.1248    0.0000    0.0137    0.0045
                0.3207  -2.4216e-003   5.5354e-004   3.2305e-004  -5.2763e+005  -5.7876e+004   3.1659e+004    0.0000    0.1230    0.0000    0.0135    0.0107
                0.3595  -2.3865e-003   5.4552e-004   5.0784e-004  -5.1999e+005  -5.7038e+004   4.9768e+004    0.0000    0.1212    0.0000    0.0133    0.0169
                0.3937  -2.3373e-003   5.3427e-004   6.6708e-004  -5.0927e+005  -5.5862e+004   6.5374e+004    0.0000    0.1187    0.0000    0.0130    0.0222

               lamina:  5     
              matName:  (spar-uni)
                     s           e11           e22           e12           s11           s22           s12   s11_fcT   s11_fcC   s22_fcT   s22_fcC   s12_fcS
                   (m)         (m/m)         (m/m)         (rad)          (Pa)          (Pa)          (Pa)       (-)       (-)       (-)       (-)       (-)
                0.0000  -2.2140e-003   5.0613e-004   1.2263e-003  -2.7279e+008  -1.4873e+006   5.7757e+006    0.0000    0.2728    0.0000    0.0248    0.0561
                0.0235  -2.2630e-003   5.1732e-004   1.1193e-003  -2.7882e+008  -1.5202e+006   5.2718e+006    0.0000    0.2788    0.0000    0.0254    0.0512
                0.0592  -2.3375e-003   5.3435e-004   9.5271e-004  -2.8800e+008  -1.5702e+006   4.4873e+006    0.0000    0.2880    0.0000    0.0262    0.0436
                0.0947  -2.3899e-003   5.4633e-004   7.8317e-004  -2.9445e+008  -1.6054e+006   3.6887e+006    0.0000    0.2945    0.0000    0.0268    0.0358
                0.1315  -2.4276e-003   5.5495e-004   6.0446e-004  -2.9910e+008  -1.6308e+006   2.8470e+006    0.0000    0.2991    0.0000    0.0272    0.0276
                0.1684  -2.4658e-003   5.6368e-004   4.2301e-004  -3.0380e+008  -1.6564e+006   1.9924e+006    0.0000    0.3038    0.0000    0.0277    0.0193
                0.2055  -2.4672e-003   5.6402e-004   2.3988e-004  -3.0398e+008  -1.6574e+006   1.1298e+006    0.0000    0.3040    0.0000    0.0277    0.0110
                0.2439  -2.4670e-003   5.6397e-004   5.0646e-005  -3.0396e+008  -1.6573e+006   2.3854e+005    0.0000    0.3040    0.0000    0.0277    0.0023
                0.2819  -2.4560e-003   5.6145e-004   1.3563e-004  -3.0260e+008  -1.6499e+006   6.3883e+005    0.0000    0.3026    0.0000    0.0275    0.0062
                0.3207  -2.4209e-003   5.5342e-004   3.2305e-004  -2.9827e+008  -1.6263e+006   1.5216e+006    0.0000    0.2983    0.0000    0.0271    0.0148
                0.3595  -2.3858e-003   5.4541e-004   5.0784e-004  -2.9396e+008  -1.6027e+006   2.3919e+006    0.0000    0.2940    0.0000    0.0268    0.0232
                0.3937  -2.3366e-003   5.3416e-004   6.6708e-004  -2.8789e+008  -1.5697e+006   3.1420e+006    0.0000    0.2879    0.0000    0.0262    0.0305

               lamina:  6     
              matName:  (blade-root)
                     s           e11           e22           e12           s11           s22           s12   s11_fcT   s11_fcC   s22_fcT   s22_fcC   s12_fcS
                   (m)         (m/m)         (m/m)         (rad)          (Pa)          (Pa)          (Pa)       (-)       (-)       (-)       (-)       (-)
                0.0000  -2.1525e-003   4.9590e-004   1.2263e-003  -7.7019e+007  -1.8330e+006   5.0522e+006    0.0000    0.0977    0.0000    0.0358    0.0451
                0.0235  -2.2014e-003   5.0708e-004   1.1193e-003  -7.8770e+007  -1.8755e+006   4.6114e+006    0.0000    0.1000    0.0000    0.0366    0.0412
                0.0592  -2.2753e-003   5.2401e-004   9.5271e-004  -8.1413e+007  -1.9392e+006   3.9252e+006    0.0000    0.1033    0.0000    0.0379    0.0350
                0.0947  -2.3269e-003   5.3585e-004   7.8317e-004  -8.3259e+007  -1.9834e+006   3.2267e+006    0.0000    0.1057    0.0000    0.0387    0.0288
                0.1315  -2.3643e-003   5.4442e-004   6.0446e-004  -8.4598e+007  -2.0157e+006   2.4904e+006    0.0000    0.1074    0.0000    0.0394    0.0222
                0.1684  -2.4021e-003   5.5308e-004   4.2301e-004  -8.5950e+007  -2.0483e+006   1.7428e+006    0.0000    0.1091    0.0000    0.0400    0.0156
                0.2055  -2.4034e-003   5.5340e-004   2.3988e-004  -8.5998e+007  -2.0493e+006   9.8829e+005    0.0000    0.1091    0.0000    0.0400    0.0088
                0.2439  -2.4032e-003   5.5335e-004   5.0646e-005  -8.5991e+007  -2.0492e+006   2.0866e+005    0.0000    0.1091    0.0000    0.0400    0.0019
                0.2819  -2.3924e-003   5.5087e-004   1.3563e-004  -8.5603e+007  -2.0399e+006   5.5880e+005    0.0000    0.1086    0.0000    0.0398    0.0050
                0.3207  -2.3575e-003   5.4288e-004   3.2305e-004  -8.4355e+007  -2.0098e+006   1.3310e+006    0.0000    0.1070    0.0000    0.0393    0.0119
                0.3595  -2.3227e-003   5.3491e-004   5.0784e-004  -8.3110e+007  -1.9797e+006   2.0923e+006    0.0000    0.1055    0.0000    0.0387    0.0187
                0.3937  -2.2739e-003   5.2372e-004   6.6708e-004  -8.1363e+007  -1.9376e+006   2.7484e+006    0.0000    0.1033    0.0000    0.0378    0.0245

               lamina:  7     
              matName:  (blade-shell)
                     s           e11           e22           e12           s11           s22           s12   s11_fcT   s11_fcC   s22_fcT   s22_fcC   s12_fcS
                   (m)         (m/m)         (m/m)         (rad)          (Pa)          (Pa)          (Pa)       (-)       (-)       (-)       (-)       (-)
                0.0000  -1.7257e-003   4.2488e-004   1.2263e-003  -3.2624e+007   3.9167e+006   4.8437e+006    0.0000    0.0656    0.0116   -0.0000    0.0421
                0.0235  -1.7746e-003   4.3607e-004   1.1193e-003  -3.3551e+007   4.0109e+006   4.4211e+006    0.0000    0.0675    0.0119   -0.0000    0.0384
                0.0592  -1.8442e-003   4.5228e-004   9.5271e-004  -3.4868e+007   4.1508e+006   3.7632e+006    0.0000    0.0702    0.0123   -0.0000    0.0327
                0.0947  -1.8899e-003   4.6314e-004   7.8317e-004  -3.5733e+007   4.2470e+006   3.0935e+006    0.0000    0.0719    0.0126   -0.0000    0.0269
                0.1315  -1.9254e-003   4.7141e-004   6.0446e-004  -3.6407e+007   4.3181e+006   2.3876e+006    0.0000    0.0733    0.0128   -0.0000    0.0208
                0.1684  -1.9605e-003   4.7961e-004   4.2301e-004  -3.7070e+007   4.3893e+006   1.6709e+006    0.0000    0.0746    0.0130   -0.0000    0.0145
                0.2055  -1.9608e-003   4.7975e-004   2.3988e-004  -3.7076e+007   4.3914e+006   9.4751e+005    0.0000    0.0746    0.0130   -0.0000    0.0082
                0.2439  -1.9606e-003   4.7972e-004   5.0646e-005  -3.7074e+007   4.3910e+006   2.0005e+005    0.0000    0.0746    0.0130   -0.0000    0.0017
                0.2819  -1.9510e-003   4.7743e-004   1.3563e-004  -3.6892e+007   4.3708e+006   5.3575e+005    0.0000    0.0742    0.0130   -0.0000    0.0047
                0.3207  -1.9178e-003   4.6972e-004   3.2305e-004  -3.6262e+007   4.3045e+006   1.2760e+006    0.0000    0.0730    0.0128   -0.0000    0.0111
                0.3595  -1.8849e-003   4.6206e-004   5.0784e-004  -3.5638e+007   4.2385e+006   2.0060e+006    0.0000    0.0717    0.0126   -0.0000    0.0174
                0.3937  -1.8387e-003   4.5132e-004   6.6708e-004  -3.4764e+007   4.1459e+006   2.6350e+006    0.0000    0.0699    0.0123   -0.0000    0.0229

            panel:  3     
           lam_num    nPlies        tPly      fibAng     matID  matName
               (-)       (-)         (m)       (deg)       (-)  (-)
                 1         1    0.006094      0.0000         2  (blade-shell)
                 2         1    0.012175      0.0000         1  (blade-root)
                 3         1    0.001755      0.0000         6  (TEP-core)
                 4         1    0.012175      0.0000         1  (blade-root)
                 5         1    0.006094      0.0000         2  (blade-shell)

               lamina:  1     
              matName:  (blade-shell)
                     s           e11           e22           e12           s11           s22           s12   s11_fcT   s11_fcC   s22_fcT   s22_fcC   s12_fcS
                   (m)         (m/m)         (m/m)         (rad)          (Pa)          (Pa)          (Pa)       (-)       (-)       (-)       (-)       (-)
                0.0000  -2.8669e-003   6.0927e-004   4.2361e-004  -5.4443e+007   4.6203e+006   1.6732e+006    0.0000    0.1095    0.0137   -0.0000    0.0145
                0.0043  -2.8579e-003   6.0744e-004   4.3928e-004  -5.4273e+007   4.6073e+006   1.7351e+006    0.0000    0.1092    0.0137   -0.0000    0.0151
                0.0438  -2.7910e-003   5.9253e-004   5.8208e-004  -5.3004e+007   4.4861e+006   2.2992e+006    0.0000    0.1066    0.0133   -0.0000    0.0200
                0.0821  -2.7199e-003   5.7698e-004   7.1620e-004  -5.1655e+007   4.3628e+006   2.8290e+006    0.0000    0.1039    0.0129   -0.0000    0.0246
                0.1207  -2.6230e-003   5.5571e-004   8.4593e-004  -4.9817e+007   4.1934e+006   3.3414e+006    0.0000    0.1002    0.0124   -0.0000    0.0291
                0.1590  -2.5305e-003   5.3520e-004   9.6869e-004  -4.8062e+007   4.0278e+006   3.8263e+006    0.0000    0.0967    0.0120   -0.0000    0.0333
                0.1962  -2.4266e-003   5.1241e-004   1.0824e-003  -4.6091e+007   3.8464e+006   4.2753e+006    0.0000    0.0927    0.0114   -0.0000    0.0372
                0.2333  -2.3132e-003   4.8733e-004   1.1890e-003  -4.3939e+007   3.6447e+006   4.6967e+006    0.0000    0.0884    0.0108   -0.0000    0.0408
                0.2690  -2.2021e-003   4.6290e-004   1.2852e-003  -4.1833e+007   3.4495e+006   5.0766e+006    0.0000    0.0842    0.0102   -0.0000    0.0441
                0.3040  -2.0749e-003   4.3500e-004   1.3731e-003  -3.9419e+007   3.2276e+006   5.4236e+006    0.0000    0.0793    0.0096   -0.0000    0.0472
                0.3382  -1.9520e-003   4.0775e-004   1.4520e-003  -3.7087e+007   3.0075e+006   5.7352e+006    0.0000    0.0746    0.0089   -0.0000    0.0499
                0.3702  -1.8258e-003   3.8022e-004   1.5198e-003  -3.4694e+007   2.7901e+006   6.0033e+006    0.0000    0.0698    0.0083   -0.0000    0.0522
                0.4018  -1.6864e-003   3.4967e-004   1.5802e-003  -3.2048e+007   2.5474e+006   6.2419e+006    0.0000    0.0645    0.0076   -0.0000    0.0543
                0.4314  -1.5568e-003   3.2120e-004   1.6308e-003  -2.9588e+007   2.3206e+006   6.4417e+006    0.0000    0.0595    0.0069   -0.0000    0.0560
                0.4594  -1.4142e-003   2.9036e-004   1.6729e-003  -2.6882e+007   2.0802e+006   6.6079e+006    0.0000    0.0541    0.0062   -0.0000    0.0575
                0.4866  -1.2749e-003   2.5974e-004   1.7080e-003  -2.4239e+007   1.8359e+006   6.7465e+006    0.0000    0.0488    0.0054   -0.0000    0.0587
                0.5102  -1.1368e-003   2.3034e-004   1.7339e-003  -2.1617e+007   1.6123e+006   6.8488e+006    0.0000    0.0435    0.0048   -0.0000    0.0596
                0.5340  -9.7345e-004   1.9557e-004   1.7551e-003  -1.8515e+007   1.3479e+006   6.9325e+006    0.0000    0.0373    0.0040   -0.0000    0.0603
                0.5556  -8.3285e-004   1.6515e-004   1.7698e-003  -1.5846e+007   1.1109e+006   6.9907e+006    0.0000    0.0319    0.0033   -0.0000    0.0608
                0.5741  -6.7051e-004   1.3187e-004   1.7788e-003  -1.2760e+007   8.7305e+005   7.0264e+006    0.0000    0.0257    0.0026   -0.0000    0.0611
                0.5940  -4.9865e-004   9.5604e-005   1.7846e-003  -9.4959e+006   6.0113e+005   7.0493e+006    0.0000    0.0191    0.0018   -0.0000    0.0613
                0.6079  -3.3193e-004   6.2713e-005   1.7861e-003  -6.3233e+006   3.8207e+005   7.0550e+006    0.0000    0.0127    0.0011   -0.0000    0.0613
                0.6280  -1.0596e-004   1.6598e-005   1.7842e-003  -2.0272e+006   5.5147e+004   7.0477e+006    0.0000    0.0041    0.0002   -0.0000    0.0613
                0.6457   8.3374e-005  -2.2605e-005   1.7785e-003   1.5709e+006  -2.2980e+005   7.0250e+006    0.0047   -0.0000    0.0000    0.0007    0.0611
                0.6519   1.3122e-004  -3.3293e-005   1.7756e-003   2.4781e+006  -3.1708e+005   7.0135e+006    0.0074   -0.0000    0.0000    0.0009    0.0610

               lamina:  2     
              matName:  (blade-root)
                     s           e11           e22           e12           s11           s22           s12   s11_fcT   s11_fcC   s22_fcT   s22_fcC   s12_fcS
                   (m)         (m/m)         (m/m)         (rad)          (Pa)          (Pa)          (Pa)       (-)       (-)       (-)       (-)       (-)
                0.0000  -2.7004e-003   5.8201e-004   4.2361e-004  -9.6736e+007  -2.6425e+006   1.7453e+006    0.0000    0.1228    0.0000    0.0516    0.0156
                0.0043  -2.6924e-003   5.8033e-004   4.3928e-004  -9.6448e+007  -2.6342e+006   1.8098e+006    0.0000    0.1224    0.0000    0.0514    0.0162
                0.0438  -2.6257e-003   5.6546e-004   5.8208e-004  -9.4061e+007  -2.5732e+006   2.3982e+006    0.0000    0.1194    0.0000    0.0503    0.0214
                0.0821  -2.5563e-003   5.5020e-004   7.1620e-004  -9.1578e+007  -2.5081e+006   2.9507e+006    0.0000    0.1162    0.0000    0.0490    0.0263
                0.1207  -2.4614e-003   5.2925e-004   8.4593e-004  -8.8180e+007  -2.4195e+006   3.4852e+006    0.0000    0.1119    0.0000    0.0473    0.0311
                0.1590  -2.3698e-003   5.0888e-004   9.6869e-004  -8.4898e+007  -2.3350e+006   3.9910e+006    0.0000    0.1077    0.0000    0.0456    0.0356
                0.1962  -2.2681e-003   4.8646e-004   1.0824e-003  -8.1257e+007  -2.2399e+006   4.4593e+006    0.0000    0.1031    0.0000    0.0437    0.0398
                0.2333  -2.1561e-003   4.6161e-004   1.1890e-003  -7.7247e+007  -2.1363e+006   4.8988e+006    0.0000    0.0980    0.0000    0.0417    0.0437
                0.2690  -2.0471e-003   4.3752e-004   1.2852e-003  -7.3343e+007  -2.0347e+006   5.2951e+006    0.0000    0.0931    0.0000    0.0397    0.0473
                0.3040  -1.9227e-003   4.1007e-004   1.3731e-003  -6.8887e+007  -1.9183e+006   5.6570e+006    0.0000    0.0874    0.0000    0.0375    0.0505
                0.3382  -1.8008e-003   3.8300e-004   1.4520e-003  -6.4526e+007  -1.8061e+006   5.9821e+006    0.0000    0.0819    0.0000    0.0353    0.0534
                0.3702  -1.6782e-003   3.5605e-004   1.5198e-003  -6.0134e+007  -1.6905e+006   6.2617e+006    0.0000    0.0763    0.0000    0.0330    0.0559
                0.4018  -1.5419e-003   3.2601e-004   1.5802e-003  -5.5255e+007  -1.5629e+006   6.5106e+006    0.0000    0.0701    0.0000    0.0305    0.0581
                0.4314  -1.4149e-003   2.9798e-004   1.6308e-003  -5.0707e+007  -1.4443e+006   6.7189e+006    0.0000    0.0643    0.0000    0.0282    0.0600
                0.4594  -1.2777e-003   2.6801e-004   1.6729e-003  -4.5793e+007  -1.3134e+006   6.8923e+006    0.0000    0.0581    0.0000    0.0257    0.0615
                0.4866  -1.1411e-003   2.3784e-004   1.7080e-003  -4.0901e+007  -1.1859e+006   7.0369e+006    0.0000    0.0519    0.0000    0.0232    0.0628
                0.5102  -1.0108e-003   2.0971e-004   1.7339e-003  -3.6232e+007  -1.0587e+006   7.1435e+006    0.0000    0.0460    0.0000    0.0207    0.0638
                0.5340  -8.5659e-004   1.7643e-004   1.7551e-003  -3.0709e+007  -9.0821e+005   7.2308e+006    0.0000    0.0390    0.0000    0.0177    0.0646
                0.5556  -7.2129e-004   1.4688e-004   1.7698e-003  -2.5863e+007  -7.7914e+005   7.2916e+006    0.0000    0.0328    0.0000    0.0152    0.0651
                0.5741  -5.7489e-004   1.1621e-004   1.7788e-003  -2.0616e+007  -6.2832e+005   7.3288e+006    0.0000    0.0262    0.0000    0.0123    0.0654
                0.5940  -4.1438e-004   8.1806e-005   1.7846e-003  -1.4866e+007  -4.6965e+005   7.3526e+006    0.0000    0.0189    0.0000    0.0092    0.0656
                0.6079  -2.7090e-004   5.2721e-005   1.7861e-003  -9.7203e+006  -3.1352e+005   7.3587e+006    0.0000    0.0123    0.0000    0.0061    0.0657
                0.6280  -6.8225e-005   1.0420e-005   1.7842e-003  -2.4561e+006  -1.0339e+005   7.3511e+006    0.0000    0.0031    0.0000    0.0020    0.0656
                0.6457   1.4558e-004  -3.2791e-005   1.7785e-003   5.2112e+006   1.3037e+005   7.3274e+006    0.0052   -0.0000    0.0025   -0.0000    0.0654
                0.6519   1.9342e-004  -4.3479e-005   1.7756e-003   6.9239e+006   1.7396e+005   7.3154e+006    0.0069   -0.0000    0.0034   -0.0000    0.0653

               lamina:  3     
              matName:  (TEP-core)
                     s           e11           e22           e12           s11           s22           s12   s11_fcT   s11_fcC   s22_fcT   s22_fcC   s12_fcS
                   (m)         (m/m)         (m/m)         (rad)          (Pa)          (Pa)          (Pa)       (-)       (-)       (-)       (-)       (-)
                0.0000  -2.3678e-003   5.2755e-004   4.2361e-004  -5.1698e+005  -5.9818e+004   4.1513e+004    0.0000    0.1205    0.0000    0.0139    0.0141
                0.0043  -2.3616e-003   5.2617e-004   4.3928e-004  -5.1563e+005  -5.9660e+004   4.3049e+004    0.0000    0.1202    0.0000    0.0139    0.0146
                0.0438  -2.2953e-003   5.1137e-004   5.8208e-004  -5.0116e+005  -5.7995e+004   5.7044e+004    0.0000    0.1168    0.0000    0.0135    0.0193
                0.0821  -2.2296e-003   4.9669e-004   7.1620e-004  -4.8680e+005  -5.6339e+004   7.0187e+004    0.0000    0.1135    0.0000    0.0131    0.0238
                0.1207  -2.1386e-003   4.7638e-004   8.4593e-004  -4.6694e+005  -5.4050e+004   8.2901e+004    0.0000    0.1088    0.0000    0.0126    0.0281
                0.1590  -2.0487e-003   4.5630e-004   9.6869e-004  -4.4731e+005  -5.1789e+004   9.4931e+004    0.0000    0.1043    0.0000    0.0121    0.0322
                0.1962  -1.9515e-003   4.3461e-004   1.0824e-003  -4.2610e+005  -4.9343e+004   1.0607e+005    0.0000    0.0993    0.0000    0.0115    0.0360
                0.2333  -1.8423e-003   4.1023e-004   1.1890e-003  -4.0226e+005  -4.6598e+004   1.1652e+005    0.0000    0.0938    0.0000    0.0109    0.0395
                0.2690  -1.7373e-003   3.8680e-004   1.2852e-003  -3.7935e+005  -4.3957e+004   1.2595e+005    0.0000    0.0884    0.0000    0.0102    0.0427
                0.3040  -1.6185e-003   3.6026e-004   1.3731e-003  -3.5339e+005  -4.0965e+004   1.3456e+005    0.0000    0.0824    0.0000    0.0095    0.0456
                0.3382  -1.4989e-003   3.3357e-004   1.4520e-003  -3.2730e+005  -3.7959e+004   1.4229e+005    0.0000    0.0763    0.0000    0.0088    0.0482
                0.3702  -1.3832e-003   3.0774e-004   1.5198e-003  -3.0203e+005  -3.5045e+004   1.4894e+005    0.0000    0.0704    0.0000    0.0082    0.0505
                0.4018  -1.2533e-003   2.7875e-004   1.5802e-003  -2.7367e+005  -3.1775e+004   1.5486e+005    0.0000    0.0638    0.0000    0.0074    0.0525
                0.4314  -1.1315e-003   2.5157e-004   1.6308e-003  -2.4710e+005  -2.8712e+004   1.5982e+005    0.0000    0.0576    0.0000    0.0067    0.0542
                0.4594  -1.0051e-003   2.2337e-004   1.6729e-003  -2.1949e+005  -2.5524e+004   1.6394e+005    0.0000    0.0512    0.0000    0.0059    0.0556
                0.4866  -8.7387e-004   1.9408e-004   1.7080e-003  -1.9085e+005  -2.2223e+004   1.6738e+005    0.0000    0.0445    0.0000    0.0052    0.0567
                0.5102  -7.5897e-004   1.6847e-004   1.7339e-003  -1.6576e+005  -1.9321e+004   1.6992e+005    0.0000    0.0386    0.0000    0.0045    0.0576
                0.5340  -6.2311e-004   1.3820e-004   1.7551e-003  -1.3610e+005  -1.5889e+004   1.7200e+005    0.0000    0.0317    0.0000    0.0037    0.0583
                0.5556  -4.9840e-004   1.1039e-004   1.7698e-003  -1.0887e+005  -1.2746e+004   1.7344e+005    0.0000    0.0254    0.0000    0.0030    0.0588
                0.5741  -3.8383e-004   8.4927e-005   1.7788e-003  -8.3849e+004  -9.8355e+003   1.7433e+005    0.0000    0.0195    0.0000    0.0023    0.0591
                0.5940  -2.4602e-004   5.4239e-005   1.7846e-003  -5.3761e+004  -6.3509e+003   1.7489e+005    0.0000    0.0125    0.0000    0.0015    0.0593
                0.6079  -1.4897e-004   3.2755e-005   1.7861e-003  -3.2559e+004  -3.8657e+003   1.7504e+005    0.0000    0.0076    0.0000    0.0009    0.0593
                0.6280   1.8026e-005  -3.7029e-006   1.7842e-003   3.9601e+003   5.2923e+002   1.7486e+005    0.0009   -0.0000    0.0001   -0.0000    0.0593
                0.6457   1.5455e-004  -3.4260e-005   1.7785e-003   3.3757e+004   3.9454e+003   1.7429e+005    0.0079   -0.0000    0.0009   -0.0000    0.0591
                0.6519   2.0239e-004  -4.4948e-005   1.7756e-003   4.4201e+004   5.1472e+003   1.7401e+005    0.0103   -0.0000    0.0012   -0.0000    0.0590

               lamina:  4     
              matName:  (blade-root)
                     s           e11           e22           e12           s11           s22           s12   s11_fcT   s11_fcC   s22_fcT   s22_fcC   s12_fcS
                   (m)         (m/m)         (m/m)         (rad)          (Pa)          (Pa)          (Pa)       (-)       (-)       (-)       (-)       (-)
                0.0000  -2.3199e-003   5.1970e-004   4.2361e-004  -8.3049e+007  -2.1017e+006   1.7453e+006    0.0000    0.1054    0.0000    0.0410    0.0156
                0.0043  -2.3139e-003   5.1837e-004   4.3928e-004  -8.2836e+007  -2.0963e+006   1.8098e+006    0.0000    0.1051    0.0000    0.0409    0.0162
                0.0438  -2.2477e-003   5.0357e-004   5.8208e-004  -8.0466e+007  -2.0360e+006   2.3982e+006    0.0000    0.1021    0.0000    0.0398    0.0214
                0.0821  -2.1824e-003   4.8897e-004   7.1620e-004  -7.8129e+007  -1.9767e+006   2.9507e+006    0.0000    0.0991    0.0000    0.0386    0.0263
                0.1207  -2.0920e-003   4.6876e-004   8.4593e-004  -7.4893e+007  -1.8944e+006   3.4852e+006    0.0000    0.0950    0.0000    0.0370    0.0311
                0.1590  -2.0024e-003   4.4872e-004   9.6869e-004  -7.1683e+007  -1.8128e+006   3.9910e+006    0.0000    0.0910    0.0000    0.0354    0.0356
                0.1962  -1.9058e-003   4.2714e-004   1.0824e-003  -6.8227e+007  -1.7250e+006   4.4593e+006    0.0000    0.0866    0.0000    0.0337    0.0398
                0.2333  -1.7971e-003   4.0283e-004   1.1890e-003  -6.4333e+007  -1.6260e+006   4.8988e+006    0.0000    0.0816    0.0000    0.0318    0.0437
                0.2690  -1.6927e-003   3.7948e-004   1.2852e-003  -6.0595e+007  -1.5310e+006   5.2951e+006    0.0000    0.0769    0.0000    0.0299    0.0473
                0.3040  -1.5746e-003   3.5308e-004   1.3731e-003  -5.6368e+007  -1.4236e+006   5.6570e+006    0.0000    0.0715    0.0000    0.0278    0.0505
                0.3382  -1.4554e-003   3.2644e-004   1.4520e-003  -5.2100e+007  -1.3151e+006   5.9821e+006    0.0000    0.0661    0.0000    0.0257    0.0534
                0.3702  -1.3407e-003   3.0078e-004   1.5198e-003  -4.7993e+007  -1.2108e+006   6.2617e+006    0.0000    0.0609    0.0000    0.0236    0.0559
                0.4018  -1.2117e-003   2.7193e-004   1.5802e-003  -4.3375e+007  -1.0935e+006   6.5106e+006    0.0000    0.0550    0.0000    0.0214    0.0581
                0.4314  -1.0907e-003   2.4488e-004   1.6308e-003  -3.9044e+007  -9.8343e+005   6.7189e+006    0.0000    0.0495    0.0000    0.0192    0.0600
                0.4594  -9.6577e-004   2.1693e-004   1.6729e-003  -3.4572e+007  -8.7000e+005   6.8923e+006    0.0000    0.0439    0.0000    0.0170    0.0615
                0.4866  -8.3534e-004   1.8777e-004   1.7080e-003  -2.9903e+007  -7.5136e+005   7.0369e+006    0.0000    0.0379    0.0000    0.0147    0.0628
                0.5102  -7.2267e-004   1.6253e-004   1.7339e-003  -2.5869e+007  -6.4925e+005   7.1435e+006    0.0000    0.0328    0.0000    0.0127    0.0638
                0.5340  -5.8945e-004   1.3269e-004   1.7551e-003  -2.1100e+007  -5.2853e+005   7.2308e+006    0.0000    0.0268    0.0000    0.0103    0.0646
                0.5556  -4.6626e-004   1.0512e-004   1.7698e-003  -1.6690e+007  -4.1667e+005   7.2916e+006    0.0000    0.0212    0.0000    0.0081    0.0651
                0.5741  -3.5628e-004   8.0417e-005   1.7788e-003  -1.2753e+007  -3.1763e+005   7.3288e+006    0.0000    0.0162    0.0000    0.0062    0.0654
                0.5940  -2.2175e-004   5.0265e-005   1.7846e-003  -7.9368e+006  -1.9587e+005   7.3526e+006    0.0000    0.0101    0.0000    0.0038    0.0656
                0.6079  -1.3139e-004   2.9877e-005   1.7861e-003  -4.7023e+006  -1.1524e+005   7.3587e+006    0.0000    0.0060    0.0000    0.0023    0.0657
                0.6280   9.3409e-005  -1.6046e-005   1.7842e-003   3.3577e+006   1.2634e+005   7.3511e+006    0.0033   -0.0000    0.0025   -0.0000    0.0656
                0.6457   2.1676e-004  -4.4445e-005   1.7785e-003   7.7713e+006   2.3153e+005   7.3274e+006    0.0077   -0.0000    0.0045   -0.0000    0.0654
                0.6519   2.6460e-004  -5.5133e-005   1.7756e-003   9.4840e+006   2.7512e+005   7.3154e+006    0.0094   -0.0000    0.0054   -0.0000    0.0653

               lamina:  5     
              matName:  (blade-shell)
                     s           e11           e22           e12           s11           s22           s12   s11_fcT   s11_fcC   s22_fcT   s22_fcC   s12_fcS
                   (m)         (m/m)         (m/m)         (rad)          (Pa)          (Pa)          (Pa)       (-)       (-)       (-)       (-)       (-)
                0.0000  -1.9873e-003   4.6524e-004   4.2361e-004  -3.7630e+007   4.0407e+006   1.6732e+006    0.0000    0.0757    0.0120   -0.0000    0.0145
                0.0043  -1.9832e-003   4.6421e-004   4.3928e-004  -3.7553e+007   4.0309e+006   1.7351e+006    0.0000    0.0756    0.0120   -0.0000    0.0151
                0.0438  -1.9174e-003   4.4948e-004   5.8208e-004  -3.6305e+007   3.9104e+006   2.2992e+006    0.0000    0.0730    0.0116   -0.0000    0.0200
                0.0821  -1.8557e-003   4.3547e-004   7.1620e-004  -3.5135e+007   3.7933e+006   2.8290e+006    0.0000    0.0707    0.0113   -0.0000    0.0246
                0.1207  -1.7692e-003   4.1590e-004   8.4593e-004  -3.3497e+007   3.6307e+006   3.3414e+006    0.0000    0.0674    0.0108   -0.0000    0.0291
                0.1590  -1.6813e-003   3.9615e-004   9.6869e-004  -3.1830e+007   3.4681e+006   3.8263e+006    0.0000    0.0640    0.0103   -0.0000    0.0333
                0.1962  -1.5892e-003   3.7529e-004   1.0824e-003  -3.0085e+007   3.2946e+006   4.2753e+006    0.0000    0.0605    0.0098   -0.0000    0.0372
                0.2333  -1.4833e-003   3.5145e-004   1.1890e-003  -2.8076e+007   3.0978e+006   4.6967e+006    0.0000    0.0565    0.0092   -0.0000    0.0408
                0.2690  -1.3829e-003   3.2876e-004   1.2852e-003  -2.6174e+007   2.9097e+006   5.0766e+006    0.0000    0.0527    0.0086   -0.0000    0.0441
                0.3040  -1.2704e-003   3.0327e-004   1.3731e-003  -2.4041e+007   2.6975e+006   5.4236e+006    0.0000    0.0484    0.0080   -0.0000    0.0472
                0.3382  -1.1535e-003   2.7700e-004   1.4520e-003  -2.1824e+007   2.4813e+006   5.7352e+006    0.0000    0.0439    0.0074   -0.0000    0.0499
                0.3702  -1.0456e-003   2.5247e-004   1.5198e-003  -1.9781e+007   2.2760e+006   6.0033e+006    0.0000    0.0398    0.0068   -0.0000    0.0522
                0.4018  -9.2298e-004   2.2466e-004   1.5802e-003  -1.7456e+007   2.0443e+006   6.2419e+006    0.0000    0.0351    0.0061   -0.0000    0.0543
                0.4314  -8.0729e-004   1.9848e-004   1.6308e-003  -1.5263e+007   1.8267e+006   6.4417e+006    0.0000    0.0307    0.0054   -0.0000    0.0560
                0.4594  -6.9311e-004   1.7229e-004   1.6729e-003  -1.3099e+007   1.6050e+006   6.6079e+006    0.0000    0.0264    0.0048   -0.0000    0.0575
                0.4866  -5.6811e-004   1.4401e-004   1.7080e-003  -1.0730e+007   1.3702e+006   6.7465e+006    0.0000    0.0216    0.0041   -0.0000    0.0587
                0.5102  -4.7086e-004   1.2130e-004   1.7339e-003  -8.8880e+006   1.1735e+006   6.8488e+006    0.0000    0.0179    0.0035   -0.0000    0.0596
                0.5340  -3.5596e-004   9.4459e-005   1.7551e-003  -6.7121e+006   9.4103e+005   6.9325e+006    0.0000    0.0135    0.0028   -0.0000    0.0603
                0.5556  -2.4337e-004   6.8627e-005   1.7698e-003  -4.5787e+006   7.2240e+005   6.9907e+006    0.0000    0.0092    0.0021   -0.0000    0.0608
                0.5741  -1.6522e-004   4.9133e-005   1.7788e-003  -3.1021e+006   5.4008e+005   7.0264e+006    0.0000    0.0062    0.0016   -0.0000    0.0611
                0.5940  -5.3392e-005   2.2697e-005   1.7846e-003  -9.8513e+005   3.0772e+005   7.0493e+006    0.0000    0.0020    0.0009   -0.0000    0.0613
                0.6079   5.1571e-005   9.9120e-006   1.7861e-003   1.0070e+006   1.6957e+005   7.0550e+006    0.0030   -0.0000    0.0005   -0.0000    0.0613
                0.6280   1.3114e-004  -2.2224e-005   1.7842e-003   2.5047e+006  -1.0109e+005   7.0477e+006    0.0074   -0.0000    0.0000    0.0003    0.0613
                0.6457   2.4789e-004  -4.9544e-005   1.7785e-003   4.7156e+006  -3.3821e+005   7.0250e+006    0.0140   -0.0000    0.0000    0.0010    0.0611
                0.6519   2.9573e-004  -6.0232e-005   1.7756e-003   5.6228e+006  -4.2549e+005   7.0135e+006    0.0167   -0.0000    0.0000    0.0013    0.0610

  Bottom:  panel  nNode   nLam     xc_St    xc_End         b         t         E_eff         G_eff      nu_eff     density  buckleCrit
            (-)    (-)    (-)       (-)       (-)       (m)       (m)          (Pa)          (Pa)         (-)    (kg/m^3)         (-)
              1     18      5    0.0000    0.2411    0.4215    0.0367   3.0092e+010   4.0511e+009      0.2233   1738.5570      0.0003
              2     12      7    0.2411    0.5589    0.3934    0.0401   3.8308e+010   4.1181e+009      0.2286   1718.6381      0.0000
              3     25      5    0.5589    1.0000    0.6351    0.0383   2.8811e+010   3.8815e+009      0.2234   1672.5679      0.0006

            panel:  1     
           lam_num    nPlies        tPly      fibAng     matID  matName
               (-)       (-)         (m)       (deg)       (-)  (-)
                 1         1    0.006094      0.0000         2  (blade-shell)
                 2         1    0.012175      0.0000         1  (blade-root)
                 3         1    0.000113      0.0000         5  (LEP-core)
                 4         1    0.012175      0.0000         1  (blade-root)
                 5         1    0.006094      0.0000         2  (blade-shell)

               lamina:  1     
              matName:  (blade-shell)
                     s           e11           e22           e12           s11           s22           s12   s11_fcT   s11_fcC   s22_fcT   s22_fcC   s12_fcS
                   (m)         (m/m)         (m/m)         (rad)          (Pa)          (Pa)          (Pa)       (-)       (-)       (-)       (-)       (-)
                0.0000   6.8327e-005  -1.0640e-005   2.0414e-003   1.3074e+006  -3.4324e+004   8.0635e+006    0.0039   -0.0000    0.0000    0.0001    0.0701
                0.0080   1.3083e-004  -2.4598e-005   2.0425e-003   2.4927e+006  -1.4824e+005   8.0679e+006    0.0074   -0.0000    0.0000    0.0004    0.0702
                0.0315   3.3036e-004  -6.8118e-005   2.0412e-003   6.2791e+006  -4.9159e+005   8.0626e+006    0.0186   -0.0000    0.0000    0.0015    0.0701
                0.0586   6.0113e-004  -1.2477e-004   2.0311e-003   1.1423e+007  -9.1057e+005   8.0230e+006    0.0339   -0.0000    0.0000    0.0027    0.0698
                0.0766   7.9616e-004  -1.6420e-004   2.0196e-003   1.5132e+007  -1.1855e+006   7.9775e+006    0.0449   -0.0000    0.0000    0.0035    0.0694
                0.1013   1.0107e-003  -2.0980e-004   1.9978e-003   1.9207e+007  -1.5313e+006   7.8914e+006    0.0570   -0.0000    0.0000    0.0045    0.0686
                0.1227   1.2084e-003  -2.5040e-004   1.9734e-003   2.2964e+007  -1.8223e+006   7.7949e+006    0.0681   -0.0000    0.0000    0.0054    0.0678
                0.1468   1.3788e-003  -2.8718e-004   1.9403e-003   2.6200e+007  -2.1079e+006   7.6640e+006    0.0777   -0.0000    0.0000    0.0063    0.0666
                0.1730   1.5788e-003  -3.2939e-004   1.8978e-003   2.9999e+007  -2.4244e+006   7.4961e+006    0.0890   -0.0000    0.0000    0.0072    0.0652
                0.1972   1.7379e-003  -3.6272e-004   1.8527e-003   3.3020e+007  -2.6716e+006   7.3181e+006    0.0980   -0.0000    0.0000    0.0079    0.0636
                0.2253   1.8947e-003  -3.9692e-004   1.7945e-003   3.5997e+007  -2.9413e+006   7.0884e+006    0.1068   -0.0000    0.0000    0.0087    0.0616
                0.2533   2.0516e-003  -4.3030e-004   1.7302e-003   3.8975e+007  -3.1949e+006   6.8341e+006    0.1157   -0.0000    0.0000    0.0095    0.0594
                0.2825   2.1828e-003  -4.5879e-004   1.6570e-003   4.1466e+007  -3.4182e+006   6.5453e+006    0.1230   -0.0000    0.0000    0.0101    0.0569
                0.3135   2.3246e-003  -4.8945e-004   1.5731e-003   4.4156e+007  -3.6572e+006   6.2139e+006    0.1310   -0.0000    0.0000    0.0109    0.0540
                0.3443   2.4397e-003  -5.1412e-004   1.4842e-003   4.6342e+007  -3.8467e+006   5.8628e+006    0.1375   -0.0000    0.0000    0.0114    0.0510
                0.3773   2.5451e-003  -5.3734e-004   1.3834e-003   4.8342e+007  -4.0324e+006   5.4643e+006    0.1434   -0.0000    0.0000    0.0120    0.0475
                0.4112   2.6490e-003  -5.6007e-004   1.2740e-003   5.0314e+007  -4.2126e+006   5.0324e+006    0.1493   -0.0000    0.0000    0.0125    0.0438
                0.4215   2.6822e-003  -5.6670e-004   1.2401e-003   5.0945e+007  -4.2578e+006   4.8983e+006    0.1512   -0.0000    0.0000    0.0126    0.0426

               lamina:  2     
              matName:  (blade-root)
                     s           e11           e22           e12           s11           s22           s12   s11_fcT   s11_fcC   s22_fcT   s22_fcC   s12_fcS
                   (m)         (m/m)         (m/m)         (rad)          (Pa)          (Pa)          (Pa)       (-)       (-)       (-)       (-)       (-)
                0.0000   4.3579e-005  -6.6491e-006   2.0414e-003   1.5688e+006   6.6095e+004   8.4105e+006    0.0016   -0.0000    0.0013   -0.0000    0.0751
                0.0080   1.0609e-004  -2.0608e-005   2.0425e-003   3.8067e+006   1.2310e+005   8.4151e+006    0.0038   -0.0000    0.0024   -0.0000    0.0751
                0.0315   3.0005e-004  -6.3230e-005   2.0412e-003   1.0753e+007   3.0592e+005   8.4096e+006    0.0107   -0.0000    0.0060   -0.0000    0.0751
                0.0586   5.5039e-004  -1.1659e-004   2.0311e-003   1.9722e+007   5.5599e+005   8.3682e+006    0.0196   -0.0000    0.0109   -0.0000    0.0747
                0.0766   7.2333e-004  -1.5246e-004   2.0196e-003   2.5922e+007   7.3723e+005   8.3209e+006    0.0258   -0.0000    0.0144   -0.0000    0.0743
                0.1013   9.2547e-004  -1.9605e-004   1.9978e-003   3.3163e+007   9.3480e+005   8.2310e+006    0.0330   -0.0000    0.0183   -0.0000    0.0735
                0.1227   1.1041e-003  -2.3359e-004   1.9734e-003   3.9566e+007   1.1180e+006   8.1304e+006    0.0394   -0.0000    0.0218   -0.0000    0.0726
                0.1468   1.2677e-003  -2.6926e-004   1.9403e-003   4.5425e+007   1.2745e+006   7.9938e+006    0.0452   -0.0000    0.0249   -0.0000    0.0714
                0.1730   1.4546e-003  -3.0935e-004   1.8978e-003   5.2119e+007   1.4589e+006   7.8188e+006    0.0519   -0.0000    0.0285   -0.0000    0.0698
                0.1972   1.6019e-003  -3.4079e-004   1.8527e-003   5.7398e+007   1.6057e+006   7.6330e+006    0.0571   -0.0000    0.0314   -0.0000    0.0682
                0.2253   1.7544e-003  -3.7428e-004   1.7945e-003   6.2857e+007   1.7495e+006   7.3935e+006    0.0625   -0.0000    0.0342   -0.0000    0.0660
                0.2533   1.9024e-003  -4.0623e-004   1.7302e-003   6.8159e+007   1.8939e+006   7.1283e+006    0.0678   -0.0000    0.0370   -0.0000    0.0636
                0.2825   2.0292e-003  -4.3402e-004   1.6570e-003   7.2703e+007   2.0142e+006   6.8270e+006    0.0723   -0.0000    0.0393   -0.0000    0.0610
                0.3135   2.1657e-003  -4.6383e-004   1.5731e-003   7.7589e+007   2.1443e+006   6.4813e+006    0.0772   -0.0000    0.0419   -0.0000    0.0579
                0.3443   2.2752e-003  -4.8760e-004   1.4842e-003   8.1513e+007   2.2502e+006   6.1151e+006    0.0811   -0.0000    0.0439   -0.0000    0.0546
                0.3773   2.3789e-003  -5.1054e-004   1.3834e-003   8.5226e+007   2.3466e+006   5.6995e+006    0.0848   -0.0000    0.0458   -0.0000    0.0509
                0.4112   2.4803e-003  -5.3286e-004   1.2740e-003   8.8855e+007   2.4417e+006   5.2489e+006    0.0884   -0.0000    0.0477   -0.0000    0.0469
                0.4215   2.5093e-003  -5.3881e-004   1.2401e-003   8.9895e+007   2.4726e+006   5.1091e+006    0.0894   -0.0000    0.0483   -0.0000    0.0456

               lamina:  3     
              matName:  (LEP-core)
                     s           e11           e22           e12           s11           s22           s12   s11_fcT   s11_fcC   s22_fcT   s22_fcC   s12_fcS
                   (m)         (m/m)         (m/m)         (rad)          (Pa)          (Pa)          (Pa)       (-)       (-)       (-)       (-)       (-)
                0.0000  -6.3256e-006   1.3984e-006   2.0414e-003  -1.3820e+003  -1.6239e+002   2.0006e+005    0.0000    0.0003    0.0000    0.0000    0.0678
                0.0080   5.6639e-005  -1.2634e-005   2.0425e-003   1.2365e+004   1.4274e+003   2.0016e+005    0.0029   -0.0000    0.0003   -0.0000    0.0679
                0.0315   2.3949e-004  -5.3465e-005   2.0412e-003   5.2282e+004   6.0255e+003   2.0003e+005    0.0122   -0.0000    0.0014   -0.0000    0.0678
                0.0586   4.4900e-004  -1.0024e-004   2.0311e-003   9.8018e+004   1.1296e+004   1.9905e+005    0.0228   -0.0000    0.0026   -0.0000    0.0675
                0.0766   5.7783e-004  -1.2899e-004   2.0196e-003   1.2614e+005   1.4538e+004   1.9792e+005    0.0294   -0.0000    0.0034   -0.0000    0.0671
                0.1013   7.5516e-004  -1.6859e-004   1.9978e-003   1.6485e+005   1.8998e+004   1.9579e+005    0.0384   -0.0000    0.0044   -0.0000    0.0664
                0.1227   8.9588e-004  -2.0000e-004   1.9734e-003   1.9557e+005   2.2538e+004   1.9339e+005    0.0456   -0.0000    0.0053   -0.0000    0.0656
                0.1468   1.0457e-003  -2.3346e-004   1.9403e-003   2.2829e+005   2.6307e+004   1.9014e+005    0.0532   -0.0000    0.0061   -0.0000    0.0645
                0.1730   1.2063e-003  -2.6931e-004   1.8978e-003   2.6334e+005   3.0346e+004   1.8598e+005    0.0614   -0.0000    0.0071   -0.0000    0.0630
                0.1972   1.3302e-003  -2.9698e-004   1.8527e-003   2.9040e+005   3.3464e+004   1.8156e+005    0.0677   -0.0000    0.0078   -0.0000    0.0615
                0.2253   1.4739e-003  -3.2905e-004   1.7945e-003   3.2174e+005   3.7075e+004   1.7586e+005    0.0750   -0.0000    0.0086   -0.0000    0.0596
                0.2533   1.6042e-003  -3.5815e-004   1.7302e-003   3.5019e+005   4.0353e+004   1.6956e+005    0.0816   -0.0000    0.0094   -0.0000    0.0575
                0.2825   1.7224e-003  -3.8454e-004   1.6570e-003   3.7599e+005   4.3325e+004   1.6239e+005    0.0876   -0.0000    0.0101   -0.0000    0.0550
                0.3135   1.8482e-003  -4.1264e-004   1.5731e-003   4.0347e+005   4.6490e+004   1.5417e+005    0.0940   -0.0000    0.0108   -0.0000    0.0523
                0.3443   1.9466e-003  -4.3461e-004   1.4842e-003   4.2495e+005   4.8965e+004   1.4546e+005    0.0991   -0.0000    0.0114   -0.0000    0.0493
                0.3773   2.0468e-003  -4.5698e-004   1.3834e-003   4.4682e+005   5.1484e+004   1.3557e+005    0.1042   -0.0000    0.0120   -0.0000    0.0460
                0.4112   2.1431e-003  -4.7849e-004   1.2740e-003   4.6784e+005   5.3906e+004   1.2485e+005    0.1091   -0.0000    0.0126   -0.0000    0.0423
                0.4215   2.1637e-003  -4.8309e-004   1.2401e-003   4.7234e+005   5.4425e+004   1.2153e+005    0.1101   -0.0000    0.0127   -0.0000    0.0412

               lamina:  4     
              matName:  (blade-root)
                     s           e11           e22           e12           s11           s22           s12   s11_fcT   s11_fcC   s22_fcT   s22_fcC   s12_fcS
                   (m)         (m/m)         (m/m)         (rad)          (Pa)          (Pa)          (Pa)       (-)       (-)       (-)       (-)       (-)
                0.0000  -5.5772e-005   9.3719e-006   2.0414e-003  -2.0054e+006  -7.7215e+004   8.4105e+006    0.0000    0.0025    0.0000    0.0015    0.0751
                0.0080   5.6181e-005  -1.2560e-005   2.0425e-003   2.0113e+006   5.1116e+004   8.4151e+006    0.0020   -0.0000    0.0010   -0.0000    0.0751
                0.0315   2.3893e-004  -5.3374e-005   2.0412e-003   8.5540e+006   2.1776e+005   8.4096e+006    0.0085   -0.0000    0.0043   -0.0000    0.0751
                0.0586   4.4806e-004  -1.0009e-004   2.0311e-003   1.6041e+007   4.0839e+005   8.3682e+006    0.0160   -0.0000    0.0080   -0.0000    0.0747
                0.0766   5.7648e-004  -1.2878e-004   2.0196e-003   2.0638e+007   5.2540e+005   8.3209e+006    0.0205   -0.0000    0.0103   -0.0000    0.0743
                0.1013   7.5358e-004  -1.6833e-004   1.9978e-003   2.6979e+007   6.8685e+005   8.2310e+006    0.0268   -0.0000    0.0134   -0.0000    0.0735
                0.1227   8.9394e-004  -1.9969e-004   1.9734e-003   3.2004e+007   8.1477e+005   8.1304e+006    0.0318   -0.0000    0.0159   -0.0000    0.0726
                0.1468   1.0437e-003  -2.3313e-004   1.9403e-003   3.7365e+007   9.5130e+005   7.9938e+006    0.0372   -0.0000    0.0186   -0.0000    0.0714
                0.1730   1.2040e-003  -2.6894e-004   1.8978e-003   4.3105e+007   1.0975e+006   7.8188e+006    0.0429   -0.0000    0.0214   -0.0000    0.0698
                0.1972   1.3277e-003  -2.9658e-004   1.8527e-003   4.7534e+007   1.2102e+006   7.6330e+006    0.0473   -0.0000    0.0236   -0.0000    0.0682
                0.2253   1.4713e-003  -3.2863e-004   1.7945e-003   5.2672e+007   1.3411e+006   7.3935e+006    0.0524   -0.0000    0.0262   -0.0000    0.0660
                0.2533   1.6014e-003  -3.5770e-004   1.7302e-003   5.7332e+007   1.4598e+006   7.1283e+006    0.0570   -0.0000    0.0285   -0.0000    0.0636
                0.2825   1.7195e-003  -3.8408e-004   1.6570e-003   6.1560e+007   1.5675e+006   6.8270e+006    0.0613   -0.0000    0.0306   -0.0000    0.0610
                0.3135   1.8453e-003  -4.1217e-004   1.5731e-003   6.6062e+007   1.6821e+006   6.4813e+006    0.0657   -0.0000    0.0329   -0.0000    0.0579
                0.3443   1.9436e-003  -4.3412e-004   1.4842e-003   6.9581e+007   1.7717e+006   6.1151e+006    0.0692   -0.0000    0.0346   -0.0000    0.0546
                0.3773   2.0437e-003  -4.5648e-004   1.3834e-003   7.3167e+007   1.8631e+006   5.6995e+006    0.0728   -0.0000    0.0364   -0.0000    0.0509
                0.4112   2.1400e-003  -4.7798e-004   1.2740e-003   7.6613e+007   1.9509e+006   5.2489e+006    0.0762   -0.0000    0.0381   -0.0000    0.0469
                0.4215   2.1605e-003  -4.8257e-004   1.2401e-003   7.7349e+007   1.9696e+006   5.1091e+006    0.0770   -0.0000    0.0385   -0.0000    0.0456

               lamina:  5     
              matName:  (blade-shell)
                     s           e11           e22           e12           s11           s22           s12   s11_fcT   s11_fcC   s22_fcT   s22_fcC   s12_fcS
                   (m)         (m/m)         (m/m)         (rad)          (Pa)          (Pa)          (Pa)       (-)       (-)       (-)       (-)       (-)
                0.0000  -8.0520e-005   1.3363e-005   2.0414e-003  -1.5386e+006   5.6544e+004   8.0635e+006    0.0000    0.0031    0.0002   -0.0000    0.0701
                0.0080  -1.8013e-005  -4.5866e-006   2.0425e-003  -3.5330e+005  -7.2477e+004   8.0679e+006    0.0000    0.0007    0.0000    0.0002    0.0702
                0.0315   1.7837e-004  -4.3608e-005   2.0412e-003   3.3729e+006  -3.9880e+005   8.0626e+006    0.0100   -0.0000    0.0000    0.0012    0.0701
                0.0586   3.4668e-004  -8.3738e-005   2.0311e-003   6.5580e+006  -7.5523e+005   8.0230e+006    0.0195   -0.0000    0.0000    0.0022    0.0698
                0.0766   4.3097e-004  -1.0531e-004   2.0196e-003   8.1495e+006  -9.6256e+005   7.9775e+006    0.0242   -0.0000    0.0000    0.0029    0.0694
                0.1013   5.8327e-004  -1.4087e-004   1.9978e-003   1.1034e+007  -1.2703e+006   7.8914e+006    0.0327   -0.0000    0.0000    0.0038    0.0686
                0.1227   6.8567e-004  -1.6610e-004   1.9734e-003   1.2969e+007  -1.5032e+006   7.7949e+006    0.0385   -0.0000    0.0000    0.0045    0.0678
                0.1468   8.2170e-004  -1.9733e-004   1.9403e-003   1.5547e+007  -1.7677e+006   7.6640e+006    0.0461   -0.0000    0.0000    0.0052    0.0666
                0.1730   9.5574e-004  -2.2891e-004   1.8978e-003   1.8085e+007  -2.0440e+006   7.4961e+006    0.0537   -0.0000    0.0000    0.0061    0.0652
                0.1972   1.0561e-003  -2.5277e-004   1.8527e-003   1.9983e+007  -2.2553e+006   7.3181e+006    0.0593   -0.0000    0.0000    0.0067    0.0636
                0.2253   1.1908e-003  -2.8340e-004   1.7945e-003   2.2536e+007  -2.5116e+006   7.0884e+006    0.0669   -0.0000    0.0000    0.0075    0.0616
                0.2533   1.3032e-003  -3.0962e-004   1.7302e-003   2.4666e+007  -2.7381e+006   6.8341e+006    0.0732   -0.0000    0.0000    0.0081    0.0594
                0.2825   1.4126e-003  -3.3459e-004   1.6570e-003   2.6739e+007  -2.9480e+006   6.5453e+006    0.0793   -0.0000    0.0000    0.0087    0.0569
                0.3135   1.5278e-003  -3.6097e-004   1.5731e-003   2.8922e+007  -3.1708e+006   6.2139e+006    0.0858   -0.0000    0.0000    0.0094    0.0540
                0.3443   1.6150e-003  -3.8113e-004   1.4842e-003   3.0572e+007  -3.3432e+006   5.8628e+006    0.0907   -0.0000    0.0000    0.0099    0.0510
                0.3773   1.7116e-003  -4.0293e-004   1.3834e-003   3.2405e+007  -3.5236e+006   5.4643e+006    0.0962   -0.0000    0.0000    0.0105    0.0475
                0.4112   1.8028e-003  -4.2362e-004   1.2740e-003   3.4134e+007  -3.6960e+006   5.0324e+006    0.1013   -0.0000    0.0000    0.0110    0.0438
                0.4215   1.8150e-003  -4.2685e-004   1.2401e-003   3.4363e+007  -3.7284e+006   4.8983e+006    0.1020   -0.0000    0.0000    0.0111    0.0426

            panel:  2     
           lam_num    nPlies        tPly      fibAng     matID  matName
               (-)       (-)         (m)       (deg)       (-)  (-)
                 1         1    0.006094      0.0000         2  (blade-shell)
                 2         1    0.012175      0.0000         1  (blade-root)
                 3         1    0.001755      0.0000         3  (spar-uni)
                 4         1    0.000019      0.0000         4  (spar-core)
                 5         1    0.001755      0.0000         3  (spar-uni)
                 6         1    0.012175      0.0000         1  (blade-root)
                 7         1    0.006094      0.0000         2  (blade-shell)

               lamina:  1     
              matName:  (blade-shell)
                     s           e11           e22           e12           s11           s22           s12   s11_fcT   s11_fcC   s22_fcT   s22_fcC   s12_fcS
                   (m)         (m/m)         (m/m)         (rad)          (Pa)          (Pa)          (Pa)       (-)       (-)       (-)       (-)       (-)
                0.0000   2.8522e-003  -6.0825e-004   1.3793e-003   5.4159e+007  -4.6378e+006   5.4482e+006    0.1607   -0.0000    0.0000    0.0138    0.0474
                0.0233   2.9000e-003  -6.1919e-004   1.2814e-003   5.5066e+007  -4.7299e+006   5.0614e+006    0.1634   -0.0000    0.0000    0.0140    0.0440
                0.0587   2.9795e-003  -6.3695e-004   1.1278e-003   5.6573e+007  -4.8749e+006   4.4547e+006    0.1679   -0.0000    0.0000    0.0145    0.0387
                0.0940   3.0412e-003  -6.5048e-004   9.6949e-004   5.7743e+007  -4.9826e+006   3.8295e+006    0.1713   -0.0000    0.0000    0.0148    0.0333
                0.1308   3.0832e-003  -6.5991e-004   8.0123e-004   5.8540e+007  -5.0600e+006   3.1648e+006    0.1737   -0.0000    0.0000    0.0150    0.0275
                0.1676   3.1274e-003  -6.6971e-004   6.2896e-004   5.9377e+007  -5.1394e+006   2.4844e+006    0.1762   -0.0000    0.0000    0.0153    0.0216
                0.2048   3.1348e-003  -6.7127e-004   4.5318e-004   5.9518e+007  -5.1511e+006   1.7901e+006    0.1766   -0.0000    0.0000    0.0153    0.0156
                0.2432   3.1387e-003  -6.7216e-004   2.7036e-004   5.9592e+007  -5.1586e+006   1.0679e+006    0.1768   -0.0000    0.0000    0.0153    0.0093
                0.2813   3.1314e-003  -6.7057e-004   8.8573e-005   5.9454e+007  -5.1460e+006   3.4986e+005    0.1764   -0.0000    0.0000    0.0153    0.0030
                0.3202   3.1013e-003  -6.6381e-004   9.5795e-005   5.8883e+007  -5.0903e+006   3.7839e+005    0.1747   -0.0000    0.0000    0.0151    0.0033
                0.3591   3.0710e-003  -6.5701e-004   2.7926e-004   5.8308e+007  -5.0346e+006   1.1031e+006    0.1730   -0.0000    0.0000    0.0149    0.0096
                0.3934   3.0268e-003  -6.4712e-004   4.3876e-004   5.7471e+007  -4.9534e+006   1.7331e+006    0.1705   -0.0000    0.0000    0.0147    0.0151

               lamina:  2     
              matName:  (blade-root)
                     s           e11           e22           e12           s11           s22           s12   s11_fcT   s11_fcC   s22_fcT   s22_fcC   s12_fcS
                   (m)         (m/m)         (m/m)         (rad)          (Pa)          (Pa)          (Pa)       (-)       (-)       (-)       (-)       (-)
                0.0000   2.6384e-003  -5.7268e-004   1.3793e-003   9.4502e+007   2.5473e+006   5.6827e+006    0.0940   -0.0000    0.0498   -0.0000    0.0507
                0.0233   2.6862e-003  -5.8361e-004   1.2814e-003   9.6214e+007   2.5887e+006   5.2793e+006    0.0957   -0.0000    0.0506   -0.0000    0.0471
                0.0587   2.7637e-003  -6.0103e-004   1.1278e-003   9.8987e+007   2.6584e+006   4.6464e+006    0.0985   -0.0000    0.0519   -0.0000    0.0415
                0.0940   2.8226e-003  -6.1410e-004   9.6949e-004   1.0110e+008   2.7128e+006   3.9943e+006    0.1006   -0.0000    0.0530   -0.0000    0.0357
                0.1308   2.8637e-003  -6.2338e-004   8.0123e-004   1.0257e+008   2.7495e+006   3.3011e+006    0.1021   -0.0000    0.0537   -0.0000    0.0295
                0.1676   2.9065e-003  -6.3296e-004   6.2896e-004   1.0410e+008   2.7883e+006   2.5913e+006    0.1036   -0.0000    0.0545   -0.0000    0.0231
                0.2048   2.9132e-003  -6.3441e-004   4.5318e-004   1.0434e+008   2.7949e+006   1.8671e+006    0.1038   -0.0000    0.0546   -0.0000    0.0167
                0.2432   2.9171e-003  -6.3530e-004   2.7036e-004   1.0448e+008   2.7983e+006   1.1139e+006    0.1040   -0.0000    0.0547   -0.0000    0.0099
                0.2813   2.9102e-003  -6.3377e-004   8.8573e-005   1.0423e+008   2.7919e+006   3.6492e+005    0.1037   -0.0000    0.0545   -0.0000    0.0033
                0.3202   2.8807e-003  -6.2710e-004   9.5795e-005   1.0318e+008   2.7656e+006   3.9468e+005    0.1027   -0.0000    0.0540   -0.0000    0.0035
                0.3591   2.8510e-003  -6.2042e-004   2.7926e-004   1.0211e+008   2.7391e+006   1.1506e+006    0.1016   -0.0000    0.0535   -0.0000    0.0103
                0.3934   2.8078e-003  -6.1068e-004   4.3876e-004   1.0057e+008   2.7005e+006   1.8077e+006    0.1001   -0.0000    0.0527   -0.0000    0.0161

               lamina:  3     
              matName:  (spar-uni)
                     s           e11           e22           e12           s11           s22           s12   s11_fcT   s11_fcC   s22_fcT   s22_fcC   s12_fcS
                   (m)         (m/m)         (m/m)         (rad)          (Pa)          (Pa)          (Pa)       (-)       (-)       (-)       (-)       (-)
                0.0000   2.2111e-003  -5.0159e-004   1.3793e-003   2.7244e+008   1.5173e+006   6.4965e+006    0.1377   -0.0000    0.0253   -0.0000    0.0631
                0.0233   2.2589e-003  -5.1252e-004   1.2814e-003   2.7833e+008   1.5494e+006   6.0353e+006    0.1406   -0.0000    0.0259   -0.0000    0.0586
                0.0587   2.3324e-003  -5.2928e-004   1.1278e-003   2.8738e+008   1.5991e+006   5.3118e+006    0.1452   -0.0000    0.0267   -0.0000    0.0516
                0.0940   2.3858e-003  -5.4143e-004   9.6949e-004   2.9396e+008   1.6354e+006   4.5663e+006    0.1485   -0.0000    0.0273   -0.0000    0.0443
                0.1308   2.4251e-003  -5.5042e-004   8.0123e-004   2.9881e+008   1.6619e+006   3.7738e+006    0.1510   -0.0000    0.0277   -0.0000    0.0366
                0.1676   2.4651e-003  -5.5953e-004   6.2896e-004   3.0373e+008   1.6890e+006   2.9624e+006    0.1535   -0.0000    0.0282   -0.0000    0.0288
                0.2048   2.4706e-003  -5.6078e-004   4.5318e-004   3.0441e+008   1.6928e+006   2.1345e+006    0.1538   -0.0000    0.0283   -0.0000    0.0207
                0.2432   2.4745e-003  -5.6165e-004   2.7036e-004   3.0488e+008   1.6954e+006   1.2734e+006    0.1541   -0.0000    0.0283   -0.0000    0.0124
                0.2813   2.4682e-003  -5.6024e-004   8.8573e-005   3.0412e+008   1.6911e+006   4.1718e+005    0.1537   -0.0000    0.0282   -0.0000    0.0041
                0.3202   2.4399e-003  -5.5377e-004   9.5795e-005   3.0062e+008   1.6720e+006   4.5120e+005    0.1519   -0.0000    0.0279   -0.0000    0.0044
                0.3591   2.4116e-003  -5.4730e-004   2.7926e-004   2.9713e+008   1.6529e+006   1.3153e+006    0.1501   -0.0000    0.0276   -0.0000    0.0128
                0.3934   2.3703e-003  -5.3789e-004   4.3876e-004   2.9205e+008   1.6250e+006   2.0666e+006    0.1476   -0.0000    0.0271   -0.0000    0.0201

               lamina:  4     
              matName:  (spar-core)
                     s           e11           e22           e12           s11           s22           s12   s11_fcT   s11_fcC   s22_fcT   s22_fcC   s12_fcS
                   (m)         (m/m)         (m/m)         (rad)          (Pa)          (Pa)          (Pa)       (-)       (-)       (-)       (-)       (-)
                0.0000   2.1495e-003  -4.9134e-004   1.3793e-003   4.6835e+005   5.1373e+004   1.3517e+005    0.1092   -0.0000    0.0120   -0.0000    0.0458
                0.0233   2.1973e-003  -5.0228e-004   1.2814e-003   4.7877e+005   5.2516e+004   1.2558e+005    0.1116   -0.0000    0.0122   -0.0000    0.0426
                0.0587   2.2702e-003  -5.1894e-004   1.1278e-003   4.9465e+005   5.4258e+004   1.1052e+005    0.1153   -0.0000    0.0126   -0.0000    0.0375
                0.0940   2.3228e-003  -5.3096e-004   9.6949e-004   5.0611e+005   5.5515e+004   9.5010e+004    0.1180   -0.0000    0.0129   -0.0000    0.0322
                0.1308   2.3619e-003  -5.3990e-004   8.0123e-004   5.1463e+005   5.6450e+004   7.8520e+004    0.1200   -0.0000    0.0132   -0.0000    0.0266
                0.1676   2.4015e-003  -5.4895e-004   6.2896e-004   5.2326e+005   5.7396e+004   6.1638e+004    0.1220   -0.0000    0.0134   -0.0000    0.0209
                0.2048   2.4068e-003  -5.5016e-004   4.5318e-004   5.2441e+005   5.7523e+004   4.4412e+004    0.1222   -0.0000    0.0134   -0.0000    0.0151
                0.2432   2.4106e-003  -5.5104e-004   2.7036e-004   5.2525e+005   5.7614e+004   2.6496e+004    0.1224   -0.0000    0.0134   -0.0000    0.0090
                0.2813   2.4045e-003  -5.4964e-004   8.8573e-005   5.2391e+005   5.7468e+004   8.6802e+003    0.1221   -0.0000    0.0134   -0.0000    0.0029
                0.3202   2.3763e-003  -5.4319e-004   9.5795e-005   5.1777e+005   5.6794e+004   9.3879e+003    0.1207   -0.0000    0.0132   -0.0000    0.0032
                0.3591   2.3482e-003  -5.3676e-004   2.7926e-004   5.1164e+005   5.6122e+004   2.7368e+004    0.1193   -0.0000    0.0131   -0.0000    0.0093
                0.3934   2.3072e-003  -5.2739e-004   4.3876e-004   5.0271e+005   5.5143e+004   4.2999e+004    0.1172   -0.0000    0.0129   -0.0000    0.0146

               lamina:  5     
              matName:  (spar-uni)
                     s           e11           e22           e12           s11           s22           s12   s11_fcT   s11_fcC   s22_fcT   s22_fcC   s12_fcS
                   (m)         (m/m)         (m/m)         (rad)          (Pa)          (Pa)          (Pa)       (-)       (-)       (-)       (-)       (-)
                0.0000   2.1488e-003  -4.9123e-004   1.3793e-003   2.6476e+008   1.4435e+006   6.4965e+006    0.1338   -0.0000    0.0241   -0.0000    0.0631
                0.0233   2.1967e-003  -5.0217e-004   1.2814e-003   2.7065e+008   1.4756e+006   6.0353e+006    0.1368   -0.0000    0.0246   -0.0000    0.0586
                0.0587   2.2695e-003  -5.1882e-004   1.1278e-003   2.7963e+008   1.5246e+006   5.3118e+006    0.1413   -0.0000    0.0255   -0.0000    0.0516
                0.0940   2.3221e-003  -5.3084e-004   9.6949e-004   2.8611e+008   1.5599e+006   4.5663e+006    0.1446   -0.0000    0.0260   -0.0000    0.0443
                0.1308   2.3612e-003  -5.3979e-004   8.0123e-004   2.9092e+008   1.5862e+006   3.7738e+006    0.1470   -0.0000    0.0265   -0.0000    0.0366
                0.1676   2.4008e-003  -5.4883e-004   6.2896e-004   2.9580e+008   1.6128e+006   2.9624e+006    0.1495   -0.0000    0.0269   -0.0000    0.0288
                0.2048   2.4061e-003  -5.5005e-004   4.5318e-004   2.9645e+008   1.6164e+006   2.1345e+006    0.1498   -0.0000    0.0270   -0.0000    0.0207
                0.2432   2.4100e-003  -5.5092e-004   2.7036e-004   2.9693e+008   1.6189e+006   1.2734e+006    0.1500   -0.0000    0.0270   -0.0000    0.0124
                0.2813   2.4038e-003  -5.4952e-004   8.8573e-005   2.9617e+008   1.6148e+006   4.1718e+005    0.1497   -0.0000    0.0270   -0.0000    0.0041
                0.3202   2.3757e-003  -5.4308e-004   9.5795e-005   2.9270e+008   1.5959e+006   4.5120e+005    0.1479   -0.0000    0.0266   -0.0000    0.0044
                0.3591   2.3475e-003  -5.3665e-004   2.7926e-004   2.8923e+008   1.5770e+006   1.3153e+006    0.1462   -0.0000    0.0263   -0.0000    0.0128
                0.3934   2.3065e-003  -5.2728e-004   4.3876e-004   2.8419e+008   1.5495e+006   2.0666e+006    0.1436   -0.0000    0.0259   -0.0000    0.0201

               lamina:  6     
              matName:  (blade-root)
                     s           e11           e22           e12           s11           s22           s12   s11_fcT   s11_fcC   s22_fcT   s22_fcC   s12_fcS
                   (m)         (m/m)         (m/m)         (rad)          (Pa)          (Pa)          (Pa)       (-)       (-)       (-)       (-)       (-)
                0.0000   2.0872e-003  -4.8098e-004   1.3793e-003   7.4684e+007   1.7764e+006   5.6827e+006    0.0743   -0.0000    0.0347   -0.0000    0.0507
                0.0233   2.1351e-003  -4.9192e-004   1.2814e-003   7.6395e+007   1.8179e+006   5.2793e+006    0.0760   -0.0000    0.0355   -0.0000    0.0471
                0.0587   2.2074e-003  -5.0848e-004   1.1278e-003   7.8982e+007   1.8803e+006   4.6464e+006    0.0786   -0.0000    0.0367   -0.0000    0.0415
                0.0940   2.2592e-003  -5.2037e-004   9.6949e-004   8.0835e+007   1.9247e+006   3.9943e+006    0.0804   -0.0000    0.0376   -0.0000    0.0357
                0.1308   2.2980e-003  -5.2927e-004   8.0123e-004   8.2226e+007   1.9583e+006   3.3011e+006    0.0818   -0.0000    0.0382   -0.0000    0.0295
                0.1676   2.3372e-003  -5.3825e-004   6.2896e-004   8.3628e+007   1.9920e+006   2.5913e+006    0.0832   -0.0000    0.0389   -0.0000    0.0231
                0.2048   2.3423e-003  -5.3943e-004   4.5318e-004   8.3811e+007   1.9964e+006   1.8671e+006    0.0834   -0.0000    0.0390   -0.0000    0.0167
                0.2432   2.3461e-003  -5.4030e-004   2.7036e-004   8.3948e+007   1.9997e+006   1.1139e+006    0.0835   -0.0000    0.0391   -0.0000    0.0099
                0.2813   2.3401e-003  -5.3892e-004   8.8573e-005   8.3733e+007   1.9945e+006   3.6492e+005    0.0833   -0.0000    0.0390   -0.0000    0.0033
                0.3202   2.3121e-003  -5.3251e-004   9.5795e-005   8.2730e+007   1.9703e+006   3.9468e+005    0.0823   -0.0000    0.0385   -0.0000    0.0035
                0.3591   2.2842e-003  -5.2611e-004   2.7926e-004   8.1730e+007   1.9462e+006   1.1506e+006    0.0813   -0.0000    0.0380   -0.0000    0.0103
                0.3934   2.2435e-003  -5.1679e-004   4.3876e-004   8.0274e+007   1.9111e+006   1.8077e+006    0.0799   -0.0000    0.0373   -0.0000    0.0161

               lamina:  7     
              matName:  (blade-shell)
                     s           e11           e22           e12           s11           s22           s12   s11_fcT   s11_fcC   s22_fcT   s22_fcC   s12_fcS
                   (m)         (m/m)         (m/m)         (rad)          (Pa)          (Pa)          (Pa)       (-)       (-)       (-)       (-)       (-)
                0.0000   1.6600e-003  -4.0990e-004   1.3793e-003   3.1379e+007  -3.7908e+006   5.4482e+006    0.0931   -0.0000    0.0000    0.0112    0.0474
                0.0233   1.7078e-003  -4.2083e-004   1.2814e-003   3.2285e+007  -3.8829e+006   5.0614e+006    0.0958   -0.0000    0.0000    0.0115    0.0440
                0.0587   1.7761e-003  -4.3673e-004   1.1278e-003   3.3579e+007  -4.0199e+006   4.4547e+006    0.0996   -0.0000    0.0000    0.0119    0.0387
                0.0940   1.8224e-003  -4.4770e-004   9.6949e-004   3.4454e+007  -4.1167e+006   3.8295e+006    0.1022   -0.0000    0.0000    0.0122    0.0333
                0.1308   1.8595e-003  -4.5630e-004   8.0123e-004   3.5157e+007  -4.1906e+006   3.1648e+006    0.1043   -0.0000    0.0000    0.0124    0.0275
                0.1676   1.8959e-003  -4.6482e-004   6.2896e-004   3.5846e+007  -4.2646e+006   2.4844e+006    0.1064   -0.0000    0.0000    0.0127    0.0216
                0.2048   1.8997e-003  -4.6579e-004   4.5318e-004   3.5919e+007  -4.2737e+006   1.7901e+006    0.1066   -0.0000    0.0000    0.0127    0.0156
                0.2432   1.9035e-003  -4.6666e-004   2.7036e-004   3.5990e+007  -4.2811e+006   1.0679e+006    0.1068   -0.0000    0.0000    0.0127    0.0093
                0.2813   1.8982e-003  -4.6539e-004   8.8573e-005   3.5890e+007  -4.2699e+006   3.4986e+005    0.1065   -0.0000    0.0000    0.0127    0.0030
                0.3202   1.8713e-003  -4.5917e-004   9.5795e-005   3.5381e+007  -4.2165e+006   3.7839e+005    0.1050   -0.0000    0.0000    0.0125    0.0033
                0.3591   1.8447e-003  -4.5299e-004   2.7926e-004   3.4877e+007  -4.1634e+006   1.1031e+006    0.1035   -0.0000    0.0000    0.0124    0.0096
                0.3934   1.8059e-003  -4.4399e-004   4.3876e-004   3.4143e+007  -4.0861e+006   1.7331e+006    0.1013   -0.0000    0.0000    0.0121    0.0151

            panel:  3     
           lam_num    nPlies        tPly      fibAng     matID  matName
               (-)       (-)         (m)       (deg)       (-)  (-)
                 1         1    0.006094      0.0000         2  (blade-shell)
                 2         1    0.012175      0.0000         1  (blade-root)
                 3         1    0.001755      0.0000         6  (TEP-core)
                 4         1    0.012175      0.0000         1  (blade-root)
                 5         1    0.006094      0.0000         2  (blade-shell)

               lamina:  1     
              matName:  (blade-shell)
                     s           e11           e22           e12           s11           s22           s12   s11_fcT   s11_fcC   s22_fcT   s22_fcC   s12_fcS
                   (m)         (m/m)         (m/m)         (rad)          (Pa)          (Pa)          (Pa)       (-)       (-)       (-)       (-)       (-)
                0.0000   2.8396e-003  -6.0301e-004   1.7034e-004   5.3927e+007  -4.5673e+006   6.7284e+005    0.1600   -0.0000    0.0000    0.0136    0.0059
                0.0043   2.8323e-003  -6.0152e-004   1.8631e-004   5.3789e+007  -4.5566e+006   7.3592e+005    0.1596   -0.0000    0.0000    0.0135    0.0064
                0.0438   2.7763e-003  -5.8903e-004   3.3056e-004   5.2726e+007  -4.4549e+006   1.3057e+006    0.1565   -0.0000    0.0000    0.0132    0.0114
                0.0823   2.7172e-003  -5.7605e-004   4.6800e-004   5.1604e+007  -4.3517e+006   1.8486e+006    0.1531   -0.0000    0.0000    0.0129    0.0161
                0.1208   2.6362e-003  -5.5823e-004   6.0214e-004   5.0068e+007  -4.2092e+006   2.3784e+006    0.1486   -0.0000    0.0000    0.0125    0.0207
                0.1589   2.5586e-003  -5.4101e-004   7.3079e-004   4.8596e+007  -4.0699e+006   2.8866e+006    0.1442   -0.0000    0.0000    0.0121    0.0251
                0.1960   2.4720e-003  -5.2197e-004   8.5185e-004   4.6954e+007  -3.9178e+006   3.3648e+006    0.1393   -0.0000    0.0000    0.0116    0.0293
                0.2328   2.3774e-003  -5.0102e-004   9.6707e-004   4.5159e+007  -3.7489e+006   3.8199e+006    0.1340   -0.0000    0.0000    0.0111    0.0332
                0.2682   2.2850e-003  -4.8064e-004   1.0733e-003   4.3406e+007  -3.5855e+006   4.2396e+006    0.1288   -0.0000    0.0000    0.0106    0.0369
                0.3027   2.1796e-003  -4.5747e-004   1.1722e-003   4.1407e+007  -3.4005e+006   4.6302e+006    0.1229   -0.0000    0.0000    0.0101    0.0403
                0.3363   2.0774e-003  -4.3478e-004   1.2633e-003   3.9468e+007  -3.2171e+006   4.9900e+006    0.1171   -0.0000    0.0000    0.0095    0.0434
                0.3678   1.9729e-003  -4.1193e-004   1.3443e-003   3.7485e+007  -3.0359e+006   5.3099e+006    0.1112   -0.0000    0.0000    0.0090    0.0462
                0.3985   1.8570e-003  -3.8649e-004   1.4185e-003   3.5286e+007  -2.8334e+006   5.6033e+006    0.1047   -0.0000    0.0000    0.0084    0.0487
                0.4273   1.7490e-003  -3.6275e-004   1.4836e-003   3.3236e+007  -2.6440e+006   5.8603e+006    0.0986   -0.0000    0.0000    0.0078    0.0510
                0.4544   1.6296e-003  -3.3691e-004   1.5405e-003   3.0972e+007  -2.4423e+006   6.0848e+006    0.0919   -0.0000    0.0000    0.0072    0.0529
                0.4804   1.5124e-003  -3.1113e-004   1.5909e-003   2.8747e+007  -2.2366e+006   6.2840e+006    0.0853   -0.0000    0.0000    0.0066    0.0546
                0.5030   1.3954e-003  -2.8627e-004   1.6312e-003   2.6525e+007  -2.0481e+006   6.4434e+006    0.0787   -0.0000    0.0000    0.0061    0.0560
                0.5254   1.2542e-003  -2.5628e-004   1.6675e-003   2.3843e+007  -1.8210e+006   6.5866e+006    0.0708   -0.0000    0.0000    0.0054    0.0573
                0.5458   1.1321e-003  -2.2996e-004   1.6970e-003   2.1526e+007  -1.6169e+006   6.7031e+006    0.0639   -0.0000    0.0000    0.0048    0.0583
                0.5628   9.8635e-004  -2.0037e-004   1.7190e-003   1.8755e+007  -1.4090e+006   6.7901e+006    0.0557   -0.0000    0.0000    0.0042    0.0590
                0.5812   8.2989e-004  -1.6759e-004   1.7397e-003   1.5782e+007  -1.1661e+006   6.8719e+006    0.0468   -0.0000    0.0000    0.0035    0.0598
                0.5936   6.7163e-004  -1.3693e-004   1.7518e-003   1.2769e+007  -9.6899e+005   6.9196e+006    0.0379   -0.0000    0.0000    0.0029    0.0602
                0.6123   4.5278e-004  -9.2722e-005   1.7667e-003   8.6073e+006  -6.6132e+005   6.9784e+006    0.0255   -0.0000    0.0000    0.0020    0.0607
                0.6292   3.0110e-004  -6.0152e-005   1.7766e-003   5.7278e+006  -4.1031e+005   7.0175e+006    0.0170   -0.0000    0.0000    0.0012    0.0610
                0.6351   2.5575e-004  -5.0021e-005   1.7792e-003   4.8678e+006  -3.2758e+005   7.0280e+006    0.0144   -0.0000    0.0000    0.0010    0.0611

               lamina:  2     
              matName:  (blade-root)
                     s           e11           e22           e12           s11           s22           s12   s11_fcT   s11_fcC   s22_fcT   s22_fcC   s12_fcS
                   (m)         (m/m)         (m/m)         (rad)          (Pa)          (Pa)          (Pa)       (-)       (-)       (-)       (-)       (-)
                0.0000   2.6722e-003  -5.7561e-004   1.7034e-004   9.5729e+007   2.6178e+006   7.0180e+005    0.0953   -0.0000    0.0511   -0.0000    0.0063
                0.0043   2.6657e-003  -5.7422e-004   1.8631e-004   9.5493e+007   2.6111e+006   7.6759e+005    0.0950   -0.0000    0.0510   -0.0000    0.0069
                0.0438   2.6098e-003  -5.6176e-004   3.3056e-004   9.3493e+007   2.5600e+006   1.3619e+006    0.0930   -0.0000    0.0500   -0.0000    0.0122
                0.0823   2.5519e-003  -5.4899e-004   4.6800e-004   9.1420e+007   2.5059e+006   1.9281e+006    0.0910   -0.0000    0.0489   -0.0000    0.0172
                0.1208   2.4724e-003  -5.3140e-004   6.0214e-004   8.8572e+007   2.4319e+006   2.4808e+006    0.0881   -0.0000    0.0475   -0.0000    0.0221
                0.1589   2.3954e-003  -5.1429e-004   7.3079e-004   8.5816e+007   2.3611e+006   3.0109e+006    0.0854   -0.0000    0.0461   -0.0000    0.0269
                0.1960   2.3104e-003  -4.9550e-004   8.5185e-004   8.2772e+007   2.2819e+006   3.5096e+006    0.0824   -0.0000    0.0446   -0.0000    0.0313
                0.2328   2.2168e-003  -4.7472e-004   9.6707e-004   7.9421e+007   2.1955e+006   3.9843e+006    0.0790   -0.0000    0.0429   -0.0000    0.0356
                0.2682   2.1258e-003  -4.5457e-004   1.0733e-003   7.6163e+007   2.1110e+006   4.4220e+006    0.0758   -0.0000    0.0412   -0.0000    0.0395
                0.3027   2.0224e-003  -4.3173e-004   1.1722e-003   7.2461e+007   2.0146e+006   4.8295e+006    0.0721   -0.0000    0.0393   -0.0000    0.0431
                0.3363   1.9210e-003  -4.0918e-004   1.2633e-003   6.8830e+007   1.9213e+006   5.2048e+006    0.0685   -0.0000    0.0375   -0.0000    0.0465
                0.3678   1.8191e-003  -3.8675e-004   1.3443e-003   6.5181e+007   1.8256e+006   5.5385e+006    0.0649   -0.0000    0.0357   -0.0000    0.0495
                0.3985   1.7056e-003  -3.6170e-004   1.4185e-003   6.1118e+007   1.7196e+006   5.8444e+006    0.0608   -0.0000    0.0336   -0.0000    0.0522
                0.4273   1.5997e-003  -3.3831e-004   1.4836e-003   5.7324e+007   1.6207e+006   6.1125e+006    0.0570   -0.0000    0.0317   -0.0000    0.0546
                0.4544   1.4848e-003  -3.1318e-004   1.5405e-003   5.3207e+007   1.5112e+006   6.3467e+006    0.0529   -0.0000    0.0295   -0.0000    0.0567
                0.4804   1.3697e-003  -2.8777e-004   1.5909e-003   4.9088e+007   1.4040e+006   6.5545e+006    0.0488   -0.0000    0.0274   -0.0000    0.0585
                0.5030   1.2595e-003  -2.6403e-004   1.6312e-003   4.5142e+007   1.2961e+006   6.7207e+006    0.0449   -0.0000    0.0253   -0.0000    0.0600
                0.5254   1.1266e-003  -2.3540e-004   1.6675e-003   4.0381e+007   1.1659e+006   6.8701e+006    0.0402   -0.0000    0.0228   -0.0000    0.0613
                0.5458   1.0097e-003  -2.0992e-004   1.6970e-003   3.6191e+007   1.0538e+006   6.9915e+006    0.0360   -0.0000    0.0206   -0.0000    0.0624
                0.5628   8.7975e-004  -1.8292e-004   1.7190e-003   3.1534e+007   9.1811e+005   7.0824e+006    0.0314   -0.0000    0.0179   -0.0000    0.0632
                0.5812   7.3489e-004  -1.5204e-004   1.7397e-003   2.6344e+007   7.7343e+005   7.1677e+006    0.0262   -0.0000    0.0151   -0.0000    0.0640
                0.5936   6.0165e-004  -1.2547e-004   1.7518e-003   2.1565e+007   6.2469e+005   7.2174e+006    0.0215   -0.0000    0.0122   -0.0000    0.0644
                0.6123   4.0781e-004  -8.5359e-005   1.7667e-003   1.4616e+007   4.2073e+005   7.2787e+006    0.0145   -0.0000    0.0082   -0.0000    0.0650
                0.6292   2.6315e-004  -5.3937e-005   1.7766e-003   9.4345e+006   2.8125e+005   7.3195e+006    0.0094   -0.0000    0.0055   -0.0000    0.0654
                0.6351   2.1780e-004  -4.3806e-005   1.7792e-003   7.8109e+006   2.3993e+005   7.3304e+006    0.0078   -0.0000    0.0047   -0.0000    0.0655

               lamina:  3     
              matName:  (TEP-core)
                     s           e11           e22           e12           s11           s22           s12   s11_fcT   s11_fcC   s22_fcT   s22_fcC   s12_fcS
                   (m)         (m/m)         (m/m)         (rad)          (Pa)          (Pa)          (Pa)       (-)       (-)       (-)       (-)       (-)
                0.0000   2.3379e-003  -5.2086e-004   1.7034e-004   5.1045e+005   5.9068e+004   1.6693e+004    0.1190   -0.0000    0.0138   -0.0000    0.0057
                0.0043   2.3327e-003  -5.1970e-004   1.8631e-004   5.0931e+005   5.8935e+004   1.8258e+004    0.1187   -0.0000    0.0137   -0.0000    0.0062
                0.0438   2.2771e-003  -5.0728e-004   3.3056e-004   4.9718e+005   5.7539e+004   3.2395e+004    0.1159   -0.0000    0.0134   -0.0000    0.0110
                0.0823   2.2218e-003  -4.9493e-004   4.6800e-004   4.8510e+005   5.6146e+004   4.5864e+004    0.1131   -0.0000    0.0131   -0.0000    0.0155
                0.1208   2.1450e-003  -4.7781e-004   6.0214e-004   4.6835e+005   5.4216e+004   5.9009e+004    0.1092   -0.0000    0.0126   -0.0000    0.0200
                0.1589   2.0693e-003  -4.6089e-004   7.3079e-004   4.5182e+005   5.2312e+004   7.1618e+004    0.1053   -0.0000    0.0122   -0.0000    0.0243
                0.1960   1.9875e-003  -4.4262e-004   8.5185e-004   4.3395e+005   5.0254e+004   8.3482e+004    0.1012   -0.0000    0.0117   -0.0000    0.0283
                0.2328   1.8959e-003  -4.2217e-004   9.6707e-004   4.1396e+005   4.7951e+004   9.4773e+004    0.0965   -0.0000    0.0112   -0.0000    0.0321
                0.2682   1.8078e-003  -4.0249e-004   1.0733e-003   3.9472e+005   4.5734e+004   1.0518e+005    0.0920   -0.0000    0.0107   -0.0000    0.0357
                0.3027   1.7083e-003  -3.8030e-004   1.1722e-003   3.7302e+005   4.3232e+004   1.1488e+005    0.0869   -0.0000    0.0101   -0.0000    0.0389
                0.3363   1.6086e-003  -3.5802e-004   1.2633e-003   3.5124e+005   4.0725e+004   1.2380e+005    0.0819   -0.0000    0.0095   -0.0000    0.0420
                0.3678   1.5119e-003  -3.3644e-004   1.3443e-003   3.3013e+005   3.8290e+004   1.3174e+005    0.0770   -0.0000    0.0089   -0.0000    0.0447
                0.3985   1.4032e-003  -3.1218e-004   1.4185e-003   3.0641e+005   3.5556e+004   1.3902e+005    0.0714   -0.0000    0.0083   -0.0000    0.0471
                0.4273   1.3015e-003  -2.8948e-004   1.4836e-003   2.8420e+005   3.2996e+004   1.4539e+005    0.0662   -0.0000    0.0077   -0.0000    0.0493
                0.4544   1.1952e-003  -2.6578e-004   1.5405e-003   2.6101e+005   3.0319e+004   1.5096e+005    0.0608   -0.0000    0.0071   -0.0000    0.0512
                0.4804   1.0847e-003  -2.4110e-004   1.5909e-003   2.3687e+005   2.7537e+004   1.5591e+005    0.0552   -0.0000    0.0064   -0.0000    0.0528
                0.5030   9.8811e-004  -2.1958e-004   1.6312e-003   2.1579e+005   2.5097e+004   1.5986e+005    0.0503   -0.0000    0.0059   -0.0000    0.0542
                0.5254   8.7186e-004  -1.9368e-004   1.6675e-003   1.9040e+005   2.2160e+004   1.6341e+005    0.0444   -0.0000    0.0052   -0.0000    0.0554
                0.5458   7.6504e-004  -1.6986e-004   1.6970e-003   1.6708e+005   1.9466e+004   1.6630e+005    0.0389   -0.0000    0.0045   -0.0000    0.0564
                0.5628   6.6677e-004  -1.4804e-004   1.7190e-003   1.4562e+005   1.6966e+004   1.6846e+005    0.0339   -0.0000    0.0040   -0.0000    0.0571
                0.5812   5.4510e-004  -1.2096e-004   1.7397e-003   1.1905e+005   1.3886e+004   1.7049e+005    0.0278   -0.0000    0.0032   -0.0000    0.0578
                0.5936   4.6184e-004  -1.0258e-004   1.7518e-003   1.0086e+005   1.1743e+004   1.7168e+005    0.0235   -0.0000    0.0027   -0.0000    0.0582
                0.6123   3.1796e-004  -7.0647e-005   1.7667e-003   6.9437e+004   8.0784e+003   1.7313e+005    0.0162   -0.0000    0.0019   -0.0000    0.0587
                0.6292   1.8731e-004  -4.1520e-005   1.7766e-003   4.0914e+004   4.7822e+003   1.7410e+005    0.0095   -0.0000    0.0011   -0.0000    0.0590
                0.6351   1.4196e-004  -3.1389e-005   1.7792e-003   3.1014e+004   3.6430e+003   1.7436e+005    0.0072   -0.0000    0.0008   -0.0000    0.0591

               lamina:  4     
              matName:  (blade-root)
                     s           e11           e22           e12           s11           s22           s12   s11_fcT   s11_fcC   s22_fcT   s22_fcC   s12_fcS
                   (m)         (m/m)         (m/m)         (rad)          (Pa)          (Pa)          (Pa)       (-)       (-)       (-)       (-)       (-)
                0.0000   2.2897e-003  -5.1296e-004   1.7034e-004   8.1968e+007   2.0741e+006   7.0180e+005    0.0816   -0.0000    0.0405   -0.0000    0.0063
                0.0043   2.2847e-003  -5.1184e-004   1.8631e-004   8.1788e+007   2.0696e+006   7.6759e+005    0.0814   -0.0000    0.0404   -0.0000    0.0069
                0.0438   2.2291e-003  -4.9943e-004   3.3056e-004   7.9800e+007   2.0190e+006   1.3619e+006    0.0794   -0.0000    0.0394   -0.0000    0.0122
                0.0823   2.1742e-003  -4.8714e-004   4.6800e-004   7.7832e+007   1.9690e+006   1.9281e+006    0.0774   -0.0000    0.0385   -0.0000    0.0172
                0.1208   2.0978e-003  -4.7008e-004   6.0214e-004   7.5101e+007   1.8996e+006   2.4808e+006    0.0747   -0.0000    0.0371   -0.0000    0.0221
                0.1589   2.0223e-003  -4.5319e-004   7.3079e-004   7.2395e+007   1.8308e+006   3.0109e+006    0.0720   -0.0000    0.0358   -0.0000    0.0269
                0.1960   1.9409e-003  -4.3500e-004   8.5185e-004   6.9482e+007   1.7567e+006   3.5096e+006    0.0691   -0.0000    0.0343   -0.0000    0.0313
                0.2328   1.8496e-003  -4.1460e-004   9.6707e-004   6.6214e+007   1.6736e+006   3.9843e+006    0.0659   -0.0000    0.0327   -0.0000    0.0356
                0.2682   1.7619e-003  -3.9499e-004   1.0733e-003   6.3074e+007   1.5938e+006   4.4220e+006    0.0628   -0.0000    0.0311   -0.0000    0.0395
                0.3027   1.6630e-003  -3.7288e-004   1.1722e-003   5.9534e+007   1.5039e+006   4.8295e+006    0.0592   -0.0000    0.0294   -0.0000    0.0431
                0.3363   1.5635e-003  -3.5065e-004   1.2633e-003   5.5972e+007   1.4132e+006   5.2048e+006    0.0557   -0.0000    0.0276   -0.0000    0.0465
                0.3678   1.4676e-003  -3.2918e-004   1.3443e-003   5.2536e+007   1.3260e+006   5.5385e+006    0.0523   -0.0000    0.0259   -0.0000    0.0495
                0.3985   1.3596e-003  -3.0505e-004   1.4185e-003   4.8671e+007   1.2278e+006   5.8444e+006    0.0484   -0.0000    0.0240   -0.0000    0.0522
                0.4273   1.2585e-003  -2.8244e-004   1.4836e-003   4.5052e+007   1.1358e+006   6.1125e+006    0.0448   -0.0000    0.0222   -0.0000    0.0546
                0.4544   1.1535e-003  -2.5895e-004   1.5405e-003   4.1293e+007   1.0405e+006   6.3467e+006    0.0411   -0.0000    0.0203   -0.0000    0.0567
                0.4804   1.0436e-003  -2.3437e-004   1.5909e-003   3.7358e+007   9.4047e+005   6.5545e+006    0.0372   -0.0000    0.0184   -0.0000    0.0585
                0.5030   9.4898e-004  -2.1318e-004   1.6312e-003   3.3971e+007   8.5475e+005   6.7207e+006    0.0338   -0.0000    0.0167   -0.0000    0.0600
                0.5254   8.3513e-004  -1.8767e-004   1.6675e-003   2.9895e+007   7.5162e+005   6.8701e+006    0.0297   -0.0000    0.0147   -0.0000    0.0613
                0.5458   7.2978e-004  -1.6409e-004   1.6970e-003   2.6124e+007   6.5600e+005   6.9915e+006    0.0260   -0.0000    0.0128   -0.0000    0.0624
                0.5628   6.3607e-004  -1.4302e-004   1.7190e-003   2.2769e+007   5.7177e+005   7.0824e+006    0.0227   -0.0000    0.0112   -0.0000    0.0632
                0.5812   5.1774e-004  -1.1648e-004   1.7397e-003   1.8533e+007   4.6480e+005   7.1677e+006    0.0184   -0.0000    0.0091   -0.0000    0.0640
                0.5936   4.4168e-004  -9.9276e-005   1.7518e-003   1.5811e+007   3.9733e+005   7.2174e+006    0.0157   -0.0000    0.0078   -0.0000    0.0644
                0.6123   3.0501e-004  -6.8526e-005   1.7667e-003   1.0918e+007   2.7462e+005   7.2787e+006    0.0109   -0.0000    0.0054   -0.0000    0.0650
                0.6292   1.7638e-004  -3.9730e-005   1.7766e-003   6.3136e+006   1.5793e+005   7.3195e+006    0.0063   -0.0000    0.0031   -0.0000    0.0654
                0.6351   1.3103e-004  -2.9599e-005   1.7792e-003   4.6900e+006   1.1661e+005   7.3304e+006    0.0047   -0.0000    0.0023   -0.0000    0.0655

               lamina:  5     
              matName:  (blade-shell)
                     s           e11           e22           e12           s11           s22           s12   s11_fcT   s11_fcC   s22_fcT   s22_fcC   s12_fcS
                   (m)         (m/m)         (m/m)         (rad)          (Pa)          (Pa)          (Pa)       (-)       (-)       (-)       (-)       (-)
                0.0000   1.9553e-003  -4.5821e-004   1.7034e-004   3.7024e+007  -3.9846e+006   6.7284e+005    0.1099   -0.0000    0.0000    0.0118    0.0059
                0.0043   1.9516e-003  -4.5731e-004   1.8631e-004   3.6955e+007  -3.9762e+006   7.3592e+005    0.1097   -0.0000    0.0000    0.0118    0.0064
                0.0438   1.8964e-003  -4.4495e-004   3.3056e-004   3.5907e+007  -3.8751e+006   1.3057e+006    0.1066   -0.0000    0.0000    0.0115    0.0114
                0.0823   1.8440e-003  -4.3308e-004   4.6800e-004   3.4914e+007  -3.7763e+006   1.8486e+006    0.1036   -0.0000    0.0000    0.0112    0.0161
                0.1208   1.7705e-003  -4.1648e-004   6.0214e-004   3.3521e+007  -3.6387e+006   2.3784e+006    0.0995   -0.0000    0.0000    0.0108    0.0207
                0.1589   1.6962e-003  -3.9979e-004   7.3079e-004   3.2111e+007  -3.5016e+006   2.8866e+006    0.0953   -0.0000    0.0000    0.0104    0.0251
                0.1960   1.6180e-003  -3.8212e-004   8.5185e-004   3.0629e+007  -3.3550e+006   3.3648e+006    0.0909   -0.0000    0.0000    0.0100    0.0293
                0.2328   1.5287e-003  -3.6205e-004   9.6707e-004   2.8937e+007  -3.1896e+006   3.8199e+006    0.0859   -0.0000    0.0000    0.0095    0.0332
                0.2682   1.4438e-003  -3.4291e-004   1.0733e-003   2.7328e+007  -3.0312e+006   4.2396e+006    0.0811   -0.0000    0.0000    0.0090    0.0369
                0.3027   1.3490e-003  -3.2145e-004   1.1722e-003   2.5529e+007  -2.8532e+006   4.6302e+006    0.0758   -0.0000    0.0000    0.0085    0.0403
                0.3363   1.2511e-003  -2.9949e-004   1.2633e-003   2.3674e+007  -2.6726e+006   4.9900e+006    0.0702   -0.0000    0.0000    0.0079    0.0434
                0.3678   1.1603e-003  -2.7888e-004   1.3443e-003   2.1953e+007  -2.5005e+006   5.3099e+006    0.0651   -0.0000    0.0000    0.0074    0.0462
                0.3985   1.0572e-003  -2.5553e-004   1.4185e-003   1.9998e+007  -2.3063e+006   5.6033e+006    0.0593   -0.0000    0.0000    0.0068    0.0487
                0.4273   9.6029e-004  -2.3361e-004   1.4836e-003   1.8161e+007  -2.1243e+006   5.8603e+006    0.0539   -0.0000    0.0000    0.0063    0.0510
                0.4544   8.6401e-004  -2.1154e-004   1.5405e-003   1.6337e+007  -1.9378e+006   6.0848e+006    0.0485   -0.0000    0.0000    0.0058    0.0529
                0.4804   7.5858e-004  -1.8770e-004   1.5909e-003   1.4339e+007  -1.7399e+006   6.2840e+006    0.0425   -0.0000    0.0000    0.0052    0.0546
                0.5030   6.7755e-004  -1.6873e-004   1.6312e-003   1.2804e+007  -1.5751e+006   6.4434e+006    0.0380   -0.0000    0.0000    0.0047    0.0560
                0.5254   5.8035e-004  -1.4595e-004   1.6675e-003   1.0964e+007  -1.3770e+006   6.5866e+006    0.0325   -0.0000    0.0000    0.0041    0.0573
                0.5458   4.8516e-004  -1.2403e-004   1.6970e-003   9.1604e+006  -1.1906e+006   6.7031e+006    0.0272   -0.0000    0.0000    0.0035    0.0583
                0.5628   4.2309e-004  -1.0814e-004   1.7190e-003   7.9883e+006  -1.0379e+006   6.7901e+006    0.0237   -0.0000    0.0000    0.0031    0.0590
                0.5812   3.2795e-004  -8.5405e-005   1.7397e-003   6.1880e+006  -8.3534e+005   6.8719e+006    0.0184   -0.0000    0.0000    0.0025    0.0598
                0.5936   3.0187e-004  -7.6382e-005   1.7518e-003   5.7016e+006  -7.2533e+005   6.9196e+006    0.0169   -0.0000    0.0000    0.0022    0.0602
                0.6123   2.1516e-004  -5.3815e-005   1.7667e-003   4.0654e+006  -5.0474e+005   6.9784e+006    0.0121   -0.0000    0.0000    0.0015    0.0607
                0.6292   1.0054e-004  -2.7313e-005   1.7766e-003   1.8943e+006  -2.7815e+005   7.0175e+006    0.0056   -0.0000    0.0000    0.0008    0.0610
                0.6351   5.5195e-005  -1.7182e-005   1.7792e-003   1.0343e+006  -1.9542e+005   7.0280e+006    0.0031   -0.0000    0.0000    0.0006    0.0611

     Web:  panel  nNode   nLam     xc_St    xc_End         b         t         E_eff         G_eff      nu_eff     density  buckleCrit
            (-)    (-)    (-)       (-)       (-)       (m)       (m)          (Pa)          (Pa)         (-)    (kg/m^3)         (-)
              1     10      3    0.2411    0.2411    0.5232    0.0121   6.5707e+009   1.3870e+009      0.1347    691.8998      0.0902
              2     10      3    0.5589    0.5589    0.5514    0.0121   6.5707e+009   1.3870e+009      0.1347    691.8998      0.1290

            panel:  1     
           lam_num    nPlies        tPly      fibAng     matID  matName
               (-)       (-)         (m)       (deg)       (-)  (-)
                 1         1    0.002023      0.0000         7  (web-shell)
                 2         1    0.008047      0.0000         8  (web-core)
                 3         1    0.002023      0.0000         7  (web-shell)

               lamina:  1     
              matName:  (web-shell)
                     s           e11           e22           e12           s11           s22           s12   s11_fcT   s11_fcC   s22_fcT   s22_fcC   s12_fcS
                   (m)         (m/m)         (m/m)         (rad)          (Pa)          (Pa)          (Pa)       (-)       (-)       (-)       (-)       (-)
                0.0000  -2.0876e-003   2.8117e-004   2.5445e-003  -4.0057e+007   1.9112e+005   1.0051e+007    0.0000    0.0806    0.0006   -0.0000    0.0874
                0.0581  -1.6307e-003   2.1964e-004   2.6571e-003  -3.1291e+007   1.4931e+005   1.0496e+007    0.0000    0.0630    0.0004   -0.0000    0.0913
                0.1163  -1.1739e-003   1.5811e-004   2.7429e-003  -2.2525e+007   1.0750e+005   1.0834e+007    0.0000    0.0453    0.0003   -0.0000    0.0942
                0.1744  -7.1707e-004   9.6583e-005   2.8017e-003  -1.3759e+007   6.5689e+004   1.1067e+007    0.0000    0.0277    0.0002   -0.0000    0.0962
                0.2325  -2.6024e-004   3.5054e-005   2.8338e-003  -4.9935e+006   2.3878e+004   1.1193e+007    0.0000    0.0100    0.0001   -0.0000    0.0973
                0.2906   1.9702e-004  -2.6531e-005   2.8390e-003   3.7804e+006  -1.7941e+004   1.1214e+007    0.0112   -0.0000    0.0000    0.0001    0.0975
                0.3488   6.5386e-004  -8.8061e-005   2.8173e-003   1.2546e+007  -5.9753e+004   1.1128e+007    0.0372   -0.0000    0.0000    0.0002    0.0968
                0.4069   1.1107e-003  -1.4959e-004   2.7688e-003   2.1312e+007  -1.0156e+005   1.0937e+007    0.0632   -0.0000    0.0000    0.0003    0.0951
                0.4650   1.5675e-003  -2.1112e-004   2.6934e-003   3.0078e+007  -1.4337e+005   1.0639e+007    0.0893   -0.0000    0.0000    0.0004    0.0925
                0.5232   2.0244e-003  -2.7265e-004   2.5911e-003   3.8844e+007  -1.8519e+005   1.0235e+007    0.1153   -0.0000    0.0000    0.0005    0.0890

               lamina:  2     
              matName:  (web-core)
                     s           e11           e22           e12           s11           s22           s12   s11_fcT   s11_fcC   s22_fcT   s22_fcC   s12_fcS
                   (m)         (m/m)         (m/m)         (rad)          (Pa)          (Pa)          (Pa)       (-)       (-)       (-)       (-)       (-)
                0.0000  -2.0893e-003   2.8139e-004   2.5445e-003  -4.7048e+005  -9.6166e+004   2.4936e+005    0.0000    0.1097    0.0000    0.0224    0.0845
                0.0581  -1.6324e-003   2.1986e-004   2.6571e-003  -3.6760e+005  -7.5138e+004   2.6040e+005    0.0000    0.0857    0.0000    0.0175    0.0883
                0.1163  -1.1756e-003   1.5833e-004   2.7429e-003  -2.6473e+005  -5.4111e+004   2.6880e+005    0.0000    0.0617    0.0000    0.0126    0.0911
                0.1744  -7.1875e-004   9.6803e-005   2.8017e-003  -1.6186e+005  -3.3084e+004   2.7457e+005    0.0000    0.0377    0.0000    0.0077    0.0931
                0.2325  -2.6191e-004   3.5273e-005   2.8338e-003  -5.8980e+004  -1.2056e+004   2.7771e+005    0.0000    0.0137    0.0000    0.0028    0.0941
                0.2906   1.9660e-004  -2.6476e-005   2.8390e-003   4.4272e+004   9.0498e+003   2.7822e+005    0.0103   -0.0000    0.0021   -0.0000    0.0943
                0.3488   6.5343e-004  -8.8006e-005   2.8173e-003   1.4715e+005   3.0077e+004   2.7609e+005    0.0343   -0.0000    0.0070   -0.0000    0.0936
                0.4069   1.1103e-003  -1.4954e-004   2.7688e-003   2.5002e+005   5.1105e+004   2.7134e+005    0.0583   -0.0000    0.0119   -0.0000    0.0920
                0.4650   1.5671e-003  -2.1106e-004   2.6934e-003   3.5290e+005   7.2132e+004   2.6395e+005    0.0823   -0.0000    0.0168   -0.0000    0.0895
                0.5232   2.0239e-003  -2.7259e-004   2.5911e-003   4.5577e+005   9.3160e+004   2.5393e+005    0.1062   -0.0000    0.0217   -0.0000    0.0861

               lamina:  3     
              matName:  (web-shell)
                     s           e11           e22           e12           s11           s22           s12   s11_fcT   s11_fcC   s22_fcT   s22_fcC   s12_fcS
                   (m)         (m/m)         (m/m)         (rad)          (Pa)          (Pa)          (Pa)       (-)       (-)       (-)       (-)       (-)
                0.0000  -2.0897e-003   2.8145e-004   2.5445e-003  -4.0097e+007   1.9116e+005   1.0051e+007    0.0000    0.0807    0.0006   -0.0000    0.0874
                0.0581  -1.6328e-003   2.1992e-004   2.6571e-003  -3.1331e+007   1.4935e+005   1.0496e+007    0.0000    0.0630    0.0004   -0.0000    0.0913
                0.1163  -1.1760e-003   1.5839e-004   2.7429e-003  -2.2565e+007   1.0754e+005   1.0834e+007    0.0000    0.0454    0.0003   -0.0000    0.0942
                0.1744  -7.1917e-004   9.6858e-005   2.8017e-003  -1.3800e+007   6.5730e+004   1.1067e+007    0.0000    0.0278    0.0002   -0.0000    0.0962
                0.2325  -2.6233e-004   3.5328e-005   2.8338e-003  -5.0337e+006   2.3919e+004   1.1193e+007    0.0000    0.0101    0.0001   -0.0000    0.0973
                0.2906   1.9492e-004  -2.6256e-005   2.8390e-003   3.7402e+006  -1.7900e+004   1.1214e+007    0.0111   -0.0000    0.0000    0.0001    0.0975
                0.3488   6.5176e-004  -8.7786e-005   2.8173e-003   1.2506e+007  -5.9711e+004   1.1128e+007    0.0371   -0.0000    0.0000    0.0002    0.0968
                0.4069   1.1086e-003  -1.4932e-004   2.7688e-003   2.1272e+007  -1.0152e+005   1.0937e+007    0.0631   -0.0000    0.0000    0.0003    0.0951
                0.4650   1.5654e-003  -2.1085e-004   2.6934e-003   3.0038e+007  -1.4333e+005   1.0639e+007    0.0891   -0.0000    0.0000    0.0004    0.0925
                0.5232   2.0223e-003  -2.7237e-004   2.5911e-003   3.8803e+007  -1.8515e+005   1.0235e+007    0.1151   -0.0000    0.0000    0.0005    0.0890

            panel:  2     
           lam_num    nPlies        tPly      fibAng     matID  matName
               (-)       (-)         (m)       (deg)       (-)  (-)
                 1         1    0.002023      0.0000         7  (web-shell)
                 2         1    0.008047      0.0000         8  (web-core)
                 3         1    0.002023      0.0000         7  (web-shell)

               lamina:  1     
              matName:  (web-shell)
                     s           e11           e22           e12           s11           s22           s12   s11_fcT   s11_fcC   s22_fcT   s22_fcC   s12_fcS
                   (m)         (m/m)         (m/m)         (rad)          (Pa)          (Pa)          (Pa)       (-)       (-)       (-)       (-)       (-)
                0.0000  -2.1814e-003   2.9381e-004   2.8083e-003  -4.1858e+007   1.9970e+005   1.1093e+007    0.0000    0.0842    0.0006   -0.0000    0.0965
                0.0613  -1.6999e-003   2.2896e-004   2.9274e-003  -3.2619e+007   1.5564e+005   1.1563e+007    0.0000    0.0656    0.0005   -0.0000    0.1006
                0.1225  -1.2185e-003   1.6411e-004   3.0167e-003  -2.3380e+007   1.1157e+005   1.1916e+007    0.0000    0.0470    0.0003   -0.0000    0.1036
                0.1838  -7.3697e-004   9.9262e-005   3.0762e-003  -1.4141e+007   6.7502e+004   1.2151e+007    0.0000    0.0285    0.0002   -0.0000    0.1057
                0.2451  -2.5548e-004   3.4412e-005   3.1058e-003  -4.9021e+006   2.3435e+004   1.2268e+007    0.0000    0.0099    0.0001   -0.0000    0.1067
                0.3063   2.2638e-004  -3.0486e-005   3.1057e-003   4.3438e+006  -2.0640e+004   1.2267e+007    0.0129   -0.0000    0.0000    0.0001    0.1067
                0.3676   7.0787e-004  -9.5336e-005   3.0756e-003   1.3583e+007  -6.4708e+004   1.2149e+007    0.0403   -0.0000    0.0000    0.0002    0.1056
                0.4289   1.1894e-003  -1.6019e-004   3.0158e-003   2.2822e+007  -1.0878e+005   1.1912e+007    0.0677   -0.0000    0.0000    0.0003    0.1036
                0.4901   1.6708e-003  -2.2504e-004   2.9261e-003   3.2060e+007  -1.5284e+005   1.1558e+007    0.0951   -0.0000    0.0000    0.0005    0.1005
                0.5514   2.1523e-003  -2.8989e-004   2.8066e-003   4.1299e+007  -1.9691e+005   1.1086e+007    0.1225   -0.0000    0.0000    0.0006    0.0964

               lamina:  2     
              matName:  (web-core)
                     s           e11           e22           e12           s11           s22           s12   s11_fcT   s11_fcC   s22_fcT   s22_fcC   s12_fcS
                   (m)         (m/m)         (m/m)         (rad)          (Pa)          (Pa)          (Pa)       (-)       (-)       (-)       (-)       (-)
                0.0000  -2.1829e-003   2.9400e-004   2.8083e-003  -4.9156e+005  -1.0048e+005   2.7521e+005    0.0000    0.1146    0.0000    0.0234    0.0933
                0.0613  -1.7014e-003   2.2915e-004   2.9274e-003  -3.8314e+005  -7.8313e+004   2.8689e+005    0.0000    0.0893    0.0000    0.0183    0.0973
                0.1225  -1.2199e-003   1.6430e-004   3.0167e-003  -2.7471e+005  -5.6151e+004   2.9564e+005    0.0000    0.0640    0.0000    0.0131    0.1002
                0.1838  -7.3842e-004   9.9453e-005   3.0762e-003  -1.6629e+005  -3.3989e+004   3.0147e+005    0.0000    0.0388    0.0000    0.0079    0.1022
                0.2451  -2.5694e-004   3.4603e-005   3.1058e-003  -5.7859e+004  -1.1827e+004   3.0437e+005    0.0000    0.0135    0.0000    0.0028    0.1032
                0.3063   2.2601e-004  -3.0438e-005   3.1057e-003   5.0896e+004   1.0404e+004   3.0435e+005    0.0119   -0.0000    0.0024   -0.0000    0.1032
                0.3676   7.0750e-004  -9.5288e-005   3.0756e-003   1.5932e+005   3.2566e+004   3.0141e+005    0.0371   -0.0000    0.0076   -0.0000    0.1022
                0.4289   1.1890e-003  -1.6014e-004   3.0158e-003   2.6775e+005   5.4728e+004   2.9555e+005    0.0624   -0.0000    0.0128   -0.0000    0.1002
                0.4901   1.6705e-003  -2.2499e-004   2.9261e-003   3.7617e+005   7.6890e+004   2.8676e+005    0.0877   -0.0000    0.0179   -0.0000    0.0972
                0.5514   2.1520e-003  -2.8984e-004   2.8066e-003   4.8460e+005   9.9052e+004   2.7505e+005    0.1130   -0.0000    0.0231   -0.0000    0.0932

               lamina:  3     
              matName:  (web-shell)
                     s           e11           e22           e12           s11           s22           s12   s11_fcT   s11_fcC   s22_fcT   s22_fcC   s12_fcS
                   (m)         (m/m)         (m/m)         (rad)          (Pa)          (Pa)          (Pa)       (-)       (-)       (-)       (-)       (-)
                0.0000  -2.1833e-003   2.9405e-004   2.8083e-003  -4.1893e+007   1.9974e+005   1.1093e+007    0.0000    0.0843    0.0006   -0.0000    0.0965
                0.0613  -1.7018e-003   2.2920e-004   2.9274e-003  -3.2654e+007   1.5567e+005   1.1563e+007    0.0000    0.0657    0.0005   -0.0000    0.1006
                0.1225  -1.2203e-003   1.6435e-004   3.0167e-003  -2.3415e+007   1.1161e+005   1.1916e+007    0.0000    0.0471    0.0003   -0.0000    0.1036
                0.1838  -7.3879e-004   9.9501e-005   3.0762e-003  -1.4176e+007   6.7538e+004   1.2151e+007    0.0000    0.0285    0.0002   -0.0000    0.1057
                0.2451  -2.5730e-004   3.4651e-005   3.1058e-003  -4.9372e+006   2.3470e+004   1.2268e+007    0.0000    0.0099    0.0001   -0.0000    0.1067
                0.3063   2.2455e-004  -3.0247e-005   3.1057e-003   4.3088e+006  -2.0604e+004   1.2267e+007    0.0128   -0.0000    0.0000    0.0001    0.1067
                0.3676   7.0604e-004  -9.5097e-005   3.0756e-003   1.3548e+007  -6.4672e+004   1.2149e+007    0.0402   -0.0000    0.0000    0.0002    0.1056
                0.4289   1.1875e-003  -1.5995e-004   3.0158e-003   2.2786e+007  -1.0874e+005   1.1912e+007    0.0676   -0.0000    0.0000    0.0003    0.1036
                0.4901   1.6690e-003  -2.2480e-004   2.9261e-003   3.2025e+007  -1.5281e+005   1.1558e+007    0.0950   -0.0000    0.0000    0.0005    0.1005
                0.5514   2.1505e-003  -2.8965e-004   2.8066e-003   4.1264e+007  -1.9687e+005   1.1086e+007    0.1224   -0.0000    0.0000    0.0006    0.0964

================================================================================
sec        =  5      
zSec       =  1.1970  (m)
nPanelsTop =  3      
nPanelsBot =  3      
nWebs      =  2      

    Top:  panel  nNode   nLam     xc_St    xc_End         b         t         E_eff         G_eff      nu_eff     density  buckleCrit
            (-)    (-)    (-)       (-)       (-)       (m)       (m)          (Pa)          (Pa)         (-)    (kg/m^3)         (-)
              1     17      5    0.0000    0.2304    0.4538    0.0287   2.8487e+010   4.0241e+009      0.2039   1723.9596      0.0286
              2     11      7    0.2304    0.4876    0.3847    0.0338   4.3281e+010   4.1468e+009      0.2148   1690.8900      0.0766
              3     27      5    0.4876    1.0000    0.8304    0.0311   2.6260e+010   3.7149e+009      0.2041   1603.9236      0.0925

            panel:  1     
           lam_num    nPlies        tPly      fibAng     matID  matName
               (-)       (-)         (m)       (deg)       (-)  (-)
                 1         1    0.006094      0.0000         2  (blade-shell)
                 2         1    0.008157      0.0000         1  (blade-root)
                 3         1    0.000168      0.0000         5  (LEP-core)
                 4         1    0.008157      0.0000         1  (blade-root)
                 5         1    0.006094      0.0000         2  (blade-shell)

               lamina:  1     
              matName:  (blade-shell)
                     s           e11           e22           e12           s11           s22           s12   s11_fcT   s11_fcC   s22_fcT   s22_fcC   s12_fcS
                   (m)         (m/m)         (m/m)         (rad)          (Pa)          (Pa)          (Pa)       (-)       (-)       (-)       (-)       (-)
                0.0000   8.1429e-005  -2.0652e-005   2.8616e-003   1.5379e+006  -1.9660e+005   1.1303e+007    0.0046   -0.0000    0.0000    0.0006    0.0983
                0.0073  -5.0024e-005  -4.8900e-006   2.8617e-003  -9.6896e+005  -8.5024e+004   1.1304e+007    0.0000    0.0019    0.0000    0.0003    0.0983
                0.0286  -2.9872e-004   5.2588e-005   2.8569e-003  -5.7004e+006   2.6864e+005   1.1285e+007    0.0000    0.0115    0.0008   -0.0000    0.0981
                0.0535  -6.3935e-004   1.1761e-004   2.8416e-003  -1.2188e+007   6.7363e+005   1.1224e+007    0.0000    0.0245    0.0020   -0.0000    0.0976
                0.0717  -8.8520e-004   1.6343e-004   2.8243e-003  -1.6873e+007   9.4439e+005   1.1156e+007    0.0000    0.0339    0.0028   -0.0000    0.0970
                0.0965  -1.1553e-003   2.1632e-004   2.7928e-003  -2.2014e+007   1.2915e+006   1.1032e+007    0.0000    0.0443    0.0038   -0.0000    0.0959
                0.1198  -1.4025e-003   2.6366e-004   2.7555e-003  -2.6722e+007   1.5884e+006   1.0884e+007    0.0000    0.0538    0.0047   -0.0000    0.0946
                0.1463  -1.6253e-003   3.0803e-004   2.7050e-003  -3.0960e+007   1.8894e+006   1.0685e+007    0.0000    0.0623    0.0056   -0.0000    0.0929
                0.1753  -1.8829e-003   3.5849e-004   2.6397e-003  -3.5863e+007   2.2208e+006   1.0427e+007    0.0000    0.0722    0.0066   -0.0000    0.0907
                0.2035  -2.0862e-003   3.9821e-004   2.5677e-003  -3.9732e+007   2.4804e+006   1.0142e+007    0.0000    0.0799    0.0074   -0.0000    0.0882
                0.2355  -2.2936e-003   4.3986e-004   2.4767e-003  -4.3678e+007   2.7672e+006   9.7831e+006    0.0000    0.0879    0.0082   -0.0000    0.0851
                0.2683  -2.4958e-003   4.7985e-004   2.3738e-003  -4.7525e+007   3.0347e+006   9.3767e+006    0.0000    0.0956    0.0090   -0.0000    0.0815
                0.3027  -2.6680e-003   5.1435e-004   2.2568e-003  -5.0800e+007   3.2716e+006   8.9144e+006    0.0000    0.1022    0.0097   -0.0000    0.0775
                0.3393  -2.8535e-003   5.5143e-004   2.1228e-003  -5.4328e+007   3.5249e+006   8.3850e+006    0.0000    0.1093    0.0105   -0.0000    0.0729
                0.3763  -2.9996e-003   5.8047e-004   1.9790e-003  -5.7108e+007   3.7210e+006   7.8169e+006    0.0000    0.1149    0.0110   -0.0000    0.0680
                0.4156  -3.1362e-003   6.0811e-004   1.8180e-003  -5.9707e+007   3.9138e+006   7.1812e+006    0.0000    0.1201    0.0116   -0.0000    0.0624
                0.4538  -3.2574e-003   6.3269e-004   1.6542e-003  -6.2011e+007   4.0862e+006   6.5341e+006    0.0000    0.1248    0.0121   -0.0000    0.0568

               lamina:  2     
              matName:  (blade-root)
                     s           e11           e22           e12           s11           s22           s12   s11_fcT   s11_fcC   s22_fcT   s22_fcC   s12_fcS
                   (m)         (m/m)         (m/m)         (rad)          (Pa)          (Pa)          (Pa)       (-)       (-)       (-)       (-)       (-)
                0.0000   1.5392e-004  -3.1426e-005   2.8616e-003   5.5187e+006   1.6556e+005   1.1790e+007    0.0055   -0.0000    0.0032   -0.0000    0.1053
                0.0073   7.6615e-005  -1.5664e-005   2.8617e-003   2.7470e+006   8.2232e+004   1.1790e+007    0.0027   -0.0000    0.0016   -0.0000    0.1053
                0.0286  -2.3473e-004   4.3078e-005   2.8569e-003  -8.4298e+006  -2.9391e+005   1.1770e+007    0.0000    0.0107    0.0000    0.0057    0.1051
                0.0535  -5.4124e-004   1.0303e-004   2.8416e-003  -1.9427e+007  -6.4612e+005   1.1707e+007    0.0000    0.0247    0.0000    0.0126    0.1045
                0.0717  -7.5398e-004   1.4393e-004   2.8243e-003  -2.7062e+007  -8.9659e+005   1.1636e+007    0.0000    0.0343    0.0000    0.0175    0.1039
                0.0965  -1.0073e-003   1.9431e-004   2.7928e-003  -3.6147e+007  -1.1804e+006   1.1506e+007    0.0000    0.0459    0.0000    0.0231    0.1027
                0.1198  -1.2309e-003   2.3814e-004   2.7555e-003  -4.4169e+007  -1.4365e+006   1.1353e+007    0.0000    0.0561    0.0000    0.0281    0.1014
                0.1463  -1.4456e-003   2.8132e-004   2.7050e-003  -5.1870e+007  -1.6731e+006   1.1144e+007    0.0000    0.0658    0.0000    0.0327    0.0995
                0.1753  -1.6873e-003   3.2942e-004   2.6397e-003  -6.0540e+007  -1.9438e+006   1.0876e+007    0.0000    0.0768    0.0000    0.0380    0.0971
                0.2035  -1.8772e-003   3.6715e-004   2.5677e-003  -6.7353e+007  -2.1570e+006   1.0579e+007    0.0000    0.0855    0.0000    0.0421    0.0945
                0.2355  -2.0797e-003   4.0807e-004   2.4767e-003  -7.4614e+007  -2.3785e+006   1.0204e+007    0.0000    0.0947    0.0000    0.0465    0.0911
                0.2683  -2.2723e-003   4.4663e-004   2.3738e-003  -8.1523e+007  -2.5922e+006   9.7802e+006    0.0000    0.1035    0.0000    0.0506    0.0873
                0.3027  -2.4399e-003   4.8046e-004   2.2568e-003  -8.7533e+007  -2.7758e+006   9.2980e+006    0.0000    0.1111    0.0000    0.0542    0.0830
                0.3393  -2.6197e-003   5.1669e-004   2.1228e-003  -9.3980e+007  -2.9732e+006   8.7459e+006    0.0000    0.1193    0.0000    0.0581    0.0781
                0.3763  -2.7600e-003   5.4486e-004   1.9790e-003  -9.9012e+007  -3.1281e+006   8.1533e+006    0.0000    0.1256    0.0000    0.0611    0.0728
                0.4156  -2.8949e-003   5.7224e-004   1.8180e-003  -1.0385e+008  -3.2747e+006   7.4903e+006    0.0000    0.1318    0.0000    0.0640    0.0669
                0.4538  -3.0151e-003   5.9668e-004   1.6542e-003  -1.0816e+008  -3.4049e+006   6.8153e+006    0.0000    0.1373    0.0000    0.0665    0.0609

               lamina:  3     
              matName:  (LEP-core)
                     s           e11           e22           e12           s11           s22           s12   s11_fcT   s11_fcC   s22_fcT   s22_fcC   s12_fcS
                   (m)         (m/m)         (m/m)         (rad)          (Pa)          (Pa)          (Pa)       (-)       (-)       (-)       (-)       (-)
                0.0000   1.5541e-004  -3.1648e-005   2.8616e-003   3.4164e+004   4.6281e+003   2.8043e+005    0.0080   -0.0000    0.0011   -0.0000    0.0951
                0.0073   7.8112e-005  -1.5886e-005   2.8617e-003   1.7173e+004   2.3309e+003   2.8044e+005    0.0040   -0.0000    0.0005   -0.0000    0.0951
                0.0286  -1.4907e-004   3.0346e-005   2.8569e-003  -3.2770e+004  -4.4412e+003   2.7997e+005    0.0000    0.0076    0.0000    0.0010    0.0949
                0.0535  -4.0990e-004   8.3505e-005   2.8416e-003  -9.0104e+004  -1.2198e+004   2.7847e+005    0.0000    0.0210    0.0000    0.0028    0.0944
                0.0717  -5.7831e-004   1.1782e-004   2.8243e-003  -1.2712e+005  -1.7209e+004   2.7678e+005    0.0000    0.0296    0.0000    0.0040    0.0938
                0.0965  -8.0905e-004   1.6486e-004   2.7928e-003  -1.7784e+005  -2.4068e+004   2.7370e+005    0.0000    0.0415    0.0000    0.0056    0.0928
                0.1198  -1.0011e-003   2.0399e-004   2.7555e-003  -2.2005e+005  -2.9779e+004   2.7004e+005    0.0000    0.0513    0.0000    0.0069    0.0915
                0.1463  -1.2050e-003   2.4556e-004   2.7050e-003  -2.6487e+005  -3.5840e+004   2.6509e+005    0.0000    0.0617    0.0000    0.0084    0.0899
                0.1753  -1.4254e-003   2.9049e-004   2.6397e-003  -3.1332e+005  -4.2392e+004   2.5869e+005    0.0000    0.0730    0.0000    0.0099    0.0877
                0.2035  -1.5974e-003   3.2557e-004   2.5677e-003  -3.5114e+005  -4.7508e+004   2.5164e+005    0.0000    0.0819    0.0000    0.0111    0.0853
                0.2355  -1.7933e-003   3.6551e-004   2.4767e-003  -3.9420e+005  -5.3329e+004   2.4272e+005    0.0000    0.0919    0.0000    0.0124    0.0823
                0.2683  -1.9731e-003   4.0216e-004   2.3738e-003  -4.3372e+005  -5.8674e+004   2.3264e+005    0.0000    0.1011    0.0000    0.0137    0.0789
                0.3027  -2.1346e-003   4.3508e-004   2.2568e-003  -4.6922e+005  -6.3474e+004   2.2117e+005    0.0000    0.1094    0.0000    0.0148    0.0750
                0.3393  -2.3068e-003   4.7018e-004   2.1228e-003  -5.0706e+005  -6.8591e+004   2.0803e+005    0.0000    0.1182    0.0000    0.0160    0.0705
                0.3763  -2.4393e-003   4.9720e-004   1.9790e-003  -5.3618e+005  -7.2529e+004   1.9394e+005    0.0000    0.1250    0.0000    0.0169    0.0657
                0.4156  -2.5718e-003   5.2422e-004   1.8180e-003  -5.6531e+005  -7.6468e+004   1.7817e+005    0.0000    0.1318    0.0000    0.0178    0.0604
                0.4538  -2.6908e-003   5.4847e-004   1.6542e-003  -5.9146e+005  -8.0003e+004   1.6211e+005    0.0000    0.1379    0.0000    0.0186    0.0550

               lamina:  4     
              matName:  (blade-root)
                     s           e11           e22           e12           s11           s22           s12   s11_fcT   s11_fcC   s22_fcT   s22_fcC   s12_fcS
                   (m)         (m/m)         (m/m)         (rad)          (Pa)          (Pa)          (Pa)       (-)       (-)       (-)       (-)       (-)
                0.0000   2.2790e-004  -4.2422e-005   2.8616e-003   8.1830e+006   2.8027e+005   1.1790e+007    0.0081   -0.0000    0.0055   -0.0000    0.1053
                0.0073   1.5060e-004  -2.6660e-005   2.8617e-003   5.4113e+006   1.9694e+005   1.1790e+007    0.0054   -0.0000    0.0038   -0.0000    0.1053
                0.0286  -1.4730e-004   3.0084e-005   2.8569e-003  -5.2813e+006  -1.5836e+005   1.1770e+007    0.0000    0.0067    0.0000    0.0031    0.1051
                0.0535  -4.0719e-004   8.3102e-005   2.8416e-003  -1.4600e+007  -4.3827e+005   1.1707e+007    0.0000    0.0185    0.0000    0.0086    0.1045
                0.0717  -5.7469e-004   1.1728e-004   2.8243e-003  -2.0606e+007  -6.1861e+005   1.1636e+007    0.0000    0.0261    0.0000    0.0121    0.1039
                0.0965  -8.0496e-004   1.6425e-004   2.7928e-003  -2.8862e+007  -8.6671e+005   1.1506e+007    0.0000    0.0366    0.0000    0.0169    0.1027
                0.1198  -9.9634e-004   2.0329e-004   2.7555e-003  -3.5724e+007  -1.0729e+006   1.1353e+007    0.0000    0.0453    0.0000    0.0210    0.1014
                0.1463  -1.2000e-003   2.4483e-004   2.7050e-003  -4.3027e+007  -1.2923e+006   1.1144e+007    0.0000    0.0546    0.0000    0.0252    0.0995
                0.1753  -1.4200e-003   2.8969e-004   2.6397e-003  -5.0914e+007  -1.5293e+006   1.0876e+007    0.0000    0.0646    0.0000    0.0299    0.0971
                0.2035  -1.5917e-003   3.2471e-004   2.5677e-003  -5.7070e+007  -1.7143e+006   1.0579e+007    0.0000    0.0724    0.0000    0.0335    0.0945
                0.2355  -1.7874e-003   3.6463e-004   2.4767e-003  -6.4089e+007  -1.9253e+006   1.0204e+007    0.0000    0.0813    0.0000    0.0376    0.0911
                0.2683  -1.9670e-003   4.0124e-004   2.3738e-003  -7.0526e+007  -2.1188e+006   9.7802e+006    0.0000    0.0895    0.0000    0.0414    0.0873
                0.3027  -2.1283e-003   4.3415e-004   2.2568e-003  -7.6312e+007  -2.2927e+006   9.2980e+006    0.0000    0.0968    0.0000    0.0448    0.0830
                0.3393  -2.3003e-003   4.6922e-004   2.1228e-003  -8.2479e+007  -2.4780e+006   8.7459e+006    0.0000    0.1047    0.0000    0.0484    0.0781
                0.3763  -2.4327e-003   4.9621e-004   1.9790e-003  -8.7224e+007  -2.6206e+006   8.1533e+006    0.0000    0.1107    0.0000    0.0512    0.0728
                0.4156  -2.5651e-003   5.2323e-004   1.8180e-003  -9.1974e+007  -2.7634e+006   7.4903e+006    0.0000    0.1167    0.0000    0.0540    0.0669
                0.4538  -2.6841e-003   5.4748e-004   1.6542e-003  -9.6238e+007  -2.8916e+006   6.8153e+006    0.0000    0.1221    0.0000    0.0565    0.0609

               lamina:  5     
              matName:  (blade-shell)
                     s           e11           e22           e12           s11           s22           s12   s11_fcT   s11_fcC   s22_fcT   s22_fcC   s12_fcS
                   (m)         (m/m)         (m/m)         (rad)          (Pa)          (Pa)          (Pa)       (-)       (-)       (-)       (-)       (-)
                0.0000   2.8205e-004  -5.0470e-005   2.8616e-003   5.3804e+006  -2.6958e+005   1.1303e+007    0.0160   -0.0000    0.0000    0.0008    0.0983
                0.0073   2.0475e-004  -3.4708e-005   2.8617e-003   3.9107e+006  -1.5800e+005   1.1304e+007    0.0116   -0.0000    0.0000    0.0005    0.0983
                0.0286  -6.1638e-005   1.7352e-005   2.8569e-003  -1.1597e+006   1.8240e+005   1.1285e+007    0.0000    0.0023    0.0005   -0.0000    0.0981
                0.0535  -2.7585e-004   6.3582e-005   2.8416e-003  -5.2259e+006   5.4140e+005   1.1224e+007    0.0000    0.0105    0.0016   -0.0000    0.0976
                0.0717  -3.9902e-004   9.1174e-005   2.8243e-003  -7.5615e+006   7.6754e+005   1.1156e+007    0.0000    0.0152    0.0023   -0.0000    0.0970
                0.0965  -6.0675e-004   1.3479e-004   2.7928e-003  -1.1508e+007   1.0920e+006   1.1032e+007    0.0000    0.0232    0.0032   -0.0000    0.0959
                0.1198  -7.6656e-004   1.6914e-004   2.7555e-003  -1.4542e+007   1.3571e+006   1.0884e+007    0.0000    0.0293    0.0040   -0.0000    0.0946
                0.1463  -9.5942e-004   2.0907e-004   2.7050e-003  -1.8207e+007   1.6472e+006   1.0685e+007    0.0000    0.0366    0.0049   -0.0000    0.0929
                0.1753  -1.1581e-003   2.5076e-004   2.6397e-003  -2.1981e+007   1.9572e+006   1.0427e+007    0.0000    0.0442    0.0058   -0.0000    0.0907
                0.2035  -1.3119e-003   2.8313e-004   2.5677e-003  -2.4903e+007   2.1987e+006   1.0142e+007    0.0000    0.0501    0.0065   -0.0000    0.0882
                0.2355  -1.5010e-003   3.2206e-004   2.4767e-003  -2.8498e+007   2.4789e+006   9.7831e+006    0.0000    0.0573    0.0074   -0.0000    0.0851
                0.2683  -1.6678e-003   3.5678e-004   2.3738e-003  -3.1666e+007   2.7335e+006   9.3767e+006    0.0000    0.0637    0.0081   -0.0000    0.0815
                0.3027  -1.8230e-003   3.8877e-004   2.2568e-003  -3.4616e+007   2.9643e+006   8.9144e+006    0.0000    0.0697    0.0088   -0.0000    0.0775
                0.3393  -1.9874e-003   4.2272e-004   2.1228e-003  -3.7741e+007   3.2098e+006   8.3850e+006    0.0000    0.0759    0.0095   -0.0000    0.0729
                0.3763  -2.1120e-003   4.4855e-004   1.9790e-003  -4.0108e+007   3.3981e+006   7.8169e+006    0.0000    0.0807    0.0101   -0.0000    0.0680
                0.4156  -2.2421e-003   4.7521e-004   1.8180e-003  -4.2581e+007   3.5885e+006   7.1812e+006    0.0000    0.0857    0.0106   -0.0000    0.0624
                0.4538  -2.3597e-003   4.9927e-004   1.6542e-003  -4.4818e+007   3.7597e+006   6.5341e+006    0.0000    0.0902    0.0112   -0.0000    0.0568

            panel:  2     
           lam_num    nPlies        tPly      fibAng     matID  matName
               (-)       (-)         (m)       (deg)       (-)  (-)
                 1         1    0.006094      0.0000         2  (blade-shell)
                 2         1    0.008157      0.0000         1  (blade-root)
                 3         1    0.002620      0.0000         3  (spar-uni)
                 4         1    0.000028      0.0000         4  (spar-core)
                 5         1    0.002620      0.0000         3  (spar-uni)
                 6         1    0.008157      0.0000         1  (blade-root)
                 7         1    0.006094      0.0000         2  (blade-shell)

               lamina:  1     
              matName:  (blade-shell)
                     s           e11           e22           e12           s11           s22           s12   s11_fcT   s11_fcC   s22_fcT   s22_fcC   s12_fcS
                   (m)         (m/m)         (m/m)         (rad)          (Pa)          (Pa)          (Pa)       (-)       (-)       (-)       (-)       (-)
                0.0000  -3.6165e-003   7.2133e-004   1.8810e-003  -6.8798e+007   4.9057e+006   7.4301e+006    0.0000    0.1384    0.0146   -0.0000    0.0646
                0.0012  -3.6427e-003   7.2570e-004   1.8732e-003  -6.9300e+007   4.9245e+006   7.3991e+006    0.0000    0.1394    0.0146   -0.0000    0.0643
                0.0429  -3.7317e-003   7.4475e-004   1.6025e-003  -7.0990e+007   5.0706e+006   6.3297e+006    0.0000    0.1428    0.0150   -0.0000    0.0550
                0.0855  -3.8280e-003   7.6507e-004   1.3172e-003  -7.2819e+007   5.2229e+006   5.2029e+006    0.0000    0.1465    0.0155   -0.0000    0.0452
                0.1284  -3.8936e-003   7.7870e-004   1.0230e-003  -7.4065e+007   5.3226e+006   4.0408e+006    0.0000    0.1490    0.0158   -0.0000    0.0351
                0.1728  -3.9304e-003   7.8649e-004   7.1462e-004  -7.4765e+007   5.3811e+006   2.8227e+006    0.0000    0.1504    0.0160   -0.0000    0.0245
                0.2176  -3.9682e-003   7.9446e-004   4.0043e-004  -7.5483e+007   5.4409e+006   1.5817e+006    0.0000    0.1519    0.0161   -0.0000    0.0138
                0.2630  -3.9478e-003   7.9011e-004   8.2154e-005  -7.5094e+007   5.4079e+006   3.2451e+005    0.0000    0.1511    0.0160   -0.0000    0.0028
                0.3097  -3.9238e-003   7.8501e-004   2.4171e-004  -7.4638e+007   5.3692e+006   9.5476e+005    0.0000    0.1502    0.0159   -0.0000    0.0083
                0.3564  -3.8819e-003   7.7620e-004   5.6195e-004  -7.3842e+007   5.3035e+006   2.2197e+006    0.0000    0.1486    0.0157   -0.0000    0.0193
                0.3847  -3.8332e-003   7.6602e-004   7.5317e-004  -7.2917e+007   5.2285e+006   2.9750e+006    0.0000    0.1467    0.0155   -0.0000    0.0259

               lamina:  2     
              matName:  (blade-root)
                     s           e11           e22           e12           s11           s22           s12   s11_fcT   s11_fcC   s22_fcT   s22_fcC   s12_fcS
                   (m)         (m/m)         (m/m)         (rad)          (Pa)          (Pa)          (Pa)       (-)       (-)       (-)       (-)       (-)
                0.0000  -3.2716e-003   6.6727e-004   1.8810e-003  -1.1731e+008  -3.5250e+006   7.7498e+006    0.0000    0.1489    0.0000    0.0688    0.0692
                0.0012  -3.2900e-003   6.7042e-004   1.8732e-003  -1.1797e+008  -3.5500e+006   7.7175e+006    0.0000    0.1497    0.0000    0.0693    0.0689
                0.0429  -3.3786e-003   6.8941e-004   1.6025e-003  -1.2114e+008  -3.6376e+006   6.6021e+006    0.0000    0.1537    0.0000    0.0710    0.0589
                0.0855  -3.4726e-003   7.0937e-004   1.3172e-003  -1.2451e+008  -3.7322e+006   5.4269e+006    0.0000    0.1580    0.0000    0.0729    0.0485
                0.1284  -3.5353e-003   7.2255e-004   1.0230e-003  -1.2676e+008  -3.7965e+006   4.2147e+006    0.0000    0.1609    0.0000    0.0742    0.0376
                0.1728  -3.5714e-003   7.3021e-004   7.1462e-004  -1.2805e+008  -3.8327e+006   2.9442e+006    0.0000    0.1625    0.0000    0.0749    0.0263
                0.2176  -3.6083e-003   7.3805e-004   4.0043e-004  -1.2937e+008  -3.8698e+006   1.6498e+006    0.0000    0.1642    0.0000    0.0756    0.0147
                0.2630  -3.5881e-003   7.3374e-004   8.2154e-005  -1.2865e+008  -3.8497e+006   3.3848e+005    0.0000    0.1633    0.0000    0.0752    0.0030
                0.3097  -3.5644e-003   7.2869e-004   2.4171e-004  -1.2780e+008  -3.8261e+006   9.9585e+005    0.0000    0.1622    0.0000    0.0747    0.0089
                0.3564  -3.5237e-003   7.2007e-004   5.6195e-004  -1.2634e+008  -3.7849e+006   2.3152e+006    0.0000    0.1603    0.0000    0.0739    0.0207
                0.3847  -3.4768e-003   7.1017e-004   7.5317e-004  -1.2466e+008  -3.7372e+006   3.1030e+006    0.0000    0.1582    0.0000    0.0730    0.0277

               lamina:  3     
              matName:  (spar-uni)
                     s           e11           e22           e12           s11           s22           s12   s11_fcT   s11_fcC   s22_fcT   s22_fcC   s12_fcS
                   (m)         (m/m)         (m/m)         (rad)          (Pa)          (Pa)          (Pa)       (-)       (-)       (-)       (-)       (-)
                0.0000  -2.8099e-003   5.9492e-004   1.8810e-003  -3.4633e+008  -2.2792e+006   8.8596e+006    0.0000    0.3463    0.0000    0.0380    0.0860
                0.0012  -2.8179e-003   5.9642e-004   1.8732e-003  -3.4730e+008  -2.2870e+006   8.8227e+006    0.0000    0.3473    0.0000    0.0382    0.0857
                0.0429  -2.9059e-003   6.1532e-004   1.6025e-003  -3.5815e+008  -2.3562e+006   7.5476e+006    0.0000    0.3582    0.0000    0.0393    0.0733
                0.0855  -2.9968e-003   6.3480e-004   1.3172e-003  -3.6936e+008  -2.4282e+006   6.2040e+006    0.0000    0.3694    0.0000    0.0405    0.0602
                0.1284  -3.0558e-003   6.4738e-004   1.0230e-003  -3.7663e+008  -2.4751e+006   4.8182e+006    0.0000    0.3766    0.0000    0.0413    0.0468
                0.1728  -3.0908e-003   6.5488e-004   7.1462e-004  -3.8094e+008  -2.5027e+006   3.3659e+006    0.0000    0.3809    0.0000    0.0418    0.0327
                0.2176  -3.1265e-003   6.6253e-004   4.0043e-004  -3.8534e+008  -2.5310e+006   1.8860e+006    0.0000    0.3853    0.0000    0.0423    0.0183
                0.2630  -3.1066e-003   6.5828e-004   8.2154e-005  -3.8290e+008  -2.5153e+006   3.8695e+005    0.0000    0.3829    0.0000    0.0420    0.0038
                0.3097  -3.0835e-003   6.5330e-004   2.4171e-004  -3.8004e+008  -2.4970e+006   1.1385e+006    0.0000    0.3800    0.0000    0.0417    0.0111
                0.3564  -3.0443e-003   6.4493e-004   5.6195e-004  -3.7522e+008  -2.4661e+006   2.6468e+006    0.0000    0.3752    0.0000    0.0412    0.0257
                0.3847  -2.9998e-003   6.3541e-004   7.5317e-004  -3.6973e+008  -2.4307e+006   3.5474e+006    0.0000    0.3697    0.0000    0.0406    0.0344

               lamina:  4     
              matName:  (spar-core)
                     s           e11           e22           e12           s11           s22           s12   s11_fcT   s11_fcC   s22_fcT   s22_fcC   s12_fcS
                   (m)         (m/m)         (m/m)         (rad)          (Pa)          (Pa)          (Pa)       (-)       (-)       (-)       (-)       (-)
                0.0000  -2.6617e-003   5.7168e-004   1.8810e-003  -5.8280e+005  -7.2272e+004   1.8434e+005    0.0000    0.1359    0.0000    0.0168    0.0625
                0.0012  -2.6662e-003   5.7265e-004   1.8732e-003  -5.8380e+005  -7.2396e+004   1.8357e+005    0.0000    0.1361    0.0000    0.0169    0.0622
                0.0429  -2.7541e-003   5.9152e-004   1.6025e-003  -6.0303e+005  -7.4781e+004   1.5704e+005    0.0000    0.1406    0.0000    0.0174    0.0532
                0.0855  -2.8440e-003   6.1085e-004   1.3172e-003  -6.2273e+005  -7.7224e+004   1.2909e+005    0.0000    0.1452    0.0000    0.0180    0.0438
                0.1284  -2.9017e-003   6.2324e-004   1.0230e-003  -6.3537e+005  -7.8790e+004   1.0025e+005    0.0000    0.1481    0.0000    0.0184    0.0340
                0.1728  -2.9364e-003   6.3069e-004   7.1462e-004  -6.4296e+005  -7.9731e+004   7.0033e+004    0.0000    0.1499    0.0000    0.0186    0.0237
                0.2176  -2.9717e-003   6.3828e-004   4.0043e-004  -6.5069e+005  -8.0690e+004   3.9242e+004    0.0000    0.1517    0.0000    0.0188    0.0133
                0.2630  -2.9520e-003   6.3404e-004   8.2154e-005  -6.4638e+005  -8.0155e+004   8.0511e+003    0.0000    0.1507    0.0000    0.0187    0.0027
                0.3097  -2.9290e-003   6.2909e-004   2.4171e-004  -6.4133e+005  -7.9530e+004   2.3688e+004    0.0000    0.1495    0.0000    0.0185    0.0080
                0.3564  -2.8904e-003   6.2080e-004   5.6195e-004  -6.3287e+005  -7.8481e+004   5.5071e+004    0.0000    0.1475    0.0000    0.0183    0.0187
                0.3847  -2.8466e-003   6.1139e-004   7.5317e-004  -6.2329e+005  -7.7293e+004   7.3810e+004    0.0000    0.1453    0.0000    0.0180    0.0250

               lamina:  5     
              matName:  (spar-uni)
                     s           e11           e22           e12           s11           s22           s12   s11_fcT   s11_fcC   s22_fcT   s22_fcC   s12_fcS
                   (m)         (m/m)         (m/m)         (rad)          (Pa)          (Pa)          (Pa)       (-)       (-)       (-)       (-)       (-)
                0.0000  -2.6601e-003   5.7143e-004   1.8810e-003  -3.2784e+008  -2.0896e+006   8.8596e+006    0.0000    0.3278    0.0000    0.0349    0.0860
                0.0012  -2.6646e-003   5.7240e-004   1.8732e-003  -3.2839e+008  -2.0931e+006   8.8227e+006    0.0000    0.3284    0.0000    0.0349    0.0857
                0.0429  -2.7524e-003   5.9127e-004   1.6025e-003  -3.3922e+008  -2.1622e+006   7.5476e+006    0.0000    0.3392    0.0000    0.0361    0.0733
                0.0855  -2.8424e-003   6.1059e-004   1.3172e-003  -3.5031e+008  -2.2328e+006   6.2040e+006    0.0000    0.3503    0.0000    0.0373    0.0602
                0.1284  -2.9001e-003   6.2298e-004   1.0230e-003  -3.5742e+008  -2.2782e+006   4.8182e+006    0.0000    0.3574    0.0000    0.0380    0.0468
                0.1728  -2.9347e-003   6.3043e-004   7.1462e-004  -3.6169e+008  -2.3054e+006   3.3659e+006    0.0000    0.3617    0.0000    0.0385    0.0327
                0.2176  -2.9701e-003   6.3802e-004   4.0043e-004  -3.6604e+008  -2.3331e+006   1.8860e+006    0.0000    0.3660    0.0000    0.0390    0.0183
                0.2630  -2.9504e-003   6.3378e-004   8.2154e-005  -3.6361e+008  -2.3177e+006   3.8695e+005    0.0000    0.3636    0.0000    0.0387    0.0038
                0.3097  -2.9273e-003   6.2883e-004   2.4171e-004  -3.6077e+008  -2.2996e+006   1.1385e+006    0.0000    0.3608    0.0000    0.0384    0.0111
                0.3564  -2.8887e-003   6.2054e-004   5.6195e-004  -3.5601e+008  -2.2692e+006   2.6468e+006    0.0000    0.3560    0.0000    0.0379    0.0257
                0.3847  -2.8449e-003   6.1114e-004   7.5317e-004  -3.5062e+008  -2.2348e+006   3.5474e+006    0.0000    0.3506    0.0000    0.0373    0.0344

               lamina:  6     
              matName:  (blade-root)
                     s           e11           e22           e12           s11           s22           s12   s11_fcT   s11_fcC   s22_fcT   s22_fcC   s12_fcS
                   (m)         (m/m)         (m/m)         (rad)          (Pa)          (Pa)          (Pa)       (-)       (-)       (-)       (-)       (-)
                0.0000  -2.5118e-003   5.4819e-004   1.8810e-003  -8.9962e+007  -2.3997e+006   7.7498e+006    0.0000    0.1142    0.0000    0.0469    0.0692
                0.0012  -2.5130e-003   5.4863e-004   1.8732e-003  -9.0002e+007  -2.3991e+006   7.7175e+006    0.0000    0.1142    0.0000    0.0469    0.0689
                0.0429  -2.6006e-003   5.6747e-004   1.6025e-003  -9.3142e+007  -2.4853e+006   6.6021e+006    0.0000    0.1182    0.0000    0.0485    0.0589
                0.0855  -2.6896e-003   5.8665e-004   1.3172e-003  -9.6330e+007  -2.5725e+006   5.4269e+006    0.0000    0.1222    0.0000    0.0502    0.0485
                0.1284  -2.7461e-003   5.9884e-004   1.0230e-003  -9.8352e+007  -2.6274e+006   4.2147e+006    0.0000    0.1248    0.0000    0.0513    0.0376
                0.1728  -2.7804e-003   6.0623e-004   7.1462e-004  -9.9582e+007  -2.6611e+006   2.9442e+006    0.0000    0.1264    0.0000    0.0520    0.0263
                0.2176  -2.8153e-003   6.1376e-004   4.0043e-004  -1.0083e+008  -2.6953e+006   1.6498e+006    0.0000    0.1280    0.0000    0.0526    0.0147
                0.2630  -2.7958e-003   6.0955e-004   8.2154e-005  -1.0013e+008  -2.6761e+006   3.3848e+005    0.0000    0.1271    0.0000    0.0523    0.0030
                0.3097  -2.7729e-003   6.0462e-004   2.4171e-004  -9.9312e+007  -2.6536e+006   9.9585e+005    0.0000    0.1260    0.0000    0.0518    0.0089
                0.3564  -2.7347e-003   5.9641e-004   5.6195e-004  -9.7947e+007  -2.6163e+006   2.3152e+006    0.0000    0.1243    0.0000    0.0511    0.0207
                0.3847  -2.6917e-003   5.8713e-004   7.5317e-004  -9.6406e+007  -2.5744e+006   3.1030e+006    0.0000    0.1223    0.0000    0.0503    0.0277

               lamina:  7     
              matName:  (blade-shell)
                     s           e11           e22           e12           s11           s22           s12   s11_fcT   s11_fcC   s22_fcT   s22_fcC   s12_fcS
                   (m)         (m/m)         (m/m)         (rad)          (Pa)          (Pa)          (Pa)       (-)       (-)       (-)       (-)       (-)
                0.0000  -2.0502e-003   4.7584e-004   1.8810e-003  -3.8832e+007   4.0879e+006   7.4301e+006    0.0000    0.0781    0.0121   -0.0000    0.0646
                0.0012  -2.0408e-003   4.7463e-004   1.8732e-003  -3.8652e+007   4.0881e+006   7.3991e+006    0.0000    0.0778    0.0121   -0.0000    0.0643
                0.0429  -2.1279e-003   4.9338e-004   1.6025e-003  -4.0306e+007   4.2332e+006   6.3297e+006    0.0000    0.0811    0.0126   -0.0000    0.0550
                0.0855  -2.2138e-003   5.1208e-004   1.3172e-003  -4.1936e+007   4.3801e+006   5.2029e+006    0.0000    0.0844    0.0130   -0.0000    0.0452
                0.1284  -2.2665e-003   5.2368e-004   1.0230e-003  -4.2935e+007   4.4730e+006   4.0408e+006    0.0000    0.0864    0.0133   -0.0000    0.0351
                0.1728  -2.2998e-003   5.3090e-004   7.1462e-004  -4.3566e+007   4.5297e+006   2.8227e+006    0.0000    0.0877    0.0134   -0.0000    0.0245
                0.2176  -2.3335e-003   5.3824e-004   4.0043e-004  -4.4207e+007   4.5874e+006   1.5817e+006    0.0000    0.0889    0.0136   -0.0000    0.0138
                0.2630  -2.3143e-003   5.3409e-004   8.2154e-005  -4.3842e+007   4.5550e+006   3.2451e+005    0.0000    0.0882    0.0135   -0.0000    0.0028
                0.3097  -2.2919e-003   5.2923e-004   2.4171e-004  -4.3416e+007   4.5172e+006   9.5476e+005    0.0000    0.0874    0.0134   -0.0000    0.0083
                0.3564  -2.2553e-003   5.2126e-004   5.6195e-004  -4.2723e+007   4.4543e+006   2.2197e+006    0.0000    0.0860    0.0132   -0.0000    0.0193
                0.3847  -2.2147e-003   5.1236e-004   7.5317e-004  -4.1953e+007   4.3835e+006   2.9750e+006    0.0000    0.0844    0.0130   -0.0000    0.0259

            panel:  3     
           lam_num    nPlies        tPly      fibAng     matID  matName
               (-)       (-)         (m)       (deg)       (-)  (-)
                 1         1    0.006094      0.0000         2  (blade-shell)
                 2         1    0.008157      0.0000         1  (blade-root)
                 3         1    0.002620      0.0000         6  (TEP-core)
                 4         1    0.008157      0.0000         1  (blade-root)
                 5         1    0.006094      0.0000         2  (blade-shell)

               lamina:  1     
              matName:  (blade-shell)
                     s           e11           e22           e12           s11           s22           s12   s11_fcT   s11_fcC   s22_fcT   s22_fcC   s12_fcS
                   (m)         (m/m)         (m/m)         (rad)          (Pa)          (Pa)          (Pa)       (-)       (-)       (-)       (-)       (-)
                0.0000  -3.4349e-003   6.7140e-004   1.8833e-004  -6.5379e+007   4.3916e+006   7.4392e+005    0.0000    0.1315    0.0130   -0.0000    0.0065
                0.0189  -3.4059e-003   6.6548e-004   2.7369e-004  -6.4828e+007   4.3496e+006   1.0811e+006    0.0000    0.1304    0.0129   -0.0000    0.0094
                0.0663  -3.3305e-003   6.5022e-004   4.8438e-004  -6.3394e+007   4.2430e+006   1.9133e+006    0.0000    0.1276    0.0126   -0.0000    0.0166
                0.1138  -3.2260e-003   6.2910e-004   6.8810e-004  -6.1406e+007   4.0959e+006   2.7180e+006    0.0000    0.1236    0.0122   -0.0000    0.0236
                0.1616  -3.1111e-003   6.0574e-004   8.8419e-004  -5.9222e+007   3.9314e+006   3.4925e+006    0.0000    0.1192    0.0117   -0.0000    0.0304
                0.2085  -2.9941e-003   5.8207e-004   1.0680e-003  -5.6996e+007   3.7663e+006   4.2185e+006    0.0000    0.1147    0.0112   -0.0000    0.0367
                0.2554  -2.8477e-003   5.5245e-004   1.2415e-003  -5.4214e+007   3.5592e+006   4.9039e+006    0.0000    0.1091    0.0106   -0.0000    0.0426
                0.3017  -2.7064e-003   5.2368e-004   1.4017e-003  -5.1526e+007   3.3562e+006   5.5368e+006    0.0000    0.1037    0.0100   -0.0000    0.0481
                0.3468  -2.5564e-003   4.9327e-004   1.5474e-003  -4.8673e+007   3.1433e+006   6.1122e+006    0.0000    0.0979    0.0093   -0.0000    0.0531
                0.3912  -2.3978e-003   4.6104e-004   1.6794e-003  -4.5658e+007   2.9164e+006   6.6335e+006    0.0000    0.0919    0.0087   -0.0000    0.0577
                0.4340  -2.2442e-003   4.2985e-004   1.7959e-003  -4.2739e+007   2.6972e+006   7.0937e+006    0.0000    0.0860    0.0080   -0.0000    0.0617
                0.4755  -2.0811e-003   3.9677e-004   1.8982e-003  -3.9637e+007   2.4651e+006   7.4977e+006    0.0000    0.0798    0.0073   -0.0000    0.0652
                0.5155  -1.9231e-003   3.6459e-004   1.9862e-003  -3.6632e+007   2.2380e+006   7.8454e+006    0.0000    0.0737    0.0066   -0.0000    0.0682
                0.5534  -1.7683e-003   3.3322e-004   2.0599e-003  -3.3689e+007   2.0182e+006   8.1366e+006    0.0000    0.0678    0.0060   -0.0000    0.0708
                0.5895  -1.6082e-003   3.0074e-004   2.1212e-003  -3.0644e+007   1.7905e+006   8.3788e+006    0.0000    0.0617    0.0053   -0.0000    0.0729
                0.6234  -1.4587e-003   2.7040e-004   2.1702e-003  -2.7802e+007   1.5774e+006   8.5723e+006    0.0000    0.0559    0.0047   -0.0000    0.0745
                0.6550  -1.3066e-003   2.3972e-004   2.2083e-003  -2.4910e+007   1.3642e+006   8.7226e+006    0.0000    0.0501    0.0040   -0.0000    0.0758
                0.6845  -1.1598e-003   2.0993e-004   2.2368e-003  -2.2118e+007   1.1552e+006   8.8355e+006    0.0000    0.0445    0.0034   -0.0000    0.0768
                0.7107  -1.0212e-003   1.8221e-004   2.2565e-003  -1.9482e+007   9.6585e+005   8.9130e+006    0.0000    0.0392    0.0029   -0.0000    0.0775
                0.7351  -8.6878e-004   1.5184e-004   2.2694e-003  -1.6582e+007   7.5961e+005   8.9640e+006    0.0000    0.0334    0.0023   -0.0000    0.0779
                0.7568  -7.3475e-004   1.2497e-004   2.2762e-003  -1.4033e+007   5.7517e+005   8.9909e+006    0.0000    0.0282    0.0017   -0.0000    0.0782
                0.7748  -5.8974e-004   9.7063e-005   2.2784e-003  -1.1271e+007   3.9833e+005   8.9996e+006    0.0000    0.0227    0.0012   -0.0000    0.0783
                0.7916  -4.3644e-004   6.7213e-005   2.2772e-003  -8.3531e+006   2.0459e+005   8.9948e+006    0.0000    0.0168    0.0006   -0.0000    0.0782
                0.8030  -2.7893e-004   3.8928e-005   2.2744e-003  -5.3487e+006   5.2098e+004   8.9841e+006    0.0000    0.0108    0.0002   -0.0000    0.0781
                0.8154  -5.6610e-005  -1.5823e-005   2.2695e-003  -1.1085e+006  -2.0821e+005   8.9644e+006    0.0000    0.0022    0.0000    0.0006    0.0780
                0.8264   1.7233e-004  -4.1791e-005   2.2630e-003   3.2595e+006  -3.7864e+005   8.9389e+006    0.0097   -0.0000    0.0000    0.0011    0.0777
                0.8304   2.1288e-004  -5.0067e-005   2.2602e-003   4.0305e+006  -4.3732e+005   8.9277e+006    0.0120   -0.0000    0.0000    0.0013    0.0776

               lamina:  2     
              matName:  (blade-root)
                     s           e11           e22           e12           s11           s22           s12   s11_fcT   s11_fcC   s22_fcT   s22_fcC   s12_fcS
                   (m)         (m/m)         (m/m)         (rad)          (Pa)          (Pa)          (Pa)       (-)       (-)       (-)       (-)       (-)
                0.0000  -3.2098e-003   6.3706e-004   1.8833e-004  -1.1514e+008  -3.6088e+006   7.7594e+005    0.0000    0.1461    0.0000    0.0705    0.0069
                0.0189  -3.1808e-003   6.3114e-004   2.7369e-004  -1.1410e+008  -3.5776e+006   1.1276e+006    0.0000    0.1448    0.0000    0.0699    0.0101
                0.0663  -3.1063e-003   6.1602e-004   4.8438e-004  -1.1143e+008  -3.4968e+006   1.9956e+006    0.0000    0.1414    0.0000    0.0683    0.0178
                0.1138  -3.0034e-003   5.9516e-004   6.8810e-004  -1.0774e+008  -3.3849e+006   2.8350e+006    0.0000    0.1367    0.0000    0.0661    0.0253
                0.1616  -2.8892e-003   5.7190e-004   8.8419e-004  -1.0364e+008  -3.2616e+006   3.6429e+006    0.0000    0.1315    0.0000    0.0637    0.0325
                0.2085  -2.7738e-003   5.4849e-004   1.0680e-003  -9.9506e+007  -3.1362e+006   4.4000e+006    0.0000    0.1263    0.0000    0.0613    0.0393
                0.2554  -2.6293e-003   5.1913e-004   1.2415e-003  -9.4324e+007  -2.9795e+006   5.1150e+006    0.0000    0.1197    0.0000    0.0582    0.0457
                0.3017  -2.4886e-003   4.9046e-004   1.4017e-003  -8.9278e+007  -2.8276e+006   5.7751e+006    0.0000    0.1133    0.0000    0.0552    0.0516
                0.3468  -2.3402e-003   4.6030e-004   1.5474e-003  -8.3956e+007  -2.6667e+006   6.3752e+006    0.0000    0.1065    0.0000    0.0521    0.0569
                0.3912  -2.1826e-003   4.2822e-004   1.6794e-003  -7.8306e+007  -2.4964e+006   6.9190e+006    0.0000    0.0994    0.0000    0.0488    0.0618
                0.4340  -2.0302e-003   3.9721e-004   1.7959e-003  -7.2842e+007  -2.3317e+006   7.3990e+006    0.0000    0.0924    0.0000    0.0455    0.0661
                0.4755  -1.8687e-003   3.6436e-004   1.8982e-003  -6.7049e+007  -2.1567e+006   7.8204e+006    0.0000    0.0851    0.0000    0.0421    0.0698
                0.5155  -1.7112e-003   3.3228e-004   1.9862e-003  -6.1404e+007  -1.9869e+006   8.1830e+006    0.0000    0.0779    0.0000    0.0388    0.0731
                0.5534  -1.5581e-003   3.0116e-004   2.0599e-003  -5.5913e+007  -1.8209e+006   8.4868e+006    0.0000    0.0710    0.0000    0.0356    0.0758
                0.5895  -1.3995e-003   2.6891e-004   2.1212e-003  -5.0226e+007  -1.6492e+006   8.7394e+006    0.0000    0.0637    0.0000    0.0322    0.0780
                0.6234  -1.2513e-003   2.3877e-004   2.1702e-003  -4.4912e+007  -1.4888e+006   8.9412e+006    0.0000    0.0570    0.0000    0.0291    0.0798
                0.6550  -1.1019e-003   2.0849e-004   2.2083e-003  -3.9555e+007  -1.3262e+006   9.0980e+006    0.0000    0.0502    0.0000    0.0259    0.0812
                0.6845  -9.5643e-004   1.7891e-004   2.2368e-003  -3.4339e+007  -1.1687e+006   9.2158e+006    0.0000    0.0436    0.0000    0.0228    0.0823
                0.7107  -8.2218e-004   1.5185e-004   2.2565e-003  -2.9524e+007  -1.0212e+006   9.2966e+006    0.0000    0.0375    0.0000    0.0199    0.0830
                0.7351  -6.7532e-004   1.2233e-004   2.2694e-003  -2.4257e+007  -8.5934e+005   9.3497e+006    0.0000    0.0308    0.0000    0.0168    0.0835
                0.7568  -5.4499e-004   9.6026e-005   2.2762e-003  -1.9584e+007  -7.1654e+005   9.3778e+006    0.0000    0.0249    0.0000    0.0140    0.0837
                0.7748  -4.1282e-004   7.0078e-005   2.2784e-003  -1.4842e+007  -5.6549e+005   9.3869e+006    0.0000    0.0188    0.0000    0.0110    0.0838
                0.7916  -2.7044e-004   4.1894e-005   2.2772e-003  -9.7342e+006  -4.0478e+005   9.3819e+006    0.0000    0.0124    0.0000    0.0079    0.0838
                0.8030  -1.4226e-004   1.8083e-005   2.2744e-003  -5.1316e+006  -2.4673e+005   9.3707e+006    0.0000    0.0065    0.0000    0.0048    0.0837
                0.8154   1.6865e-004  -3.5489e-005   2.2695e-003   6.0440e+006   1.7239e+005   9.3502e+006    0.0060   -0.0000    0.0034   -0.0000    0.0835
                0.8264   2.8290e-004  -5.8654e-005   2.2630e-003   1.0141e+007   2.9665e+005   9.3237e+006    0.0101   -0.0000    0.0058   -0.0000    0.0832
                0.8304   3.2345e-004  -6.6931e-005   2.2602e-003   1.1595e+007   3.4029e+005   9.3119e+006    0.0115   -0.0000    0.0066   -0.0000    0.0831

               lamina:  3     
              matName:  (TEP-core)
                     s           e11           e22           e12           s11           s22           s12   s11_fcT   s11_fcC   s22_fcT   s22_fcC   s12_fcS
                   (m)         (m/m)         (m/m)         (rad)          (Pa)          (Pa)          (Pa)       (-)       (-)       (-)       (-)       (-)
                0.0000  -2.9084e-003   5.9110e-004   1.8833e-004  -6.3943e+005  -8.6882e+004   1.8457e+004    0.0000    0.1491    0.0000    0.0203    0.0063
                0.0189  -2.8794e-003   5.8518e-004   2.7369e-004  -6.3306e+005  -8.6021e+004   2.6822e+004    0.0000    0.1476    0.0000    0.0201    0.0091
                0.0663  -2.8062e-003   5.7025e-004   4.8438e-004  -6.1697e+005  -8.3848e+004   4.7469e+004    0.0000    0.1438    0.0000    0.0195    0.0161
                0.1138  -2.7055e-003   5.4972e-004   6.8810e-004  -5.9484e+005  -8.0856e+004   6.7434e+004    0.0000    0.1387    0.0000    0.0188    0.0229
                0.1616  -2.5922e-003   5.2661e-004   8.8419e-004  -5.6994e+005  -7.7493e+004   8.6650e+004    0.0000    0.1329    0.0000    0.0181    0.0294
                0.2085  -2.4791e-003   5.0353e-004   1.0680e-003  -5.4507e+005  -7.4131e+004   1.0466e+005    0.0000    0.1271    0.0000    0.0173    0.0355
                0.2554  -2.3369e-003   4.7453e-004   1.2415e-003  -5.1382e+005  -6.9908e+004   1.2167e+005    0.0000    0.1198    0.0000    0.0163    0.0412
                0.3017  -2.1970e-003   4.4599e-004   1.4017e-003  -4.8307e+005  -6.5756e+004   1.3737e+005    0.0000    0.1126    0.0000    0.0153    0.0466
                0.3468  -2.0508e-003   4.1616e-004   1.5474e-003  -4.5093e+005  -6.1413e+004   1.5164e+005    0.0000    0.1051    0.0000    0.0143    0.0514
                0.3912  -1.8946e-003   3.8429e-004   1.6794e-003  -4.1659e+005  -5.6775e+004   1.6458e+005    0.0000    0.0971    0.0000    0.0132    0.0558
                0.4340  -1.7437e-003   3.5351e-004   1.7959e-003  -3.8344e+005  -5.2296e+004   1.7600e+005    0.0000    0.0894    0.0000    0.0122    0.0597
                0.4755  -1.5842e-003   3.2098e-004   1.8982e-003  -3.4839e+005  -4.7561e+004   1.8602e+005    0.0000    0.0812    0.0000    0.0111    0.0631
                0.5155  -1.4276e-003   2.8902e-004   1.9862e-003  -3.1396e+005  -4.2911e+004   1.9465e+005    0.0000    0.0732    0.0000    0.0100    0.0660
                0.5534  -1.2767e-003   2.5824e-004   2.0599e-003  -2.8079e+005  -3.8430e+004   2.0187e+005    0.0000    0.0655    0.0000    0.0090    0.0684
                0.5895  -1.1201e-003   2.2631e-004   2.1212e-003  -2.4638e+005  -3.3781e+004   2.0788e+005    0.0000    0.0574    0.0000    0.0079    0.0705
                0.6234  -9.7366e-004   1.9642e-004   2.1702e-003  -2.1418e+005  -2.9431e+004   2.1268e+005    0.0000    0.0499    0.0000    0.0069    0.0721
                0.6550  -8.2781e-004   1.6668e-004   2.2083e-003  -1.8212e+005  -2.5097e+004   2.1641e+005    0.0000    0.0425    0.0000    0.0059    0.0734
                0.6845  -6.8418e-004   1.3738e-004   2.2368e-003  -1.5055e+005  -2.0831e+004   2.1921e+005    0.0000    0.0351    0.0000    0.0049    0.0743
                0.7107  -5.5573e-004   1.1122e-004   2.2565e-003  -1.2232e+005  -1.7009e+004   2.2113e+005    0.0000    0.0285    0.0000    0.0040    0.0750
                0.7351  -4.1634e-004   8.2830e-005   2.2694e-003  -9.1676e+004  -1.2859e+004   2.2240e+005    0.0000    0.0214    0.0000    0.0030    0.0754
                0.7568  -2.9097e-004   5.7283e-005   2.2762e-003  -6.4117e+004  -9.1292e+003   2.2306e+005    0.0000    0.0149    0.0000    0.0021    0.0756
                0.7748  -1.7597e-004   3.3954e-005   2.2784e-003  -3.8830e+004  -5.6836e+003   2.2328e+005    0.0000    0.0091    0.0000    0.0013    0.0757
                0.7916  -4.8221e-005   8.0014e-006   2.2772e-003  -1.0742e+004  -1.8645e+003   2.2316e+005    0.0000    0.0025    0.0000    0.0004    0.0756
                0.8030   9.9450e-005  -1.8782e-005   2.2744e-003   2.1976e+004   3.3078e+003   2.2290e+005    0.0051   -0.0000    0.0008   -0.0000    0.0756
                0.8154   2.1006e-004  -4.1805e-005   2.2695e-003   4.6253e+004   6.4844e+003   2.2241e+005    0.0108   -0.0000    0.0015   -0.0000    0.0754
                0.8264   3.1841e-004  -6.4070e-005   2.2630e-003   7.0054e+004   9.6632e+003   2.2178e+005    0.0163   -0.0000    0.0023   -0.0000    0.0752
                0.8304   3.5896e-004  -7.2346e-005   2.2602e-003   7.8967e+004   1.0866e+004   2.2150e+005    0.0184   -0.0000    0.0025   -0.0000    0.0751

               lamina:  4     
              matName:  (blade-root)
                     s           e11           e22           e12           s11           s22           s12   s11_fcT   s11_fcC   s22_fcT   s22_fcC   s12_fcS
                   (m)         (m/m)         (m/m)         (rad)          (Pa)          (Pa)          (Pa)       (-)       (-)       (-)       (-)       (-)
                0.0000  -2.8116e-003   5.7634e-004   1.8833e-004  -1.0080e+008  -3.0047e+006   7.7594e+005    0.0000    0.1279    0.0000    0.0587    0.0069
                0.0189  -2.7826e-003   5.7041e-004   2.7369e-004  -9.9763e+007  -2.9735e+006   1.1276e+006    0.0000    0.1266    0.0000    0.0581    0.0101
                0.0663  -2.7098e-003   5.5555e-004   4.8438e-004  -9.7154e+007  -2.8952e+006   1.9956e+006    0.0000    0.1233    0.0000    0.0565    0.0178
                0.1138  -2.6099e-003   5.3513e-004   6.8810e-004  -9.3570e+007  -2.7878e+006   2.8350e+006    0.0000    0.1187    0.0000    0.0544    0.0253
                0.1616  -2.4968e-003   5.1206e-004   8.8419e-004  -8.9518e+007  -2.6663e+006   3.6429e+006    0.0000    0.1136    0.0000    0.0521    0.0325
                0.2085  -2.3844e-003   4.8909e-004   1.0680e-003  -8.5486e+007  -2.5454e+006   4.4000e+006    0.0000    0.1085    0.0000    0.0497    0.0393
                0.2554  -2.2430e-003   4.6021e-004   1.2415e-003  -8.0416e+007  -2.3934e+006   5.1150e+006    0.0000    0.1021    0.0000    0.0467    0.0457
                0.3017  -2.1034e-003   4.3171e-004   1.4017e-003  -7.5410e+007  -2.2432e+006   5.7751e+006    0.0000    0.0957    0.0000    0.0438    0.0516
                0.3468  -1.9579e-003   4.0199e-004   1.5474e-003  -7.0192e+007  -2.0867e+006   6.3752e+006    0.0000    0.0891    0.0000    0.0408    0.0569
                0.3912  -1.8020e-003   3.7018e-004   1.6794e-003  -6.4606e+007  -1.9191e+006   6.9190e+006    0.0000    0.0820    0.0000    0.0375    0.0618
                0.4340  -1.6517e-003   3.3948e-004   1.7959e-003  -5.9215e+007  -1.7574e+006   7.3990e+006    0.0000    0.0751    0.0000    0.0343    0.0661
                0.4755  -1.4929e-003   3.0705e-004   1.8982e-003  -5.3522e+007  -1.5866e+006   7.8204e+006    0.0000    0.0679    0.0000    0.0310    0.0698
                0.5155  -1.3365e-003   2.7513e-004   1.9862e-003  -4.7914e+007  -1.4184e+006   8.1830e+006    0.0000    0.0608    0.0000    0.0277    0.0731
                0.5534  -1.1863e-003   2.4446e-004   2.0599e-003  -4.2529e+007  -1.2569e+006   8.4868e+006    0.0000    0.0540    0.0000    0.0245    0.0758
                0.5895  -1.0304e-003   2.1262e-004   2.1212e-003  -3.6940e+007  -1.0893e+006   8.7394e+006    0.0000    0.0469    0.0000    0.0213    0.0780
                0.6234  -8.8450e-004   1.8282e-004   2.1702e-003  -3.1707e+007  -9.3230e+005   8.9412e+006    0.0000    0.0402    0.0000    0.0182    0.0798
                0.6550  -7.3979e-004   1.5326e-004   2.2083e-003  -2.6519e+007  -7.7681e+005   9.0980e+006    0.0000    0.0337    0.0000    0.0152    0.0812
                0.6845  -5.9674e-004   1.2405e-004   2.2368e-003  -2.1390e+007  -6.2298e+005   9.2158e+006    0.0000    0.0271    0.0000    0.0122    0.0823
                0.7107  -4.7016e-004   9.8166e-005   2.2565e-003  -1.6852e+007  -4.8716e+005   9.2966e+006    0.0000    0.0214    0.0000    0.0095    0.0830
                0.7351  -3.3317e-004   7.0145e-005   2.2694e-003  -1.1940e+007  -3.4025e+005   9.3497e+006    0.0000    0.0152    0.0000    0.0066    0.0835
                0.7568  -2.0939e-004   4.4840e-005   2.2762e-003  -7.5019e+006  -2.0738e+005   9.3778e+006    0.0000    0.0095    0.0000    0.0041    0.0837
                0.7748   1.3693e-004   2.2353e-005   2.2784e-003   4.9496e+006   2.6856e+005   9.3869e+006    0.0049   -0.0000    0.0052   -0.0000    0.0838
                0.7916   2.4536e-004  -3.6776e-005   2.2772e-003   8.8351e+006   3.7779e+005   9.3819e+006    0.0088   -0.0000    0.0074   -0.0000    0.0838
                0.8030   2.8240e-004  -4.6686e-005   2.2744e-003   1.0156e+007   3.9756e+005   9.3707e+006    0.0101   -0.0000    0.0078   -0.0000    0.0837
                0.8154   3.3900e-004  -6.1471e-005   2.2695e-003   1.2177e+007   4.3084e+005   9.3502e+006    0.0121   -0.0000    0.0084   -0.0000    0.0835
                0.8264   4.2897e-004  -8.0934e-005   2.2630e-003   1.5400e+007   5.1827e+005   9.3237e+006    0.0153   -0.0000    0.0101   -0.0000    0.0832
                0.8304   4.6952e-004  -8.9210e-005   2.2602e-003   1.6854e+007   5.6191e+005   9.3119e+006    0.0168   -0.0000    0.0110   -0.0000    0.0831

               lamina:  5     
              matName:  (blade-shell)
                     s           e11           e22           e12           s11           s22           s12   s11_fcT   s11_fcC   s22_fcT   s22_fcC   s12_fcS
                   (m)         (m/m)         (m/m)         (rad)          (Pa)          (Pa)          (Pa)       (-)       (-)       (-)       (-)       (-)
                0.0000  -2.5102e-003   5.3037e-004   1.8833e-004  -4.7678e+007   3.9849e+006   7.4392e+005    0.0000    0.0959    0.0118   -0.0000    0.0065
                0.0189  -2.4812e-003   5.2445e-004   2.7369e-004  -4.7127e+007   3.9429e+006   1.0811e+006    0.0000    0.0948    0.0117   -0.0000    0.0094
                0.0663  -2.4097e-003   5.0978e-004   4.8438e-004  -4.5767e+007   3.8380e+006   1.9133e+006    0.0000    0.0921    0.0114   -0.0000    0.0166
                0.1138  -2.3120e-003   4.8970e-004   6.8810e-004  -4.3909e+007   3.6939e+006   2.7180e+006    0.0000    0.0883    0.0110   -0.0000    0.0236
                0.1616  -2.1998e-003   4.6676e-004   8.8419e-004  -4.1778e+007   3.5307e+006   3.4925e+006    0.0000    0.0841    0.0105   -0.0000    0.0304
                0.2085  -2.0896e-003   4.4413e-004   1.0680e-003  -3.9683e+007   3.3685e+006   4.2185e+006    0.0000    0.0798    0.0100   -0.0000    0.0367
                0.2554  -1.9506e-003   4.1561e-004   1.2415e-003  -3.7040e+007   3.1646e+006   4.9039e+006    0.0000    0.0745    0.0094   -0.0000    0.0426
                0.3017  -1.8118e-003   3.8724e-004   1.4017e-003  -3.4402e+007   2.9628e+006   5.5368e+006    0.0000    0.0692    0.0088   -0.0000    0.0481
                0.3468  -1.6685e-003   3.5785e-004   1.5474e-003  -3.1677e+007   2.7528e+006   6.1122e+006    0.0000    0.0637    0.0082   -0.0000    0.0531
                0.3912  -1.5140e-003   3.2625e-004   1.6794e-003  -2.8740e+007   2.5277e+006   6.6335e+006    0.0000    0.0578    0.0075   -0.0000    0.0577
                0.4340  -1.3652e-003   2.9578e-004   1.7959e-003  -2.5911e+007   2.3105e+006   7.0937e+006    0.0000    0.0521    0.0069   -0.0000    0.0617
                0.4755  -1.2085e-003   2.6367e-004   1.8982e-003  -2.2932e+007   2.0813e+006   7.4977e+006    0.0000    0.0461    0.0062   -0.0000    0.0652
                0.5155  -1.0529e-003   2.3187e-004   1.9862e-003  -1.9974e+007   1.8552e+006   7.8454e+006    0.0000    0.0402    0.0055   -0.0000    0.0682
                0.5534  -9.0494e-004   2.0154e-004   2.0599e-003  -1.7162e+007   1.6385e+006   8.1366e+006    0.0000    0.0345    0.0049   -0.0000    0.0708
                0.5895  -7.5109e-004   1.7002e-004   2.1212e-003  -1.4237e+007   1.4135e+006   8.3788e+006    0.0000    0.0286    0.0042   -0.0000    0.0729
                0.6234  -6.0687e-004   1.4048e-004   2.1702e-003  -1.1495e+007   1.2028e+006   8.5723e+006    0.0000    0.0231    0.0036   -0.0000    0.0745
                0.6550  -4.6570e-004   1.1145e-004   2.2083e-003  -8.8121e+006   9.9434e+005   8.7226e+006    0.0000    0.0177    0.0030   -0.0000    0.0758
                0.6845  -3.2448e-004   8.2523e-005   2.2368e-003  -6.1277e+006   7.8785e+005   8.8355e+006    0.0000    0.0123    0.0023   -0.0000    0.0768
                0.7107  -2.0372e-004   5.7527e-005   2.2565e-003  -3.8326e+006   6.0629e+005   8.9130e+006    0.0000    0.0077    0.0018   -0.0000    0.0775
                0.7351   1.1926e-004   3.0646e-005   2.2694e-003   2.3321e+006   4.1013e+005   8.9640e+006    0.0069   -0.0000    0.0012   -0.0000    0.0779
                0.7568   2.3439e-004  -2.2845e-005   2.2762e-003   4.5196e+006   2.3238e+005   8.9909e+006    0.0134   -0.0000    0.0007   -0.0000    0.0782
                0.7748   3.1386e-004  -4.0755e-005   2.2784e-003   6.0261e+006   7.8725e+004   8.9996e+006    0.0179   -0.0000    0.0002   -0.0000    0.0783
                0.7916   4.1137e-004  -6.2095e-005   2.2772e-003   7.8764e+006  -1.6830e+005   8.9948e+006    0.0234   -0.0000    0.0000    0.0005    0.0782
                0.8030   4.1907e-004  -6.7531e-005   2.2744e-003   8.0131e+006  -2.5490e+005   8.9841e+006    0.0238   -0.0000    0.0000    0.0008    0.0781
                0.8154   4.3532e-004  -7.6162e-005   2.2695e-003   8.3085e+006  -3.8221e+005   8.9644e+006    0.0247   -0.0000    0.0000    0.0011    0.0780
                0.8264   5.1157e-004  -9.3531e-005   2.2630e-003   9.7535e+006  -5.2785e+005   8.9389e+006    0.0289   -0.0000    0.0000    0.0016    0.0777
                0.8304   5.5212e-004  -1.0181e-004   2.2602e-003   1.0524e+007  -5.8653e+005   8.9277e+006    0.0312   -0.0000    0.0000    0.0017    0.0776

  Bottom:  panel  nNode   nLam     xc_St    xc_End         b         t         E_eff         G_eff      nu_eff     density  buckleCrit
            (-)    (-)    (-)       (-)       (-)       (m)       (m)          (Pa)          (Pa)         (-)    (kg/m^3)         (-)
              1     17      5    0.0000    0.2304    0.4341    0.0287   2.8487e+010   4.0241e+009      0.2039   1723.9596      0.0013
              2     11      7    0.2304    0.4876    0.3845    0.0338   4.3281e+010   4.1468e+009      0.2148   1690.8900      0.0001
              3     27      5    0.4876    1.0000    0.8106    0.0311   2.6260e+010   3.7149e+009      0.2041   1603.9236      0.0039

            panel:  1     
           lam_num    nPlies        tPly      fibAng     matID  matName
               (-)       (-)         (m)       (deg)       (-)  (-)
                 1         1    0.006094      0.0000         2  (blade-shell)
                 2         1    0.008157      0.0000         1  (blade-root)
                 3         1    0.000168      0.0000         5  (LEP-core)
                 4         1    0.008157      0.0000         1  (blade-root)
                 5         1    0.006094      0.0000         2  (blade-shell)

               lamina:  1     
              matName:  (blade-shell)
                     s           e11           e22           e12           s11           s22           s12   s11_fcT   s11_fcC   s22_fcT   s22_fcC   s12_fcS
                   (m)         (m/m)         (m/m)         (rad)          (Pa)          (Pa)          (Pa)       (-)       (-)       (-)       (-)       (-)
                0.0000   2.1222e-004  -3.6470e-005   2.8616e-003   4.0522e+006  -1.7344e+005   1.1303e+007    0.0120   -0.0000    0.0000    0.0005    0.0983
                0.0069   2.8548e-004  -5.1407e-005   2.8613e-003   5.4450e+006  -2.7917e+005   1.1302e+007    0.0162   -0.0000    0.0000    0.0008    0.0983
                0.0269   5.2326e-004  -9.8522e-005   2.8561e-003   9.9692e+006  -5.9563e+005   1.1282e+007    0.0296   -0.0000    0.0000    0.0018    0.0981
                0.0503   8.5270e-004  -1.6093e-004   2.8415e-003   1.6245e+007  -9.7814e+005   1.1224e+007    0.0482   -0.0000    0.0000    0.0029    0.0976
                0.0672   1.0900e-003  -2.0471e-004   2.8255e-003   2.0767e+007  -1.2307e+006   1.1161e+007    0.0616   -0.0000    0.0000    0.0037    0.0971
                0.0903   1.3471e-003  -2.5472e-004   2.7967e-003   2.5662e+007  -1.5546e+006   1.1047e+007    0.0761   -0.0000    0.0000    0.0046    0.0961
                0.1119   1.5792e-003  -2.9869e-004   2.7633e-003   3.0083e+007  -1.8241e+006   1.0915e+007    0.0893   -0.0000    0.0000    0.0054    0.0949
                0.1366   1.7809e-003  -3.3870e-004   2.7179e-003   3.3920e+007  -2.0934e+006   1.0736e+007    0.1007   -0.0000    0.0000    0.0062    0.0934
                0.1637   2.0135e-003  -3.8410e-004   2.6596e-003   3.8348e+007  -2.3895e+006   1.0506e+007    0.1138   -0.0000    0.0000    0.0071    0.0914
                0.1906   2.1942e-003  -4.1932e-004   2.5944e-003   4.1789e+007  -2.6183e+006   1.0248e+007    0.1240   -0.0000    0.0000    0.0078    0.0891
                0.2212   2.3774e-003  -4.5608e-004   2.5122e-003   4.5273e+007  -2.8712e+006   9.9232e+006    0.1343   -0.0000    0.0000    0.0085    0.0863
                0.2527   2.5550e-003  -4.9117e-004   2.4188e-003   4.8652e+007  -3.1057e+006   9.5541e+006    0.1444   -0.0000    0.0000    0.0092    0.0831
                0.2861   2.7045e-003  -5.2114e-004   2.3118e-003   5.1496e+007  -3.3113e+006   9.1315e+006    0.1528   -0.0000    0.0000    0.0098    0.0794
                0.3216   2.8652e-003  -5.5328e-004   2.1893e-003   5.4553e+007  -3.5312e+006   8.6478e+006    0.1619   -0.0000    0.0000    0.0105    0.0752
                0.3579   2.9907e-003  -5.7826e-004   2.0564e-003   5.6940e+007  -3.7003e+006   8.1228e+006    0.1690   -0.0000    0.0000    0.0110    0.0706
                0.3965   3.1082e-003  -6.0203e-004   1.9075e-003   5.9175e+007  -3.8662e+006   7.5348e+006    0.1756   -0.0000    0.0000    0.0115    0.0655
                0.4341   3.2120e-003  -6.2311e-004   1.7557e-003   6.1149e+007  -4.0142e+006   6.9348e+006    0.1815   -0.0000    0.0000    0.0119    0.0603

               lamina:  2     
              matName:  (blade-root)
                     s           e11           e22           e12           s11           s22           s12   s11_fcT   s11_fcC   s22_fcT   s22_fcC   s12_fcS
                   (m)         (m/m)         (m/m)         (rad)          (Pa)          (Pa)          (Pa)       (-)       (-)       (-)       (-)       (-)
                0.0000   1.5990e-004  -2.8693e-005   2.8616e-003   5.7445e+006   2.0580e+005   1.1790e+007    0.0057   -0.0000    0.0040   -0.0000    0.1053
                0.0069   2.3316e-004  -4.3631e-005   2.8613e-003   8.3713e+006   2.8477e+005   1.1789e+007    0.0083   -0.0000    0.0056   -0.0000    0.1053
                0.0269   4.6041e-004  -8.9181e-005   2.8561e-003   1.6522e+007   5.3645e+005   1.1767e+007    0.0164   -0.0000    0.0105   -0.0000    0.1051
                0.0503   7.5323e-004  -1.4615e-004   2.8415e-003   2.7029e+007   8.7549e+005   1.1707e+007    0.0269   -0.0000    0.0171   -0.0000    0.1045
                0.0672   9.5510e-004  -1.8467e-004   2.8255e-003   3.4274e+007   1.1157e+006   1.1641e+007    0.0341   -0.0000    0.0218   -0.0000    0.1039
                0.0903   1.1936e-003  -2.3191e-004   2.7967e-003   4.2830e+007   1.3847e+006   1.1523e+007    0.0426   -0.0000    0.0270   -0.0000    0.1029
                0.1119   1.3999e-003  -2.7205e-004   2.7633e-003   5.0233e+007   1.6236e+006   1.1385e+007    0.0500   -0.0000    0.0317   -0.0000    0.1016
                0.1366   1.5930e-003  -3.1078e-004   2.7179e-003   5.7159e+007   1.8372e+006   1.1198e+007    0.0569   -0.0000    0.0359   -0.0000    0.1000
                0.1637   1.8101e-003  -3.5387e-004   2.6596e-003   6.4944e+007   2.0811e+006   1.0958e+007    0.0646   -0.0000    0.0406   -0.0000    0.0978
                0.1906   1.9782e-003  -3.8720e-004   2.5944e-003   7.0974e+007   2.2704e+006   1.0689e+007    0.0706   -0.0000    0.0443   -0.0000    0.0954
                0.2212   2.1568e-003  -4.2330e-004   2.5122e-003   7.7382e+007   2.4659e+006   1.0350e+007    0.0770   -0.0000    0.0482   -0.0000    0.0924
                0.2527   2.3258e-003  -4.5710e-004   2.4188e-003   8.3441e+007   2.6535e+006   9.9653e+006    0.0830   -0.0000    0.0518   -0.0000    0.0890
                0.2861   2.4713e-003  -4.8648e-004   2.3118e-003   8.8660e+007   2.8129e+006   9.5245e+006    0.0882   -0.0000    0.0549   -0.0000    0.0850
                0.3216   2.6272e-003  -5.1792e-004   2.1893e-003   9.4252e+007   2.9840e+006   9.0199e+006    0.0938   -0.0000    0.0583   -0.0000    0.0805
                0.3579   2.7480e-003  -5.4219e-004   2.0564e-003   9.8583e+007   3.1172e+006   8.4724e+006    0.0981   -0.0000    0.0609   -0.0000    0.0756
                0.3965   2.8641e-003  -5.6574e-004   1.9075e-003   1.0274e+008   3.2433e+006   7.8591e+006    0.1022   -0.0000    0.0633   -0.0000    0.0702
                0.4341   2.9672e-003  -5.8671e-004   1.7557e-003   1.0644e+008   3.3549e+006   7.2333e+006    0.1059   -0.0000    0.0655   -0.0000    0.0646

               lamina:  3     
              matName:  (LEP-core)
                     s           e11           e22           e12           s11           s22           s12   s11_fcT   s11_fcC   s22_fcT   s22_fcC   s12_fcS
                   (m)         (m/m)         (m/m)         (rad)          (Pa)          (Pa)          (Pa)       (-)       (-)       (-)       (-)       (-)
                0.0000   8.9866e-005  -1.8284e-005   2.8616e-003   1.9756e+004   2.6799e+003   2.8043e+005    0.0046   -0.0000    0.0006   -0.0000    0.0951
                0.0069   1.6312e-004  -3.3222e-005   2.8613e-003   3.5859e+004   4.8568e+003   2.8041e+005    0.0084   -0.0000    0.0011   -0.0000    0.0951
                0.0269   3.7628e-004  -7.6677e-005   2.8561e-003   8.2712e+004   1.1193e+004   2.7990e+005    0.0193   -0.0000    0.0026   -0.0000    0.0949
                0.0503   6.2009e-004  -1.2636e-004   2.8415e-003   1.3631e+005   1.8445e+004   2.7847e+005    0.0318   -0.0000    0.0043   -0.0000    0.0944
                0.0672   7.7457e-004  -1.5784e-004   2.8255e-003   1.7026e+005   2.3042e+004   2.7690e+005    0.0397   -0.0000    0.0054   -0.0000    0.0939
                0.0903   9.8819e-004  -2.0138e-004   2.7967e-003   2.1722e+005   2.9393e+004   2.7408e+005    0.0506   -0.0000    0.0069   -0.0000    0.0929
                0.1119   1.1600e-003  -2.3638e-004   2.7633e-003   2.5498e+005   3.4502e+004   2.7080e+005    0.0594   -0.0000    0.0080   -0.0000    0.0918
                0.1366   1.3416e-003  -2.7341e-004   2.7179e-003   2.9490e+005   3.9901e+004   2.6635e+005    0.0687   -0.0000    0.0093   -0.0000    0.0903
                0.1637   1.5378e-003  -3.1340e-004   2.6596e-003   3.3802e+005   4.5733e+004   2.6064e+005    0.0788   -0.0000    0.0107   -0.0000    0.0884
                0.1906   1.6889e-003  -3.4422e-004   2.5944e-003   3.7125e+005   5.0228e+004   2.5426e+005    0.0865   -0.0000    0.0117   -0.0000    0.0862
                0.2212   1.8615e-003  -3.7941e-004   2.5122e-003   4.0919e+005   5.5358e+004   2.4619e+005    0.0954   -0.0000    0.0129   -0.0000    0.0835
                0.2527   2.0190e-003  -4.1150e-004   2.4188e-003   4.4380e+005   6.0038e+004   2.3704e+005    0.1034   -0.0000    0.0140   -0.0000    0.0804
                0.2861   2.1591e-003  -4.4008e-004   2.3118e-003   4.7461e+005   6.4203e+004   2.2655e+005    0.1106   -0.0000    0.0150   -0.0000    0.0768
                0.3216   2.3087e-003  -4.7058e-004   2.1893e-003   5.0748e+005   6.8649e+004   2.1455e+005    0.1183   -0.0000    0.0160   -0.0000    0.0727
                0.3579   2.4231e-003  -4.9390e-004   2.0564e-003   5.3263e+005   7.2050e+004   2.0153e+005    0.1242   -0.0000    0.0168   -0.0000    0.0683
                0.3965   2.5373e-003  -5.1717e-004   1.9075e-003   5.5772e+005   7.5442e+004   1.8694e+005    0.1300   -0.0000    0.0176   -0.0000    0.0634
                0.4341   2.6394e-003  -5.3799e-004   1.7557e-003   5.8016e+005   7.8475e+004   1.7205e+005    0.1352   -0.0000    0.0183   -0.0000    0.0583

               lamina:  4     
              matName:  (blade-root)
                     s           e11           e22           e12           s11           s22           s12   s11_fcT   s11_fcC   s22_fcT   s22_fcC   s12_fcS
                   (m)         (m/m)         (m/m)         (rad)          (Pa)          (Pa)          (Pa)       (-)       (-)       (-)       (-)       (-)
                0.0000   8.8420e-005  -1.8069e-005   2.8616e-003   3.1702e+006   9.4968e+004   1.1790e+007    0.0032   -0.0000    0.0019   -0.0000    0.1053
                0.0069   1.6168e-004  -3.3007e-005   2.8613e-003   5.7970e+006   1.7393e+005   1.1789e+007    0.0058   -0.0000    0.0034   -0.0000    0.1053
                0.0269   3.7454e-004  -7.6418e-005   2.8561e-003   1.3429e+007   4.0331e+005   1.1767e+007    0.0134   -0.0000    0.0079   -0.0000    0.1051
                0.0503   6.1734e-004  -1.2595e-004   2.8415e-003   2.2135e+007   6.6479e+005   1.1707e+007    0.0220   -0.0000    0.0130   -0.0000    0.1045
                0.0672   7.7084e-004  -1.5728e-004   2.8255e-003   2.7639e+007   8.3003e+005   1.1641e+007    0.0275   -0.0000    0.0162   -0.0000    0.1039
                0.0903   9.8395e-004  -2.0075e-004   2.7967e-003   3.5280e+007   1.0596e+006   1.1523e+007    0.0351   -0.0000    0.0207   -0.0000    0.1029
                0.1119   1.1550e-003  -2.3565e-004   2.7633e-003   4.1413e+007   1.2438e+006   1.1385e+007    0.0412   -0.0000    0.0243   -0.0000    0.1016
                0.1366   1.3364e-003  -2.7264e-004   2.7179e-003   4.7917e+007   1.4393e+006   1.1198e+007    0.0477   -0.0000    0.0281   -0.0000    0.1000
                0.1637   1.5321e-003  -3.1257e-004   2.6596e-003   5.4936e+007   1.6502e+006   1.0958e+007    0.0547   -0.0000    0.0322   -0.0000    0.0978
                0.1906   1.6830e-003  -3.4333e-004   2.5944e-003   6.0344e+007   1.8127e+006   1.0689e+007    0.0600   -0.0000    0.0354   -0.0000    0.0954
                0.2212   1.8554e-003  -3.7850e-004   2.5122e-003   6.6528e+007   1.9986e+006   1.0350e+007    0.0662   -0.0000    0.0390   -0.0000    0.0924
                0.2527   2.0126e-003  -4.1056e-004   2.4188e-003   7.2164e+007   2.1680e+006   9.9653e+006    0.0718   -0.0000    0.0423   -0.0000    0.0890
                0.2861   2.1527e-003  -4.3912e-004   2.3118e-003   7.7186e+007   2.3189e+006   9.5245e+006    0.0768   -0.0000    0.0453   -0.0000    0.0850
                0.3216   2.3021e-003  -4.6960e-004   2.1893e-003   8.2544e+007   2.4800e+006   9.0199e+006    0.0821   -0.0000    0.0484   -0.0000    0.0805
                0.3579   2.4164e-003  -4.9291e-004   2.0564e-003   8.6642e+007   2.6031e+006   8.4724e+006    0.0862   -0.0000    0.0508   -0.0000    0.0756
                0.3965   2.5305e-003  -5.1617e-004   1.9075e-003   9.0733e+007   2.7261e+006   7.8591e+006    0.0903   -0.0000    0.0532   -0.0000    0.0702
                0.4341   2.6326e-003  -5.3698e-004   1.7557e-003   9.4393e+007   2.8361e+006   7.2333e+006    0.0939   -0.0000    0.0554   -0.0000    0.0646

               lamina:  5     
              matName:  (blade-shell)
                     s           e11           e22           e12           s11           s22           s12   s11_fcT   s11_fcC   s22_fcT   s22_fcC   s12_fcS
                   (m)         (m/m)         (m/m)         (rad)          (Pa)          (Pa)          (Pa)       (-)       (-)       (-)       (-)       (-)
                0.0000  -3.3939e-005  -7.6597e-006   2.8616e-003  -6.6254e+005  -1.0293e+005   1.1303e+007    0.0000    0.0013    0.0000    0.0003    0.0983
                0.0069   9.1640e-005  -2.2597e-005   2.8613e-003   1.7324e+006  -2.0866e+005   1.1302e+007    0.0051   -0.0000    0.0000    0.0006    0.0983
                0.0269   2.9041e-004  -6.3914e-005   2.8561e-003   5.5094e+006  -5.1093e+005   1.1282e+007    0.0163   -0.0000    0.0000    0.0015    0.0981
                0.0503   4.8419e-004  -1.0617e-004   2.8415e-003   9.1868e+006  -8.4410e+005   1.1224e+007    0.0273   -0.0000    0.0000    0.0025    0.0976
                0.0672   5.9032e-004  -1.3045e-004   2.8255e-003   1.1198e+007  -1.0490e+006   1.1161e+007    0.0332   -0.0000    0.0000    0.0031    0.0971
                0.0903   7.7853e-004  -1.7022e-004   2.7967e-003   1.4772e+007  -1.3478e+006   1.1047e+007    0.0438   -0.0000    0.0000    0.0040    0.0961
                0.1119   9.1504e-004  -1.9998e-004   2.7633e-003   1.7363e+007  -1.5825e+006   1.0915e+007    0.0515   -0.0000    0.0000    0.0047    0.0949
                0.1366   1.0850e-003  -2.3527e-004   2.7179e-003   2.0592e+007  -1.8403e+006   1.0736e+007    0.0611   -0.0000    0.0000    0.0055    0.0934
                0.1637   1.2598e-003  -2.7210e-004   2.6596e-003   2.3914e+007  -2.1154e+006   1.0506e+007    0.0710   -0.0000    0.0000    0.0063    0.0914
                0.1906   1.3937e-003  -3.0034e-004   2.5944e-003   2.6457e+007  -2.3271e+006   1.0248e+007    0.0785   -0.0000    0.0000    0.0069    0.0891
                0.2212   1.5601e-003  -3.3461e-004   2.5122e-003   2.9620e+007  -2.5740e+006   9.9232e+006    0.0879   -0.0000    0.0000    0.0076    0.0863
                0.2527   1.7058e-003  -3.6496e-004   2.4188e-003   3.2388e+007  -2.7968e+006   9.5541e+006    0.0961   -0.0000    0.0000    0.0083    0.0831
                0.2861   1.8405e-003  -3.9272e-004   2.3118e-003   3.4948e+007  -2.9970e+006   9.1315e+006    0.1037   -0.0000    0.0000    0.0089    0.0794
                0.3216   1.9836e-003  -4.2226e-004   2.1893e-003   3.7668e+007  -3.2105e+006   8.6478e+006    0.1118   -0.0000    0.0000    0.0095    0.0752
                0.3579   2.0915e-003  -4.4462e-004   2.0564e-003   3.9719e+007  -3.3732e+006   8.1228e+006    0.1179   -0.0000    0.0000    0.0100    0.0706
                0.3965   2.2037e-003  -4.6760e-004   1.9075e-003   4.1852e+007  -3.5372e+006   7.5348e+006    0.1242   -0.0000    0.0000    0.0105    0.0655
                0.4341   2.3048e-003  -4.8826e-004   1.7557e-003   4.3773e+007  -3.6842e+006   6.9348e+006    0.1299   -0.0000    0.0000    0.0109    0.0603

            panel:  2     
           lam_num    nPlies        tPly      fibAng     matID  matName
               (-)       (-)         (m)       (deg)       (-)  (-)
                 1         1    0.006094      0.0000         2  (blade-shell)
                 2         1    0.008157      0.0000         1  (blade-root)
                 3         1    0.002620      0.0000         3  (spar-uni)
                 4         1    0.000028      0.0000         4  (spar-core)
                 5         1    0.002620      0.0000         3  (spar-uni)
                 6         1    0.008157      0.0000         1  (blade-root)
                 7         1    0.006094      0.0000         2  (blade-shell)

               lamina:  1     
              matName:  (blade-shell)
                     s           e11           e22           e12           s11           s22           s12   s11_fcT   s11_fcC   s22_fcT   s22_fcC   s12_fcS
                   (m)         (m/m)         (m/m)         (rad)          (Pa)          (Pa)          (Pa)       (-)       (-)       (-)       (-)       (-)
                0.0000   3.5750e-003  -7.1182e-004   1.9693e-003   6.8012e+007  -4.8253e+006   7.7789e+006    0.2018   -0.0000    0.0000    0.0143    0.0676
                0.0013   3.5963e-003  -7.1540e-004   1.9614e-003   6.8419e+007  -4.8412e+006   7.7477e+006    0.2030   -0.0000    0.0000    0.0144    0.0674
                0.0426   3.6710e-003  -7.3140e-004   1.7086e-003   6.9838e+007  -4.9640e+006   6.7490e+006    0.2072   -0.0000    0.0000    0.0147    0.0587
                0.0849   3.7516e-003  -7.4843e-004   1.4416e-003   7.1368e+007  -5.0920e+006   5.6943e+006    0.2118   -0.0000    0.0000    0.0151    0.0495
                0.1277   3.8046e-003  -7.5947e-004   1.1642e-003   7.2375e+007  -5.1731e+006   4.5986e+006    0.2148   -0.0000    0.0000    0.0154    0.0400
                0.1721   3.8327e-003  -7.6543e-004   8.7253e-004   7.2910e+007  -5.2180e+006   3.4465e+006    0.2163   -0.0000    0.0000    0.0155    0.0300
                0.2169   3.8614e-003  -7.7151e-004   5.7431e-004   7.3455e+007  -5.2638e+006   2.2685e+006    0.2180   -0.0000    0.0000    0.0156    0.0197
                0.2624   3.8377e-003  -7.6647e-004   2.7024e-004   7.3004e+007  -5.2258e+006   1.0674e+006    0.2166   -0.0000    0.0000    0.0155    0.0093
                0.3091   3.8110e-003  -7.6080e-004   3.9928e-005   7.2498e+007  -5.1827e+006   1.5772e+005    0.2151   -0.0000    0.0000    0.0154    0.0014
                0.3560   3.7688e-003  -7.5191e-004   3.4830e-004   7.1697e+007  -5.1161e+006   1.3758e+006    0.2127   -0.0000    0.0000    0.0152    0.0120
                0.3845   3.7232e-003  -7.4234e-004   5.3339e-004   7.0829e+007  -5.0451e+006   2.1069e+006    0.2102   -0.0000    0.0000    0.0150    0.0183

               lamina:  2     
              matName:  (blade-root)
                     s           e11           e22           e12           s11           s22           s12   s11_fcT   s11_fcC   s22_fcT   s22_fcC   s12_fcS
                   (m)         (m/m)         (m/m)         (rad)          (Pa)          (Pa)          (Pa)       (-)       (-)       (-)       (-)       (-)
                0.0000   3.2264e-003  -6.5719e-004   1.9693e-003   1.1569e+008   3.4837e+006   8.1137e+006    0.1151   -0.0000    0.0680   -0.0000    0.0724
                0.0013   3.2415e-003  -6.5980e-004   1.9614e-003   1.1623e+008   3.5040e+006   8.0811e+006    0.1157   -0.0000    0.0684   -0.0000    0.0722
                0.0426   3.3160e-003  -6.7575e-004   1.7086e-003   1.1890e+008   3.5776e+006   7.0395e+006    0.1183   -0.0000    0.0699   -0.0000    0.0629
                0.0849   3.3948e-003  -6.9251e-004   1.4416e-003   1.2172e+008   3.6568e+006   5.9393e+006    0.1211   -0.0000    0.0714   -0.0000    0.0530
                0.1277   3.4457e-003  -7.0323e-004   1.1642e-003   1.2355e+008   3.7087e+006   4.7965e+006    0.1229   -0.0000    0.0724   -0.0000    0.0428
                0.1721   3.4733e-003  -7.0910e-004   8.7253e-004   1.2453e+008   3.7364e+006   3.5948e+006    0.1239   -0.0000    0.0730   -0.0000    0.0321
                0.2169   3.5014e-003  -7.1509e-004   5.7431e-004   1.2554e+008   3.7646e+006   2.3662e+006    0.1249   -0.0000    0.0735   -0.0000    0.0211
                0.2624   3.4781e-003  -7.1012e-004   2.7024e-004   1.2471e+008   3.7413e+006   1.1134e+006    0.1241   -0.0000    0.0731   -0.0000    0.0099
                0.3091   3.4518e-003  -7.0449e-004   3.9928e-005   1.2376e+008   3.7150e+006   1.6450e+005    0.1231   -0.0000    0.0726   -0.0000    0.0015
                0.3560   3.4106e-003  -6.9576e-004   3.4830e-004   1.2229e+008   3.6736e+006   1.4350e+006    0.1217   -0.0000    0.0718   -0.0000    0.0128
                0.3845   3.3665e-003  -6.8643e-004   5.3339e-004   1.2071e+008   3.6288e+006   2.1976e+006    0.1201   -0.0000    0.0709   -0.0000    0.0196

               lamina:  3     
              matName:  (spar-uni)
                     s           e11           e22           e12           s11           s22           s12   s11_fcT   s11_fcC   s22_fcT   s22_fcC   s12_fcS
                   (m)         (m/m)         (m/m)         (rad)          (Pa)          (Pa)          (Pa)       (-)       (-)       (-)       (-)       (-)
                0.0000   2.7598e-003  -5.8406e-004   1.9693e-003   3.4015e+008   2.2405e+006   9.2756e+006    0.1719   -0.0000    0.0374   -0.0000    0.0901
                0.0013   2.7666e-003  -5.8537e-004   1.9614e-003   3.4099e+008   2.2472e+006   9.2384e+006    0.1723   -0.0000    0.0375   -0.0000    0.0897
                0.0426   2.8407e-003  -6.0126e-004   1.7086e-003   3.5012e+008   2.3054e+006   8.0476e+006    0.1769   -0.0000    0.0385   -0.0000    0.0781
                0.0849   2.9172e-003  -6.1765e-004   1.4416e-003   3.5955e+008   2.3659e+006   6.7899e+006    0.1817   -0.0000    0.0395   -0.0000    0.0659
                0.1277   2.9653e-003  -6.2793e-004   1.1642e-003   3.6547e+008   2.4041e+006   5.4834e+006    0.1847   -0.0000    0.0401   -0.0000    0.0532
                0.1721   2.9921e-003  -6.3368e-004   8.7253e-004   3.6878e+008   2.4253e+006   4.1096e+006    0.1863   -0.0000    0.0405   -0.0000    0.0399
                0.2169   3.0195e-003  -6.3956e-004   5.7431e-004   3.7216e+008   2.4470e+006   2.7050e+006    0.1881   -0.0000    0.0409   -0.0000    0.0263
                0.2624   2.9968e-003  -6.3468e-004   2.7024e-004   3.6935e+008   2.4290e+006   1.2728e+006    0.1866   -0.0000    0.0406   -0.0000    0.0124
                0.3091   2.9709e-003  -6.2912e-004   3.9928e-005   3.6616e+008   2.4086e+006   1.8806e+005    0.1850   -0.0000    0.0402   -0.0000    0.0018
                0.3560   2.9311e-003  -6.2061e-004   3.4830e-004   3.6126e+008   2.3771e+006   1.6405e+006    0.1825   -0.0000    0.0397   -0.0000    0.0159
                0.3845   2.8889e-003  -6.1158e-004   5.3339e-004   3.5606e+008   2.3437e+006   2.5123e+006    0.1799   -0.0000    0.0391   -0.0000    0.0244

               lamina:  4     
              matName:  (spar-core)
                     s           e11           e22           e12           s11           s22           s12   s11_fcT   s11_fcC   s22_fcT   s22_fcC   s12_fcS
                   (m)         (m/m)         (m/m)         (rad)          (Pa)          (Pa)          (Pa)       (-)       (-)       (-)       (-)       (-)
                0.0000   2.6100e-003  -5.6057e-004   1.9693e-003   5.7148e+005   7.0868e+004   1.9300e+005    0.1332   -0.0000    0.0165   -0.0000    0.0654
                0.0013   2.6141e-003  -5.6146e-004   1.9614e-003   5.7239e+005   7.0982e+004   1.9222e+005    0.1334   -0.0000    0.0165   -0.0000    0.0652
                0.0426   2.6880e-003  -5.7733e-004   1.7086e-003   5.8857e+005   7.2987e+004   1.6744e+005    0.1372   -0.0000    0.0170   -0.0000    0.0568
                0.0849   2.7638e-003  -5.9361e-004   1.4416e-003   6.0516e+005   7.5045e+004   1.4128e+005    0.1411   -0.0000    0.0175   -0.0000    0.0479
                0.1277   2.8110e-003  -6.0375e-004   1.1642e-003   6.1549e+005   7.6326e+004   1.1409e+005    0.1435   -0.0000    0.0178   -0.0000    0.0387
                0.1721   2.8376e-003  -6.0947e-004   8.7253e-004   6.2132e+005   7.7049e+004   8.5508e+004    0.1448   -0.0000    0.0180   -0.0000    0.0290
                0.2169   2.8648e-003  -6.1530e-004   5.7431e-004   6.2727e+005   7.7787e+004   5.6283e+004    0.1462   -0.0000    0.0181   -0.0000    0.0191
                0.2624   2.8422e-003  -6.1045e-004   2.7024e-004   6.2232e+005   7.7173e+004   2.6483e+004    0.1451   -0.0000    0.0180   -0.0000    0.0090
                0.3091   2.8164e-003  -6.0492e-004   3.9928e-005   6.1669e+005   7.6474e+004   3.9130e+003    0.1437   -0.0000    0.0178   -0.0000    0.0013
                0.3560   2.7771e-003  -5.9647e-004   3.4830e-004   6.0807e+005   7.5406e+004   3.4134e+004    0.1417   -0.0000    0.0176   -0.0000    0.0116
                0.3845   2.7355e-003  -5.8754e-004   5.3339e-004   5.9898e+005   7.4278e+004   5.2272e+004    0.1396   -0.0000    0.0173   -0.0000    0.0177

               lamina:  5     
              matName:  (spar-uni)
                     s           e11           e22           e12           s11           s22           s12   s11_fcT   s11_fcC   s22_fcT   s22_fcC   s12_fcS
                   (m)         (m/m)         (m/m)         (rad)          (Pa)          (Pa)          (Pa)       (-)       (-)       (-)       (-)       (-)
                0.0000   2.6084e-003  -5.6032e-004   1.9693e-003   3.2146e+008   2.0490e+006   9.2756e+006    0.1624   -0.0000    0.0342   -0.0000    0.0901
                0.0013   2.6125e-003  -5.6121e-004   1.9614e-003   3.2197e+008   2.0522e+006   9.2384e+006    0.1627   -0.0000    0.0343   -0.0000    0.0897
                0.0426   2.6864e-003  -5.7708e-004   1.7086e-003   3.3108e+008   2.1103e+006   8.0476e+006    0.1673   -0.0000    0.0352   -0.0000    0.0781
                0.0849   2.7621e-003  -5.9335e-004   1.4416e-003   3.4042e+008   2.1698e+006   6.7899e+006    0.1720   -0.0000    0.0362   -0.0000    0.0659
                0.1277   2.8093e-003  -6.0349e-004   1.1642e-003   3.4623e+008   2.2069e+006   5.4834e+006    0.1750   -0.0000    0.0368   -0.0000    0.0532
                0.1721   2.8359e-003  -6.0921e-004   8.7253e-004   3.4951e+008   2.2278e+006   4.1096e+006    0.1766   -0.0000    0.0372   -0.0000    0.0399
                0.2169   2.8631e-003  -6.1504e-004   5.7431e-004   3.5286e+008   2.2491e+006   2.7050e+006    0.1783   -0.0000    0.0375   -0.0000    0.0263
                0.2624   2.8405e-003  -6.1019e-004   2.7024e-004   3.5008e+008   2.2314e+006   1.2728e+006    0.1769   -0.0000    0.0373   -0.0000    0.0124
                0.3091   2.8148e-003  -6.0466e-004   3.9928e-005   3.4690e+008   2.2111e+006   1.8806e+005    0.1753   -0.0000    0.0369   -0.0000    0.0018
                0.3560   2.7754e-003  -5.9621e-004   3.4830e-004   3.4206e+008   2.1802e+006   1.6405e+006    0.1728   -0.0000    0.0364   -0.0000    0.0159
                0.3845   2.7339e-003  -5.8729e-004   5.3339e-004   3.3694e+008   2.1476e+006   2.5123e+006    0.1703   -0.0000    0.0359   -0.0000    0.0244

               lamina:  6     
              matName:  (blade-root)
                     s           e11           e22           e12           s11           s22           s12   s11_fcT   s11_fcC   s22_fcT   s22_fcC   s12_fcS
                   (m)         (m/m)         (m/m)         (rad)          (Pa)          (Pa)          (Pa)       (-)       (-)       (-)       (-)       (-)
                0.0000   2.4585e-003  -5.3683e-004   1.9693e-003   8.8052e+007   2.3464e+006   8.1137e+006    0.0876   -0.0000    0.0458   -0.0000    0.0724
                0.0013   2.4600e-003  -5.3731e-004   1.9614e-003   8.8104e+007   2.3465e+006   8.0811e+006    0.0877   -0.0000    0.0458   -0.0000    0.0722
                0.0426   2.5337e-003  -5.5315e-004   1.7086e-003   9.0746e+007   2.4190e+006   7.0395e+006    0.0903   -0.0000    0.0472   -0.0000    0.0629
                0.0849   2.6088e-003  -5.6931e-004   1.4416e-003   9.3433e+007   2.4925e+006   5.9393e+006    0.0930   -0.0000    0.0487   -0.0000    0.0530
                0.1277   2.6550e-003  -5.7931e-004   1.1642e-003   9.5091e+007   2.5377e+006   4.7965e+006    0.0946   -0.0000    0.0496   -0.0000    0.0428
                0.1721   2.6814e-003  -5.8499e-004   8.7253e-004   9.6037e+007   2.5635e+006   3.5948e+006    0.0956   -0.0000    0.0501   -0.0000    0.0321
                0.2169   2.7084e-003  -5.9079e-004   5.7431e-004   9.7002e+007   2.5899e+006   2.3662e+006    0.0965   -0.0000    0.0506   -0.0000    0.0211
                0.2624   2.6859e-003  -5.8596e-004   2.7024e-004   9.6198e+007   2.5680e+006   1.1134e+006    0.0957   -0.0000    0.0502   -0.0000    0.0099
                0.3091   2.6603e-003  -5.8045e-004   3.9928e-005   9.5281e+007   2.5428e+006   1.6450e+005    0.0948   -0.0000    0.0497   -0.0000    0.0015
                0.3560   2.6214e-003  -5.7207e-004   3.4830e-004   9.3888e+007   2.5047e+006   1.4350e+006    0.0934   -0.0000    0.0489   -0.0000    0.0128
                0.3845   2.5805e-003  -5.6325e-004   5.3339e-004   9.2422e+007   2.4648e+006   2.1976e+006    0.0920   -0.0000    0.0481   -0.0000    0.0196

               lamina:  7     
              matName:  (blade-shell)
                     s           e11           e22           e12           s11           s22           s12   s11_fcT   s11_fcC   s22_fcT   s22_fcC   s12_fcS
                   (m)         (m/m)         (m/m)         (rad)          (Pa)          (Pa)          (Pa)       (-)       (-)       (-)       (-)       (-)
                0.0000   1.9919e-003  -4.6370e-004   1.9693e-003   3.7725e+007  -3.9988e+006   7.7789e+006    0.1119   -0.0000    0.0000    0.0119    0.0676
                0.0013   1.9851e-003  -4.6288e-004   1.9614e-003   3.7594e+007  -4.0000e+006   7.7477e+006    0.1116   -0.0000    0.0000    0.0119    0.0674
                0.0426   2.0584e-003  -4.7866e-004   1.7086e-003   3.8986e+007  -4.1220e+006   6.7490e+006    0.1157   -0.0000    0.0000    0.0122    0.0587
                0.0849   2.1311e-003  -4.9445e-004   1.4416e-003   4.0366e+007  -4.2459e+006   5.6943e+006    0.1198   -0.0000    0.0000    0.0126    0.0495
                0.1277   2.1746e-003  -5.0401e-004   1.1642e-003   4.1191e+007  -4.3221e+006   4.5986e+006    0.1222   -0.0000    0.0000    0.0128    0.0400
                0.1721   2.2003e-003  -5.0957e-004   8.7253e-004   4.1678e+007  -4.3657e+006   3.4465e+006    0.1237   -0.0000    0.0000    0.0130    0.0300
                0.2169   2.2265e-003  -5.1526e-004   5.7431e-004   4.2175e+007  -4.4102e+006   2.2685e+006    0.1251   -0.0000    0.0000    0.0131    0.0197
                0.2624   2.2046e-003  -5.1052e-004   2.7024e-004   4.1760e+007  -4.3732e+006   1.0674e+006    0.1239   -0.0000    0.0000    0.0130    0.0093
                0.3091   2.1794e-003  -5.0508e-004   3.9928e-005   4.1282e+007  -4.3308e+006   1.5772e+005    0.1225   -0.0000    0.0000    0.0129    0.0014
                0.3560   2.1419e-003  -4.9691e-004   3.4830e-004   4.0570e+007  -4.2666e+006   1.3758e+006    0.1204   -0.0000    0.0000    0.0127    0.0120
                0.3845   2.1030e-003  -4.8840e-004   5.3339e-004   3.9831e+007  -4.1992e+006   2.1069e+006    0.1182   -0.0000    0.0000    0.0125    0.0183

            panel:  3     
           lam_num    nPlies        tPly      fibAng     matID  matName
               (-)       (-)         (m)       (deg)       (-)  (-)
                 1         1    0.006094      0.0000         2  (blade-shell)
                 2         1    0.008157      0.0000         1  (blade-root)
                 3         1    0.002620      0.0000         6  (TEP-core)
                 4         1    0.008157      0.0000         1  (blade-root)
                 5         1    0.006094      0.0000         2  (blade-shell)

               lamina:  1     
              matName:  (blade-shell)
                     s           e11           e22           e12           s11           s22           s12   s11_fcT   s11_fcC   s22_fcT   s22_fcC   s12_fcS
                   (m)         (m/m)         (m/m)         (rad)          (Pa)          (Pa)          (Pa)       (-)       (-)       (-)       (-)       (-)
                0.0000   3.3245e-003  -6.4884e-004   8.1631e-005   6.3280e+007  -4.2312e+006   3.2244e+005    0.1878   -0.0000    0.0000    0.0126    0.0028
                0.0189   3.2970e-003  -6.4323e-004   9.6743e-007   6.2758e+007  -4.1915e+006   3.8214e+003    0.1862   -0.0000    0.0000    0.0124    0.0000
                0.0665   3.2260e-003  -6.2882e-004   2.0604e-004   6.1407e+007  -4.0905e+006   8.1384e+005    0.1822   -0.0000    0.0000    0.0121    0.0071
                0.1142   3.1319e-003  -6.0977e-004   4.0557e-004   5.9617e+007  -3.9574e+006   1.6020e+006    0.1769   -0.0000    0.0000    0.0117    0.0139
                0.1619   3.0295e-003  -5.8894e-004   5.9883e-004   5.7671e+007  -3.8104e+006   2.3654e+006    0.1711   -0.0000    0.0000    0.0113    0.0206
                0.2089   2.9261e-003  -5.6797e-004   7.8213e-004   5.5704e+007  -3.6634e+006   3.0894e+006    0.1653   -0.0000    0.0000    0.0109    0.0269
                0.2557   2.8022e-003  -5.4283e-004   9.5658e-004   5.3348e+007  -3.4870e+006   3.7785e+006    0.1583   -0.0000    0.0000    0.0103    0.0329
                0.3017   2.6821e-003  -5.1837e-004   1.1200e-003   5.1066e+007  -3.3141e+006   4.4242e+006    0.1515   -0.0000    0.0000    0.0098    0.0385
                0.3466   2.5579e-003  -4.9313e-004   1.2714e-003   4.8704e+007  -3.1365e+006   5.0220e+006    0.1445   -0.0000    0.0000    0.0093    0.0437
                0.3905   2.4295e-003  -4.6698e-004   1.4110e-003   4.6262e+007  -2.9520e+006   5.5736e+006    0.1373   -0.0000    0.0000    0.0088    0.0485
                0.4329   2.3055e-003  -4.4173e-004   1.5380e-003   4.3904e+007  -2.7737e+006   6.0750e+006    0.1303   -0.0000    0.0000    0.0082    0.0528
                0.4738   2.1788e-003  -4.1597e-004   1.6527e-003   4.1497e+007  -2.5920e+006   6.5281e+006    0.1231   -0.0000    0.0000    0.0077    0.0568
                0.5130   2.0566e-003  -3.9106e-004   1.7553e-003   3.9173e+007  -2.4158e+006   6.9335e+006    0.1162   -0.0000    0.0000    0.0072    0.0603
                0.5502   1.9385e-003  -3.6704e-004   1.8459e-003   3.6928e+007  -2.2466e+006   7.2912e+006    0.1096   -0.0000    0.0000    0.0067    0.0634
                0.5854   1.8203e-003  -3.4299e-004   1.9255e-003   3.4680e+007  -2.0771e+006   7.6057e+006    0.1029   -0.0000    0.0000    0.0062    0.0661
                0.6184   1.7097e-003  -3.2049e-004   1.9943e-003   3.2576e+007  -1.9185e+006   7.8774e+006    0.0967   -0.0000    0.0000    0.0057    0.0685
                0.6490   1.5996e-003  -2.9819e-004   2.0531e-003   3.0483e+007  -1.7625e+006   8.1096e+006    0.0905   -0.0000    0.0000    0.0052    0.0705
                0.6773   1.4942e-003  -2.7676e-004   2.1029e-003   2.8479e+007  -1.6116e+006   8.3066e+006    0.0845   -0.0000    0.0000    0.0048    0.0722
                0.7026   1.3951e-003  -2.5688e-004   2.1437e-003   2.6594e+007  -1.4748e+006   8.4675e+006    0.0789   -0.0000    0.0000    0.0044    0.0736
                0.7256   1.2862e-003  -2.3511e-004   2.1773e-003   2.4523e+007  -1.3261e+006   8.6005e+006    0.0728   -0.0000    0.0000    0.0039    0.0748
                0.7459   1.1896e-003  -2.1574e-004   2.2041e-003   2.2685e+007  -1.1931e+006   8.7061e+006    0.0673   -0.0000    0.0000    0.0035    0.0757
                0.7626   1.0823e-003  -1.9514e-004   2.2238e-003   2.0641e+007  -1.0634e+006   8.7841e+006    0.0612   -0.0000    0.0000    0.0032    0.0764
                0.7777   9.6453e-004  -1.7231e-004   2.2397e-003   1.8400e+007  -9.1639e+005   8.8467e+006    0.0546   -0.0000    0.0000    0.0027    0.0769
                0.7873   8.3117e-004  -1.4903e-004   2.2486e-003   1.5854e+007  -8.0034e+005   8.8819e+006    0.0470   -0.0000    0.0000    0.0024    0.0772
                0.7975   6.2377e-004  -1.1257e-004   2.2568e-003   1.1896e+007  -6.1489e+005   8.9142e+006    0.0353   -0.0000    0.0000    0.0018    0.0775
                0.8070   4.8965e-004  -8.7248e-005   2.2631e-003   9.3413e+006  -4.6079e+005   8.9392e+006    0.0277   -0.0000    0.0000    0.0014    0.0777
                0.8106   4.5428e-004  -8.0029e-005   2.2651e-003   8.6688e+006  -4.0960e+005   8.9471e+006    0.0257   -0.0000    0.0000    0.0012    0.0778

               lamina:  2     
              matName:  (blade-root)
                     s           e11           e22           e12           s11           s22           s12   s11_fcT   s11_fcC   s22_fcT   s22_fcC   s12_fcS
                   (m)         (m/m)         (m/m)         (rad)          (Pa)          (Pa)          (Pa)       (-)       (-)       (-)       (-)       (-)
                0.0000   3.0991e-003  -6.1446e-004   8.1631e-005   1.1117e+008   3.4899e+006   3.3632e+005    0.1106   -0.0000    0.0682   -0.0000    0.0030
                0.0189   3.0716e-003  -6.0885e-004   9.6743e-007   1.1019e+008   3.4603e+006   3.9858e+003    0.1096   -0.0000    0.0676   -0.0000    0.0000
                0.0665   3.0013e-003  -5.9455e-004   2.0604e-004   1.0766e+008   3.3841e+006   8.4887e+005    0.1071   -0.0000    0.0661   -0.0000    0.0076
                0.1142   2.9084e-003  -5.7569e-004   4.0557e-004   1.0433e+008   3.2833e+006   1.6710e+006    0.1038   -0.0000    0.0641   -0.0000    0.0149
                0.1619   2.8065e-003  -5.5493e-004   5.9883e-004   1.0068e+008   3.1733e+006   2.4672e+006    0.1002   -0.0000    0.0620   -0.0000    0.0220
                0.2089   2.7041e-003  -5.3411e-004   7.8213e-004   9.7006e+007   3.0624e+006   3.2224e+006    0.0965   -0.0000    0.0598   -0.0000    0.0288
                0.2557   2.5813e-003  -5.0914e-004   9.5658e-004   9.2603e+007   2.9295e+006   3.9411e+006    0.0921   -0.0000    0.0572   -0.0000    0.0352
                0.3017   2.4616e-003  -4.8473e-004   1.1200e-003   8.8311e+007   2.8004e+006   4.6146e+006    0.0879   -0.0000    0.0547   -0.0000    0.0412
                0.3466   2.3382e-003  -4.5962e-004   1.2714e-003   8.3887e+007   2.6671e+006   5.2381e+006    0.0835   -0.0000    0.0521   -0.0000    0.0468
                0.3905   2.2103e-003  -4.3355e-004   1.4110e-003   7.9300e+007   2.5290e+006   5.8135e+006    0.0789   -0.0000    0.0494   -0.0000    0.0519
                0.4329   2.0867e-003  -4.0837e-004   1.5380e-003   7.4870e+007   2.3957e+006   6.3364e+006    0.0745   -0.0000    0.0468   -0.0000    0.0566
                0.4738   1.9607e-003  -3.8270e-004   1.6527e-003   7.0352e+007   2.2597e+006   6.8090e+006    0.0700   -0.0000    0.0441   -0.0000    0.0608
                0.5130   1.8388e-003  -3.5783e-004   1.7553e-003   6.5979e+007   2.1283e+006   7.2319e+006    0.0657   -0.0000    0.0416   -0.0000    0.0646
                0.5502   1.7213e-003  -3.3391e-004   1.8459e-003   6.1767e+007   2.0014e+006   7.6050e+006    0.0615   -0.0000    0.0391   -0.0000    0.0679
                0.5854   1.6037e-003  -3.0996e-004   1.9255e-003   5.7550e+007   1.8744e+006   7.9330e+006    0.0573   -0.0000    0.0366   -0.0000    0.0708
                0.6184   1.4937e-003  -2.8755e-004   1.9943e-003   5.3605e+007   1.7556e+006   8.2164e+006    0.0533   -0.0000    0.0343   -0.0000    0.0734
                0.6490   1.3849e-003  -2.6544e-004   2.0531e-003   4.9703e+007   1.6376e+006   8.4586e+006    0.0495   -0.0000    0.0320   -0.0000    0.0755
                0.6773   1.2801e-003  -2.4411e-004   2.1029e-003   4.5946e+007   1.5244e+006   8.6641e+006    0.0457   -0.0000    0.0298   -0.0000    0.0774
                0.7026   1.1836e-003  -2.2462e-004   2.1437e-003   4.2485e+007   1.4187e+006   8.8319e+006    0.0423   -0.0000    0.0277   -0.0000    0.0789
                0.7256   1.0781e-003  -2.0337e-004   2.1773e-003   3.8704e+007   1.3029e+006   8.9706e+006    0.0385   -0.0000    0.0254   -0.0000    0.0801
                0.7459   9.8418e-004  -1.8441e-004   2.2041e-003   3.5335e+007   1.2000e+006   9.0808e+006    0.0352   -0.0000    0.0234   -0.0000    0.0811
                0.7626   8.8680e-004  -1.6533e-004   2.2238e-003   3.1841e+007   1.0883e+006   9.1622e+006    0.0317   -0.0000    0.0213   -0.0000    0.0818
                0.7777   7.7815e-004  -1.4388e-004   2.2397e-003   2.7943e+007   9.6517e+005   9.2274e+006    0.0278   -0.0000    0.0189   -0.0000    0.0824
                0.7873   6.7470e-004  -1.2517e-004   2.2486e-003   2.4227e+007   8.3334e+005   9.2642e+006    0.0241   -0.0000    0.0163   -0.0000    0.0827
                0.7975   5.1189e-004  -9.5511e-005   2.2568e-003   1.8379e+007   6.2757e+005   9.2979e+006    0.0183   -0.0000    0.0123   -0.0000    0.0830
                0.8070   3.9331e-004  -7.2555e-005   2.2631e-003   1.4124e+007   4.8930e+005   9.3239e+006    0.0141   -0.0000    0.0096   -0.0000    0.0832
                0.8106   3.5794e-004  -6.5336e-005   2.2651e-003   1.2856e+007   4.5123e+005   9.3322e+006    0.0128   -0.0000    0.0088   -0.0000    0.0833

               lamina:  3     
              matName:  (TEP-core)
                     s           e11           e22           e12           s11           s22           s12   s11_fcT   s11_fcC   s22_fcT   s22_fcC   s12_fcS
                   (m)         (m/m)         (m/m)         (rad)          (Pa)          (Pa)          (Pa)       (-)       (-)       (-)       (-)       (-)
                0.0000   2.7974e-003  -5.6845e-004   8.1631e-005   6.1504e+005   8.3590e+004   7.9998e+003    0.1434   -0.0000    0.0195   -0.0000    0.0027
                0.0189   2.7699e-003  -5.6284e-004   9.6743e-007   6.0900e+005   8.2775e+004   9.4809e+001    0.1420   -0.0000    0.0193   -0.0000    0.0000
                0.0665   2.7005e-003  -5.4868e-004   2.0604e-004   5.9375e+005   8.0714e+004   2.0192e+004    0.1384   -0.0000    0.0188   -0.0000    0.0068
                0.1142   2.6092e-003  -5.3006e-004   4.0557e-004   5.7368e+005   7.8002e+004   3.9746e+004    0.1337   -0.0000    0.0182   -0.0000    0.0135
                0.1619   2.5080e-003  -5.0940e-004   5.9883e-004   5.5142e+005   7.4996e+004   5.8685e+004    0.1285   -0.0000    0.0175   -0.0000    0.0199
                0.2089   2.4070e-003  -4.8879e-004   7.8213e-004   5.2922e+005   7.1996e+004   7.6648e+004    0.1234   -0.0000    0.0168   -0.0000    0.0260
                0.2557   2.2856e-003  -4.6404e-004   9.5658e-004   5.0255e+005   6.8394e+004   9.3745e+004    0.1171   -0.0000    0.0159   -0.0000    0.0318
                0.3017   2.1664e-003  -4.3971e-004   1.1200e-003   4.7634e+005   6.4854e+004   1.0976e+005    0.1110   -0.0000    0.0151   -0.0000    0.0372
                0.3466   2.0441e-003  -4.1476e-004   1.2714e-003   4.4947e+005   6.1225e+004   1.2460e+005    0.1048   -0.0000    0.0143   -0.0000    0.0422
                0.3905   1.9169e-003  -3.8880e-004   1.4110e-003   4.2150e+005   5.7448e+004   1.3828e+005    0.0983   -0.0000    0.0134   -0.0000    0.0469
                0.4329   1.7939e-003  -3.6371e-004   1.5380e-003   3.9448e+005   5.3799e+004   1.5072e+005    0.0920   -0.0000    0.0125   -0.0000    0.0511
                0.4738   1.6688e-003  -3.3817e-004   1.6527e-003   3.6697e+005   5.0084e+004   1.6196e+005    0.0855   -0.0000    0.0117   -0.0000    0.0549
                0.5130   1.5471e-003  -3.1335e-004   1.7553e-003   3.4024e+005   4.6474e+004   1.7202e+005    0.0793   -0.0000    0.0108   -0.0000    0.0583
                0.5502   1.4306e-003  -2.8957e-004   1.8459e-003   3.1461e+005   4.3014e+004   1.8090e+005    0.0733   -0.0000    0.0100   -0.0000    0.0613
                0.5854   1.3138e-003  -2.6573e-004   1.9255e-003   2.8894e+005   3.9546e+004   1.8870e+005    0.0674   -0.0000    0.0092   -0.0000    0.0640
                0.6184   1.2045e-003  -2.4345e-004   1.9943e-003   2.6493e+005   3.6304e+004   1.9544e+005    0.0618   -0.0000    0.0085   -0.0000    0.0663
                0.6490   1.0974e-003  -2.2160e-004   2.0531e-003   2.4139e+005   3.3122e+004   2.0120e+005    0.0563   -0.0000    0.0077   -0.0000    0.0682
                0.6773   9.9350e-004  -2.0040e-004   2.1029e-003   2.1855e+005   3.0037e+004   2.0609e+005    0.0509   -0.0000    0.0070   -0.0000    0.0699
                0.7026   9.0045e-004  -1.8143e-004   2.1437e-003   1.9809e+005   2.7270e+004   2.1008e+005    0.0462   -0.0000    0.0064   -0.0000    0.0712
                0.7256   7.9961e-004  -1.6089e-004   2.1773e-003   1.7593e+005   2.4269e+004   2.1338e+005    0.0410   -0.0000    0.0057   -0.0000    0.0723
                0.7459   7.0920e-004  -1.4247e-004   2.2041e-003   1.5605e+005   2.1579e+004   2.1600e+005    0.0364   -0.0000    0.0050   -0.0000    0.0732
                0.7626   6.2515e-004  -1.2542e-004   2.2238e-003   1.3757e+005   1.9059e+004   2.1794e+005    0.0321   -0.0000    0.0044   -0.0000    0.0739
                0.7777   5.2866e-004  -1.0583e-004   2.2397e-003   1.1635e+005   1.6173e+004   2.1949e+005    0.0271   -0.0000    0.0038   -0.0000    0.0744
                0.7873   4.6525e-004  -9.3223e-005   2.2486e-003   1.0239e+005   1.4213e+004   2.2036e+005    0.0239   -0.0000    0.0033   -0.0000    0.0747
                0.7975   3.6213e-004  -7.2669e-005   2.2568e-003   7.9689e+004   1.1037e+004   2.2116e+005    0.0186   -0.0000    0.0026   -0.0000    0.0750
                0.8070   2.6436e-004  -5.2887e-005   2.2631e-003   5.8187e+004   8.0954e+003   2.2178e+005    0.0136   -0.0000    0.0019   -0.0000    0.0752
                0.8106   2.2899e-004  -4.5668e-005   2.2651e-003   5.0413e+004   7.0459e+003   2.2198e+005    0.0118   -0.0000    0.0016   -0.0000    0.0752

               lamina:  4     
              matName:  (blade-root)
                     s           e11           e22           e12           s11           s22           s12   s11_fcT   s11_fcC   s22_fcT   s22_fcC   s12_fcS
                   (m)         (m/m)         (m/m)         (rad)          (Pa)          (Pa)          (Pa)       (-)       (-)       (-)       (-)       (-)
                0.0000   2.7005e-003  -5.5367e-004   8.1631e-005   9.6820e+007   2.8851e+006   3.3632e+005    0.0963   -0.0000    0.0564   -0.0000    0.0030
                0.0189   2.6731e-003  -5.4806e-004   9.6743e-007   9.5836e+007   2.8556e+006   3.9858e+003    0.0954   -0.0000    0.0558   -0.0000    0.0000
                0.0665   2.6040e-003  -5.3395e-004   2.0604e-004   9.3358e+007   2.7813e+006   8.4887e+005    0.0929   -0.0000    0.0543   -0.0000    0.0076
                0.1142   2.5132e-003  -5.1541e-004   4.0557e-004   9.0103e+007   2.6837e+006   1.6710e+006    0.0897   -0.0000    0.0524   -0.0000    0.0149
                0.1619   2.4121e-003  -4.9477e-004   5.9883e-004   8.6479e+007   2.5749e+006   2.4672e+006    0.0860   -0.0000    0.0503   -0.0000    0.0220
                0.2089   2.3115e-003  -4.7424e-004   7.8213e-004   8.2874e+007   2.4668e+006   3.2224e+006    0.0825   -0.0000    0.0482   -0.0000    0.0288
                0.2557   2.1907e-003  -4.4956e-004   9.5658e-004   7.8541e+007   2.3368e+006   3.9411e+006    0.0781   -0.0000    0.0456   -0.0000    0.0352
                0.3017   2.0716e-003  -4.2525e-004   1.1200e-003   7.4270e+007   2.2087e+006   4.6146e+006    0.0739   -0.0000    0.0431   -0.0000    0.0412
                0.3466   1.9497e-003  -4.0036e-004   1.2714e-003   6.9899e+007   2.0776e+006   5.2381e+006    0.0696   -0.0000    0.0406   -0.0000    0.0468
                0.3905   1.8226e-003  -3.7443e-004   1.4110e-003   6.5345e+007   1.9409e+006   5.8135e+006    0.0650   -0.0000    0.0379   -0.0000    0.0519
                0.4329   1.6999e-003  -3.4937e-004   1.5380e-003   6.0944e+007   1.8088e+006   6.3364e+006    0.0606   -0.0000    0.0353   -0.0000    0.0566
                0.4738   1.5750e-003  -3.2387e-004   1.6527e-003   5.6466e+007   1.6745e+006   6.8090e+006    0.0562   -0.0000    0.0327   -0.0000    0.0608
                0.5130   1.4535e-003  -2.9907e-004   1.7553e-003   5.2108e+007   1.5437e+006   7.2319e+006    0.0518   -0.0000    0.0302   -0.0000    0.0646
                0.5502   1.3372e-003  -2.7533e-004   1.8459e-003   4.7939e+007   1.4186e+006   7.6050e+006    0.0477   -0.0000    0.0277   -0.0000    0.0679
                0.5854   1.2206e-003  -2.5153e-004   1.9255e-003   4.3760e+007   1.2932e+006   7.9330e+006    0.0435   -0.0000    0.0253   -0.0000    0.0708
                0.6184   1.1117e-003  -2.2929e-004   1.9943e-003   3.9853e+007   1.1760e+006   8.2164e+006    0.0397   -0.0000    0.0230   -0.0000    0.0734
                0.6490   1.0051e-003  -2.0752e-004   2.0531e-003   3.6031e+007   1.0614e+006   8.4586e+006    0.0359   -0.0000    0.0207   -0.0000    0.0755
                0.6773   9.0146e-004  -1.8636e-004   2.1029e-003   3.2315e+007   9.4992e+005   8.6641e+006    0.0322   -0.0000    0.0186   -0.0000    0.0774
                0.7026   8.0952e-004  -1.6757e-004   2.1437e-003   2.9019e+007   8.5122e+005   8.8319e+006    0.0289   -0.0000    0.0166   -0.0000    0.0789
                0.7256   7.1015e-004  -1.4725e-004   2.1773e-003   2.5456e+007   7.4460e+005   8.9706e+006    0.0253   -0.0000    0.0145   -0.0000    0.0801
                0.7459   6.2088e-004  -1.2900e-004   2.2041e-003   2.2255e+007   6.4877e+005   9.0808e+006    0.0221   -0.0000    0.0127   -0.0000    0.0811
                0.7626   5.4112e-004  -1.1261e-004   2.2238e-003   1.9396e+007   5.6387e+005   9.1622e+006    0.0193   -0.0000    0.0110   -0.0000    0.0818
                0.7777   4.4853e-004  -9.3610e-005   2.2397e-003   1.6076e+007   4.6508e+005   9.2274e+006    0.0160   -0.0000    0.0091   -0.0000    0.0824
                0.7873   3.9799e-004  -8.2963e-005   2.2486e-003   1.4265e+007   4.1352e+005   9.2642e+006    0.0142   -0.0000    0.0081   -0.0000    0.0827
                0.7975   3.1403e-004  -6.5333e-005   2.2568e-003   1.1256e+007   3.2738e+005   9.2979e+006    0.0112   -0.0000    0.0064   -0.0000    0.0830
                0.8070   2.2295e-004  -4.6571e-005   2.2631e-003   7.9907e+006   2.3082e+005   9.3239e+006    0.0080   -0.0000    0.0045   -0.0000    0.0832
                0.8106   1.8757e-004  -3.9351e-005   2.2651e-003   6.7225e+006   1.9275e+005   9.3322e+006    0.0067   -0.0000    0.0038   -0.0000    0.0833

               lamina:  5     
              matName:  (blade-shell)
                     s           e11           e22           e12           s11           s22           s12   s11_fcT   s11_fcC   s22_fcT   s22_fcC   s12_fcS
                   (m)         (m/m)         (m/m)         (rad)          (Pa)          (Pa)          (Pa)       (-)       (-)       (-)       (-)       (-)
                0.0000   2.3988e-003  -5.0765e-004   8.1631e-005   4.5560e+007  -3.8241e+006   3.2244e+005    0.1352   -0.0000    0.0000    0.0113    0.0028
                0.0189   2.3713e-003  -5.0205e-004   9.6743e-007   4.5038e+007  -3.7843e+006   3.8214e+003    0.1336   -0.0000    0.0000    0.0112    0.0000
                0.0665   2.3032e-003  -4.8808e-004   2.0604e-004   4.3742e+007  -3.6846e+006   8.1384e+005    0.1298   -0.0000    0.0000    0.0109    0.0071
                0.1142   2.2140e-003  -4.6978e-004   4.0557e-004   4.2047e+007  -3.5537e+006   1.6020e+006    0.1248   -0.0000    0.0000    0.0105    0.0139
                0.1619   2.1136e-003  -4.4924e-004   5.9883e-004   4.0137e+007  -3.4076e+006   2.3654e+006    0.1191   -0.0000    0.0000    0.0101    0.0206
                0.2089   2.0144e-003  -4.2892e-004   7.8213e-004   3.8253e+007  -3.2625e+006   3.0894e+006    0.1135   -0.0000    0.0000    0.0097    0.0269
                0.2557   1.8950e-003  -4.0447e-004   9.5658e-004   3.5983e+007  -3.0880e+006   3.7785e+006    0.1068   -0.0000    0.0000    0.0092    0.0329
                0.3017   1.7764e-003  -3.8022e-004   1.1200e-003   3.3727e+007  -2.9157e+006   4.4242e+006    0.1001   -0.0000    0.0000    0.0087    0.0385
                0.3466   1.6556e-003  -3.5550e-004   1.2714e-003   3.1431e+007  -2.7396e+006   5.0220e+006    0.0933   -0.0000    0.0000    0.0081    0.0437
                0.3905   1.5292e-003  -3.2968e-004   1.4110e-003   2.9029e+007  -2.5560e+006   5.5736e+006    0.0861   -0.0000    0.0000    0.0076    0.0485
                0.4329   1.4071e-003  -3.0472e-004   1.5380e-003   2.6708e+007  -2.3786e+006   6.0750e+006    0.0793   -0.0000    0.0000    0.0071    0.0528
                0.4738   1.2831e-003  -2.7935e-004   1.6527e-003   2.4349e+007  -2.1981e+006   6.5281e+006    0.0723   -0.0000    0.0000    0.0065    0.0568
                0.5130   1.1619e-003  -2.5459e-004   1.7553e-003   2.2045e+007  -2.0223e+006   6.9335e+006    0.0654   -0.0000    0.0000    0.0060    0.0603
                0.5502   1.0464e-003  -2.3098e-004   1.8459e-003   1.9851e+007  -1.8542e+006   7.2912e+006    0.0589   -0.0000    0.0000    0.0055    0.0634
                0.5854   9.3071e-004  -2.0731e-004   1.9255e-003   1.7650e+007  -1.6858e+006   7.6057e+006    0.0524   -0.0000    0.0000    0.0050    0.0661
                0.6184   8.2255e-004  -1.8519e-004   1.9943e-003   1.5594e+007  -1.5283e+006   7.8774e+006    0.0463   -0.0000    0.0000    0.0045    0.0685
                0.6490   7.1762e-004  -1.6367e-004   2.0531e-003   1.3600e+007  -1.3745e+006   8.1096e+006    0.0404   -0.0000    0.0000    0.0041    0.0705
                0.6773   6.1486e-004  -1.4265e-004   2.1029e-003   1.1646e+007  -1.2248e+006   8.3066e+006    0.0346   -0.0000    0.0000    0.0036    0.0722
                0.7026   5.2639e-004  -1.2438e-004   2.1437e-003   9.9647e+006  -1.0927e+006   8.4675e+006    0.0296   -0.0000    0.0000    0.0032    0.0736
                0.7256   4.3161e-004  -1.0476e-004   2.1773e-003   8.1634e+006  -9.5022e+005   8.6005e+006    0.0242   -0.0000    0.0000    0.0028    0.0748
                0.7459   3.4589e-004  -8.7056e-005   2.2041e-003   6.5343e+006  -8.2202e+005   8.7061e+006    0.0194   -0.0000    0.0000    0.0024    0.0757
                0.7626   2.7947e-004  -7.2702e-005   2.2238e-003   5.2735e+006  -7.1031e+005   8.7841e+006    0.0156   -0.0000    0.0000    0.0021    0.0764
                0.7777   1.9903e-004  -5.5557e-005   2.2397e-003   3.7461e+006  -5.7970e+005   8.8467e+006    0.0111   -0.0000    0.0000    0.0017    0.0769
                0.7873   1.8854e-004  -5.1018e-005   2.2486e-003   3.5527e+006  -5.1770e+005   8.8819e+006    0.0105   -0.0000    0.0000    0.0015    0.0772
                0.7975   1.6427e-004  -4.2491e-005   2.2568e-003   3.1003e+006  -4.1279e+005   8.9142e+006    0.0092   -0.0000    0.0000    0.0012    0.0775
                0.8070   9.3991e-005  -2.6902e-005   2.2631e-003   1.7673e+006  -2.8677e+005   8.9392e+006    0.0052   -0.0000    0.0000    0.0009    0.0777
                0.8106   5.8620e-005  -1.9683e-005   2.2651e-003   1.0949e+006  -2.3558e+005   8.9471e+006    0.0032   -0.0000    0.0000    0.0007    0.0778

     Web:  panel  nNode   nLam     xc_St    xc_End         b         t         E_eff         G_eff      nu_eff     density  buckleCrit
            (-)    (-)    (-)       (-)       (-)       (m)       (m)          (Pa)          (Pa)         (-)    (kg/m^3)         (-)
              1     10      3    0.2304    0.2304    0.4627    0.0121   6.5707e+009   1.3870e+009      0.1347    691.8998      0.1268
              2     10      3    0.4876    0.4876    0.4806    0.0121   6.5707e+009   1.3870e+009      0.1347    691.8998      0.1871

            panel:  1     
           lam_num    nPlies        tPly      fibAng     matID  matName
               (-)       (-)         (m)       (deg)       (-)  (-)
                 1         1    0.002023      0.0000         7  (web-shell)
                 2         1    0.008047      0.0000         8  (web-core)
                 3         1    0.002023      0.0000         7  (web-shell)

               lamina:  1     
              matName:  (web-shell)
                     s           e11           e22           e12           s11           s22           s12   s11_fcT   s11_fcC   s22_fcT   s22_fcC   s12_fcS
                   (m)         (m/m)         (m/m)         (rad)          (Pa)          (Pa)          (Pa)       (-)       (-)       (-)       (-)       (-)
                0.0000  -2.5375e-003   3.4177e-004   4.3261e-003  -4.8689e+007   2.3230e+005   1.7088e+007    0.0000    0.0980    0.0007   -0.0000    0.1486
                0.0514  -1.9793e-003   2.6659e-004   4.4532e-003  -3.7979e+007   1.8121e+005   1.7590e+007    0.0000    0.0764    0.0005   -0.0000    0.1530
                0.1028  -1.4211e-003   1.9141e-004   4.5496e-003  -2.7269e+007   1.3013e+005   1.7971e+007    0.0000    0.0549    0.0004   -0.0000    0.1563
                0.1542  -8.6295e-004   1.1623e-004   4.6153e-003  -1.6558e+007   7.9040e+004   1.8231e+007    0.0000    0.0333    0.0002   -0.0000    0.1585
                0.2057  -3.0478e-004   4.1052e-005   4.6504e-003  -5.8481e+006   2.7954e+004   1.8369e+007    0.0000    0.0118    0.0001   -0.0000    0.1597
                0.2571   2.5381e-004  -3.4181e-005   4.6548e-003   4.8702e+006  -2.3140e+004   1.8386e+007    0.0145   -0.0000    0.0000    0.0001    0.1599
                0.3085   8.1199e-004  -1.0936e-004   4.6285e-003   1.5581e+007  -7.4226e+004   1.8282e+007    0.0462   -0.0000    0.0000    0.0002    0.1590
                0.3599   1.3702e-003  -1.8454e-004   4.5715e-003   2.6291e+007  -1.2531e+005   1.8057e+007    0.0780   -0.0000    0.0000    0.0004    0.1570
                0.4113   1.9283e-003  -2.5972e-004   4.4839e-003   3.7001e+007  -1.7640e+005   1.7711e+007    0.1098   -0.0000    0.0000    0.0005    0.1540
                0.4627   2.4865e-003  -3.3489e-004   4.3655e-003   4.7711e+007  -2.2748e+005   1.7244e+007    0.1416   -0.0000    0.0000    0.0007    0.1499

               lamina:  2     
              matName:  (web-core)
                     s           e11           e22           e12           s11           s22           s12   s11_fcT   s11_fcC   s22_fcT   s22_fcC   s12_fcS
                   (m)         (m/m)         (m/m)         (rad)          (Pa)          (Pa)          (Pa)       (-)       (-)       (-)       (-)       (-)
                0.0000  -2.5391e-003   3.4198e-004   4.3261e-003  -5.7179e+005  -1.1687e+005   4.2396e+005    0.0000    0.1333    0.0000    0.0272    0.1437
                0.0514  -1.9810e-003   2.6680e-004   4.4532e-003  -4.4609e+005  -9.1181e+004   4.3641e+005    0.0000    0.1040    0.0000    0.0213    0.1479
                0.1028  -1.4228e-003   1.9163e-004   4.5496e-003  -3.2040e+005  -6.5489e+004   4.4586e+005    0.0000    0.0747    0.0000    0.0153    0.1511
                0.1542  -8.6461e-004   1.1645e-004   4.6153e-003  -1.9470e+005  -3.9797e+004   4.5230e+005    0.0000    0.0454    0.0000    0.0093    0.1533
                0.2057  -3.0643e-004   4.1269e-005   4.6504e-003  -6.9006e+004  -1.4105e+004   4.5574e+005    0.0000    0.0161    0.0000    0.0033    0.1545
                0.2571   2.5340e-004  -3.4126e-005   4.6548e-003   5.7062e+004   1.1664e+004   4.5617e+005    0.0133   -0.0000    0.0027   -0.0000    0.1546
                0.3085   8.1157e-004  -1.0930e-004   4.6285e-003   1.8276e+005   3.7356e+004   4.5359e+005    0.0426   -0.0000    0.0087   -0.0000    0.1538
                0.3599   1.3697e-003  -1.8448e-004   4.5715e-003   3.0845e+005   6.3048e+004   4.4801e+005    0.0719   -0.0000    0.0147   -0.0000    0.1519
                0.4113   1.9279e-003  -2.5966e-004   4.4839e-003   4.3415e+005   8.8740e+004   4.3942e+005    0.1012   -0.0000    0.0207   -0.0000    0.1490
                0.4627   2.4861e-003  -3.3484e-004   4.3655e-003   5.5984e+005   1.1443e+005   4.2782e+005    0.1305   -0.0000    0.0267   -0.0000    0.1450

               lamina:  3     
              matName:  (web-shell)
                     s           e11           e22           e12           s11           s22           s12   s11_fcT   s11_fcC   s22_fcT   s22_fcC   s12_fcS
                   (m)         (m/m)         (m/m)         (rad)          (Pa)          (Pa)          (Pa)       (-)       (-)       (-)       (-)       (-)
                0.0000  -2.5395e-003   3.4204e-004   4.3261e-003  -4.8729e+007   2.3234e+005   1.7088e+007    0.0000    0.0980    0.0007   -0.0000    0.1486
                0.0514  -1.9814e-003   2.6686e-004   4.4532e-003  -3.8019e+007   1.8125e+005   1.7590e+007    0.0000    0.0765    0.0005   -0.0000    0.1530
                0.1028  -1.4232e-003   1.9168e-004   4.5496e-003  -2.7308e+007   1.3017e+005   1.7971e+007    0.0000    0.0549    0.0004   -0.0000    0.1563
                0.1542  -8.6502e-004   1.1650e-004   4.6153e-003  -1.6598e+007   7.9080e+004   1.8231e+007    0.0000    0.0334    0.0002   -0.0000    0.1585
                0.2057  -3.0685e-004   4.1324e-005   4.6504e-003  -5.8879e+006   2.7994e+004   1.8369e+007    0.0000    0.0118    0.0001   -0.0000    0.1597
                0.2571   2.5174e-004  -3.3909e-005   4.6548e-003   4.8304e+006  -2.3100e+004   1.8386e+007    0.0143   -0.0000    0.0000    0.0001    0.1599
                0.3085   8.0992e-004  -1.0909e-004   4.6285e-003   1.5541e+007  -7.4186e+004   1.8282e+007    0.0461   -0.0000    0.0000    0.0002    0.1590
                0.3599   1.3681e-003  -1.8427e-004   4.5715e-003   2.6251e+007  -1.2527e+005   1.8057e+007    0.0779   -0.0000    0.0000    0.0004    0.1570
                0.4113   1.9263e-003  -2.5944e-004   4.4839e-003   3.6961e+007  -1.7636e+005   1.7711e+007    0.1097   -0.0000    0.0000    0.0005    0.1540
                0.4627   2.4844e-003  -3.3462e-004   4.3655e-003   4.7672e+007  -2.2744e+005   1.7244e+007    0.1415   -0.0000    0.0000    0.0007    0.1499

            panel:  2     
           lam_num    nPlies        tPly      fibAng     matID  matName
               (-)       (-)         (m)       (deg)       (-)  (-)
                 1         1    0.002023      0.0000         7  (web-shell)
                 2         1    0.008047      0.0000         8  (web-core)
                 3         1    0.002023      0.0000         7  (web-shell)

               lamina:  1     
              matName:  (web-shell)
                     s           e11           e22           e12           s11           s22           s12   s11_fcT   s11_fcC   s22_fcT   s22_fcC   s12_fcS
                   (m)         (m/m)         (m/m)         (rad)          (Pa)          (Pa)          (Pa)       (-)       (-)       (-)       (-)       (-)
                0.0000  -2.6636e-003   3.5876e-004   4.9898e-003  -5.1110e+007   2.4383e+005   1.9710e+007    0.0000    0.1028    0.0007   -0.0000    0.1714
                0.0534  -2.0839e-003   2.8068e-004   5.1250e-003  -3.9986e+007   1.9078e+005   2.0244e+007    0.0000    0.0805    0.0006   -0.0000    0.1760
                0.1068  -1.5042e-003   2.0260e-004   5.2272e-003  -2.8863e+007   1.3772e+005   2.0647e+007    0.0000    0.0581    0.0004   -0.0000    0.1795
                0.1602  -9.2451e-004   1.2452e-004   5.2962e-003  -1.7740e+007   8.4662e+004   2.0920e+007    0.0000    0.0357    0.0003   -0.0000    0.1819
                0.2136  -3.4481e-004   4.6444e-005   5.3322e-003  -6.6162e+006   3.1606e+004   2.1062e+007    0.0000    0.0133    0.0001   -0.0000    0.1831
                0.2670   2.3523e-004  -3.1678e-005   5.3351e-003   4.5136e+006  -2.1457e+004   2.1074e+007    0.0134   -0.0000    0.0000    0.0001    0.1832
                0.3204   8.1493e-004  -1.0976e-004   5.3049e-003   1.5637e+007  -7.4514e+004   2.0954e+007    0.0464   -0.0000    0.0000    0.0002    0.1822
                0.3738   1.3946e-003  -1.8783e-004   5.2416e-003   2.6760e+007  -1.2757e+005   2.0704e+007    0.0794   -0.0000    0.0000    0.0004    0.1800
                0.4272   1.9743e-003  -2.6591e-004   5.1452e-003   3.7884e+007  -1.8063e+005   2.0324e+007    0.1124   -0.0000    0.0000    0.0005    0.1767
                0.4806   2.5540e-003  -3.4399e-004   5.0157e-003   4.9007e+007  -2.3368e+005   1.9812e+007    0.1454   -0.0000    0.0000    0.0007    0.1723

               lamina:  2     
              matName:  (web-core)
                     s           e11           e22           e12           s11           s22           s12   s11_fcT   s11_fcC   s22_fcT   s22_fcC   s12_fcS
                   (m)         (m/m)         (m/m)         (rad)          (Pa)          (Pa)          (Pa)       (-)       (-)       (-)       (-)       (-)
                0.0000  -2.6649e-003   3.5893e-004   4.9898e-003  -6.0012e+005  -1.2266e+005   4.8900e+005    0.0000    0.1399    0.0000    0.0286    0.1658
                0.0534  -2.0852e-003   2.8085e-004   5.1250e-003  -4.6958e+005  -9.5981e+004   5.0225e+005    0.0000    0.1095    0.0000    0.0224    0.1703
                0.1068  -1.5055e-003   2.0277e-004   5.2272e-003  -3.3903e+005  -6.9298e+004   5.1226e+005    0.0000    0.0790    0.0000    0.0162    0.1736
                0.1602  -9.2584e-004   1.2470e-004   5.2962e-003  -2.0849e+005  -4.2615e+004   5.1903e+005    0.0000    0.0486    0.0000    0.0099    0.1759
                0.2136  -3.4613e-004   4.6617e-005   5.3322e-003  -7.7946e+004  -1.5933e+004   5.2256e+005    0.0000    0.0182    0.0000    0.0037    0.1771
                0.2670   2.3489e-004  -3.1635e-005   5.3351e-003   5.2896e+004   1.0812e+004   5.2284e+005    0.0123   -0.0000    0.0025   -0.0000    0.1772
                0.3204   8.1460e-004  -1.0971e-004   5.3049e-003   1.8344e+005   3.7495e+004   5.1988e+005    0.0428   -0.0000    0.0087   -0.0000    0.1762
                0.3738   1.3943e-003  -1.8779e-004   5.2416e-003   3.1398e+005   6.4178e+004   5.1368e+005    0.0732   -0.0000    0.0150   -0.0000    0.1741
                0.4272   1.9740e-003  -2.6587e-004   5.1452e-003   4.4453e+005   9.0861e+004   5.0423e+005    0.1036   -0.0000    0.0212   -0.0000    0.1709
                0.4806   2.5537e-003  -3.4395e-004   5.0157e-003   5.7507e+005   1.1754e+005   4.9154e+005    0.1340   -0.0000    0.0274   -0.0000    0.1666

               lamina:  3     
              matName:  (web-shell)
                     s           e11           e22           e12           s11           s22           s12   s11_fcT   s11_fcC   s22_fcT   s22_fcC   s12_fcS
                   (m)         (m/m)         (m/m)         (rad)          (Pa)          (Pa)          (Pa)       (-)       (-)       (-)       (-)       (-)
                0.0000  -2.6653e-003   3.5897e-004   4.9898e-003  -5.1142e+007   2.4386e+005   1.9710e+007    0.0000    0.1029    0.0007   -0.0000    0.1714
                0.0534  -2.0856e-003   2.8090e-004   5.1250e-003  -4.0018e+007   1.9081e+005   2.0244e+007    0.0000    0.0805    0.0006   -0.0000    0.1760
                0.1068  -1.5059e-003   2.0282e-004   5.2272e-003  -2.8895e+007   1.3775e+005   2.0647e+007    0.0000    0.0581    0.0004   -0.0000    0.1795
                0.1602  -9.2617e-004   1.2474e-004   5.2962e-003  -1.7771e+007   8.4695e+004   2.0920e+007    0.0000    0.0358    0.0003   -0.0000    0.1819
                0.2136  -3.4647e-004   4.6661e-005   5.3322e-003  -6.6480e+006   3.1638e+004   2.1062e+007    0.0000    0.0134    0.0001   -0.0000    0.1831
                0.2670   2.3357e-004  -3.1461e-005   5.3351e-003   4.4818e+006  -2.1425e+004   2.1074e+007    0.0133   -0.0000    0.0000    0.0001    0.1832
                0.3204   8.1327e-004  -1.0954e-004   5.3049e-003   1.5605e+007  -7.4481e+004   2.0954e+007    0.0463   -0.0000    0.0000    0.0002    0.1822
                0.3738   1.3930e-003  -1.8762e-004   5.2416e-003   2.6729e+007  -1.2754e+005   2.0704e+007    0.0793   -0.0000    0.0000    0.0004    0.1800
                0.4272   1.9727e-003  -2.6570e-004   5.1452e-003   3.7852e+007  -1.8059e+005   2.0324e+007    0.1123   -0.0000    0.0000    0.0005    0.1767
                0.4806   2.5524e-003  -3.4377e-004   5.0157e-003   4.8975e+007  -2.3365e+005   1.9812e+007    0.1453   -0.0000    0.0000    0.0007    0.1723

================================================================================
sec        =  6      
zSec       =  1.5030  (m)
nPanelsTop =  3      
nPanelsBot =  3      
nWebs      =  2      

    Top:  panel  nNode   nLam     xc_St    xc_End         b         t         E_eff         G_eff      nu_eff     density  buckleCrit
            (-)    (-)    (-)       (-)       (-)       (m)       (m)          (Pa)          (Pa)         (-)    (kg/m^3)         (-)
              1     18      5    0.0000    0.2365    0.4819    0.0204   2.5500e+010   3.9743e+009      0.1748   1697.0031      0.0711
              2      9      7    0.2365    0.4635    0.3782    0.0273   5.0799e+010   4.1903e+009      0.1963   1648.9030      0.1481
              3     28      5    0.4635    1.0000    0.9326    0.0237   2.2001e+010   3.4378e+009      0.1752   1489.8127      0.3030

            panel:  1     
           lam_num    nPlies        tPly      fibAng     matID  matName
               (-)       (-)         (m)       (deg)       (-)  (-)
                 1         1    0.006094      0.0000         2  (blade-shell)
                 2         1    0.004018      0.0000         1  (blade-root)
                 3         1    0.000226      0.0000         5  (LEP-core)
                 4         1    0.004018      0.0000         1  (blade-root)
                 5         1    0.006094      0.0000         2  (blade-shell)

               lamina:  1     
              matName:  (blade-shell)
                     s           e11           e22           e12           s11           s22           s12   s11_fcT   s11_fcC   s22_fcT   s22_fcC   s12_fcS
                   (m)         (m/m)         (m/m)         (rad)          (Pa)          (Pa)          (Pa)       (-)       (-)       (-)       (-)       (-)
                0.0000   2.6146e-004  -4.8267e-005   4.0733e-003   4.9838e+006  -2.7882e+005   1.6089e+007    0.0148   -0.0000    0.0000    0.0008    0.1399
                0.0065   1.6090e-004  -3.0686e-005   4.0748e-003   3.0644e+006  -1.9080e+005   1.6096e+007    0.0091   -0.0000    0.0000    0.0006    0.1400
                0.0253  -2.5865e-004   3.7773e-005   4.0736e-003  -4.9555e+006   8.1013e+004   1.6091e+007    0.0000    0.0100    0.0002   -0.0000    0.1399
                0.0480  -6.9632e-004   1.1063e-004   4.0612e-003  -1.3318e+007   3.9265e+005   1.6042e+007    0.0000    0.0268    0.0012   -0.0000    0.1395
                0.0659  -1.0105e-003   1.6232e-004   4.0435e-003  -1.9323e+007   6.0459e+005   1.5972e+007    0.0000    0.0389    0.0018   -0.0000    0.1389
                0.0900  -1.3634e-003   2.2247e-004   4.0098e-003  -2.6062e+007   8.8332e+005   1.5839e+007    0.0000    0.0524    0.0026   -0.0000    0.1377
                0.1138  -1.6828e-003   2.7628e-004   3.9660e-003  -3.2164e+007   1.1233e+006   1.5666e+007    0.0000    0.0647    0.0033   -0.0000    0.1362
                0.1408  -1.9821e-003   3.2793e-004   3.9050e-003  -3.7878e+007   1.3722e+006   1.5425e+007    0.0000    0.0762    0.0041   -0.0000    0.1341
                0.1709  -2.3229e-003   3.8619e-004   3.8238e-003  -4.4385e+007   1.6447e+006   1.5104e+007    0.0000    0.0893    0.0049   -0.0000    0.1313
                0.2010  -2.5909e-003   4.3199e-004   3.7300e-003  -4.9503e+007   1.8587e+006   1.4734e+007    0.0000    0.0996    0.0055   -0.0000    0.1281
                0.2349  -2.8720e-003   4.8075e-004   3.6116e-003  -5.4870e+007   2.0973e+006   1.4266e+007    0.0000    0.1104    0.0062   -0.0000    0.1241
                0.2702  -3.1413e-003   5.2709e-004   3.4743e-003  -6.0011e+007   2.3188e+006   1.3723e+007    0.0000    0.1207    0.0069   -0.0000    0.1193
                0.3074  -3.3736e-003   5.6737e-004   3.3163e-003  -6.4446e+007   2.5156e+006   1.3100e+007    0.0000    0.1297    0.0075   -0.0000    0.1139
                0.3471  -3.6232e-003   6.1058e-004   3.1343e-003  -6.9211e+007   2.7257e+006   1.2380e+007    0.0000    0.1393    0.0081   -0.0000    0.1077
                0.3876  -3.8161e-003   6.4389e-004   2.9355e-003  -7.2894e+007   2.8864e+006   1.1595e+007    0.0000    0.1467    0.0086   -0.0000    0.1008
                0.4305  -3.9997e-003   6.7586e-004   2.7138e-003  -7.6399e+007   3.0446e+006   1.0719e+007    0.0000    0.1537    0.0090   -0.0000    0.0932
                0.4751  -4.1747e-003   7.0630e-004   2.4716e-003  -7.9739e+007   3.1950e+006   9.7630e+006    0.0000    0.1604    0.0095   -0.0000    0.0849
                0.4819  -4.1998e-003   7.1035e-004   2.4339e-003  -8.0218e+007   3.2104e+006   9.6138e+006    0.0000    0.1614    0.0095   -0.0000    0.0836

               lamina:  2     
              matName:  (blade-root)
                     s           e11           e22           e12           s11           s22           s12   s11_fcT   s11_fcC   s22_fcT   s22_fcC   s12_fcS
                   (m)         (m/m)         (m/m)         (rad)          (Pa)          (Pa)          (Pa)       (-)       (-)       (-)       (-)       (-)
                0.0000   3.2555e-004  -5.6982e-005   4.0733e-003   1.1699e+007   4.3126e+005   1.6782e+007    0.0116   -0.0000    0.0084   -0.0000    0.1498
                0.0065   2.2499e-004  -3.9402e-005   4.0748e-003   8.0853e+006   2.9786e+005   1.6788e+007    0.0080   -0.0000    0.0058   -0.0000    0.1499
                0.0253  -1.4437e-004   2.2231e-005   4.0736e-003  -5.1969e+006  -2.1723e+005   1.6783e+007    0.0000    0.0066    0.0000    0.0042    0.1499
                0.0480  -5.2587e-004   8.7446e-005   4.0612e-003  -1.8911e+007  -7.3594e+005   1.6732e+007    0.0000    0.0240    0.0000    0.0144    0.1494
                0.0659  -7.9048e-004   1.3240e-004   4.0435e-003  -2.8424e+007  -1.0981e+006   1.6659e+007    0.0000    0.0361    0.0000    0.0214    0.1487
                0.0900  -1.1197e-003   1.8932e-004   4.0098e-003  -4.0256e+007  -1.5401e+006   1.6520e+007    0.0000    0.0511    0.0000    0.0301    0.1475
                0.1138  -1.4079e-003   2.3890e-004   3.9660e-003  -5.0618e+007  -1.9295e+006   1.6340e+007    0.0000    0.0642    0.0000    0.0377    0.1459
                0.1408  -1.6969e-003   2.8915e-004   3.9050e-003  -6.1005e+007  -2.3152e+006   1.6088e+007    0.0000    0.0774    0.0000    0.0452    0.1436
                0.1709  -2.0175e-003   3.4466e-004   3.8238e-003  -7.2526e+007  -2.7450e+006   1.5754e+007    0.0000    0.0920    0.0000    0.0536    0.1407
                0.2010  -2.2693e-003   3.8825e-004   3.7300e-003  -8.1577e+007  -3.0827e+006   1.5368e+007    0.0000    0.1035    0.0000    0.0602    0.1372
                0.2349  -2.5446e-003   4.3622e-004   3.6116e-003  -9.1470e+007  -3.4492e+006   1.4880e+007    0.0000    0.1161    0.0000    0.0674    0.1329
                0.2702  -2.8026e-003   4.8104e-004   3.4743e-003  -1.0075e+008  -3.7940e+006   1.4314e+007    0.0000    0.1278    0.0000    0.0741    0.1278
                0.3074  -3.0298e-003   5.2061e-004   3.3163e-003  -1.0891e+008  -4.0965e+006   1.3663e+007    0.0000    0.1382    0.0000    0.0800    0.1220
                0.3471  -3.2729e-003   5.6294e-004   3.1343e-003  -1.1765e+008  -4.4204e+006   1.2913e+007    0.0000    0.1493    0.0000    0.0863    0.1153
                0.3876  -3.4593e-003   5.9537e-004   2.9355e-003  -1.2435e+008  -4.6693e+006   1.2094e+007    0.0000    0.1578    0.0000    0.0912    0.1080
                0.4305  -3.6409e-003   6.2706e-004   2.7138e-003  -1.3087e+008  -4.9106e+006   1.1181e+007    0.0000    0.1661    0.0000    0.0959    0.0998
                0.4751  -3.8138e-003   6.5722e-004   2.4716e-003  -1.3709e+008  -5.1404e+006   1.0183e+007    0.0000    0.1740    0.0000    0.1004    0.0909
                0.4819  -3.8337e-003   6.6056e-004   2.4339e-003  -1.3780e+008  -5.1679e+006   1.0028e+007    0.0000    0.1749    0.0000    0.1009    0.0895

               lamina:  3     
              matName:  (LEP-core)
                     s           e11           e22           e12           s11           s22           s12   s11_fcT   s11_fcC   s22_fcT   s22_fcC   s12_fcS
                   (m)         (m/m)         (m/m)         (rad)          (Pa)          (Pa)          (Pa)       (-)       (-)       (-)       (-)       (-)
                0.0000   3.2915e-004  -5.7472e-005   4.0733e-003   7.3099e+004   1.2054e+004   3.9918e+005    0.0170   -0.0000    0.0028   -0.0000    0.1353
                0.0065   2.2859e-004  -3.9891e-005   4.0748e-003   5.0767e+004   8.3760e+003   3.9933e+005    0.0118   -0.0000    0.0020   -0.0000    0.1354
                0.0253  -6.9023e-005   1.1984e-005   4.0736e-003  -1.5334e+004  -2.5436e+003   3.9922e+005    0.0000    0.0036    0.0000    0.0006    0.1353
                0.0480  -4.1348e-004   7.2162e-005   4.0612e-003  -9.1831e+004  -1.5150e+004   3.9800e+005    0.0000    0.0214    0.0000    0.0035    0.1349
                0.0659  -6.4541e-004   1.1267e-004   4.0435e-003  -1.4334e+005  -2.3640e+004   3.9627e+005    0.0000    0.0334    0.0000    0.0055    0.1343
                0.0900  -9.5896e-004   1.6747e-004   4.0098e-003  -2.1297e+005  -3.5111e+004   3.9296e+005    0.0000    0.0496    0.0000    0.0082    0.1332
                0.1138  -1.2267e-003   2.1425e-004   3.9660e-003  -2.7243e+005  -4.4908e+004   3.8867e+005    0.0000    0.0635    0.0000    0.0105    0.1318
                0.1408  -1.5089e-003   2.6359e-004   3.9050e-003  -3.3510e+005  -5.5231e+004   3.8269e+005    0.0000    0.0781    0.0000    0.0129    0.1297
                0.1709  -1.8161e-003   3.1728e-004   3.8238e-003  -4.0332e+005  -6.6469e+004   3.7473e+005    0.0000    0.0940    0.0000    0.0155    0.1270
                0.2010  -2.0573e-003   3.5942e-004   3.7300e-003  -4.5687e+005  -7.5290e+004   3.6554e+005    0.0000    0.1065    0.0000    0.0176    0.1239
                0.2349  -2.3287e-003   4.0686e-004   3.6116e-003  -5.1714e+005  -8.5216e+004   3.5394e+005    0.0000    0.1205    0.0000    0.0199    0.1200
                0.2702  -2.5794e-003   4.5068e-004   3.4743e-003  -5.7282e+005  -9.4387e+004   3.4048e+005    0.0000    0.1335    0.0000    0.0220    0.1154
                0.3074  -2.8031e-003   4.8979e-004   3.3163e-003  -6.2250e+005  -1.0257e+005   3.2500e+005    0.0000    0.1451    0.0000    0.0239    0.1102
                0.3471  -3.0419e-003   5.3153e-004   3.1343e-003  -6.7553e+005  -1.1130e+005   3.0716e+005    0.0000    0.1575    0.0000    0.0259    0.1041
                0.3876  -3.2241e-003   5.6337e-004   2.9355e-003  -7.1598e+005  -1.1797e+005   2.8768e+005    0.0000    0.1669    0.0000    0.0275    0.0975
                0.4305  -3.4044e-003   5.9489e-004   2.7138e-003  -7.5602e+005  -1.2456e+005   2.6595e+005    0.0000    0.1762    0.0000    0.0290    0.0902
                0.4751  -3.5758e-003   6.2486e-004   2.4716e-003  -7.9410e+005  -1.3083e+005   2.4222e+005    0.0000    0.1851    0.0000    0.0305    0.0821
                0.4819  -3.5923e-003   6.2774e-004   2.4339e-003  -7.9775e+005  -1.3143e+005   2.3852e+005    0.0000    0.1860    0.0000    0.0306    0.0809

               lamina:  4     
              matName:  (blade-root)
                     s           e11           e22           e12           s11           s22           s12   s11_fcT   s11_fcC   s22_fcT   s22_fcC   s12_fcS
                   (m)         (m/m)         (m/m)         (rad)          (Pa)          (Pa)          (Pa)       (-)       (-)       (-)       (-)       (-)
                0.0000   3.9324e-004  -6.6187e-005   4.0733e-003   1.4139e+007   5.4352e+005   1.6782e+007    0.0141   -0.0000    0.0106   -0.0000    0.1498
                0.0065   2.9267e-004  -4.8607e-005   4.0748e-003   1.0525e+007   4.1012e+005   1.6788e+007    0.0105   -0.0000    0.0080   -0.0000    0.1499
                0.0253  -6.4791e-005   1.1409e-005   4.0736e-003  -2.3282e+006  -8.5247e+004   1.6783e+007    0.0000    0.0030    0.0000    0.0017    0.1499
                0.0480  -4.0717e-004   7.1304e-005   4.0612e-003  -1.4632e+007  -5.3909e+005   1.6732e+007    0.0000    0.0186    0.0000    0.0105    0.1494
                0.0659  -6.3726e-004   1.1156e-004   4.0435e-003  -2.2901e+007  -8.4401e+005   1.6659e+007    0.0000    0.0291    0.0000    0.0165    0.1487
                0.0900  -9.4994e-004   1.6624e-004   4.0098e-003  -3.4138e+007  -1.2586e+006   1.6520e+007    0.0000    0.0433    0.0000    0.0246    0.1475
                0.1138  -1.2165e-003   2.1287e-004   3.9660e-003  -4.3718e+007  -1.6121e+006   1.6340e+007    0.0000    0.0555    0.0000    0.0315    0.1459
                0.1408  -1.4984e-003   2.6215e-004   3.9050e-003  -5.3848e+007  -1.9859e+006   1.6088e+007    0.0000    0.0683    0.0000    0.0388    0.1436
                0.1709  -1.8048e-003   3.1574e-004   3.8238e-003  -6.4861e+007  -2.3923e+006   1.5754e+007    0.0000    0.0823    0.0000    0.0467    0.1407
                0.2010  -2.0454e-003   3.5780e-004   3.7300e-003  -7.3505e+007  -2.7113e+006   1.5368e+007    0.0000    0.0933    0.0000    0.0530    0.1372
                0.2349  -2.3165e-003   4.0521e-004   3.6116e-003  -8.3250e+007  -3.0710e+006   1.4880e+007    0.0000    0.1056    0.0000    0.0600    0.1329
                0.2702  -2.5668e-003   4.4898e-004   3.4743e-003  -9.2246e+007  -3.4030e+006   1.4314e+007    0.0000    0.1171    0.0000    0.0665    0.1278
                0.3074  -2.7904e-003   4.8806e-004   3.3163e-003  -1.0028e+008  -3.6995e+006   1.3663e+007    0.0000    0.1273    0.0000    0.0723    0.1220
                0.3471  -3.0289e-003   5.2976e-004   3.1343e-003  -1.0885e+008  -4.0159e+006   1.2913e+007    0.0000    0.1381    0.0000    0.0784    0.1153
                0.3876  -3.2109e-003   5.6158e-004   2.9355e-003  -1.1539e+008  -4.2572e+006   1.2094e+007    0.0000    0.1464    0.0000    0.0831    0.1080
                0.4305  -3.3911e-003   5.9308e-004   2.7138e-003  -1.2187e+008  -4.4962e+006   1.1181e+007    0.0000    0.1547    0.0000    0.0878    0.0998
                0.4751  -3.5625e-003   6.2305e-004   2.4716e-003  -1.2803e+008  -4.7236e+006   1.0183e+007    0.0000    0.1625    0.0000    0.0923    0.0909
                0.4819  -3.5787e-003   6.2589e-004   2.4339e-003  -1.2861e+008  -4.7451e+006   1.0028e+007    0.0000    0.1632    0.0000    0.0927    0.0895

               lamina:  5     
              matName:  (blade-shell)
                     s           e11           e22           e12           s11           s22           s12   s11_fcT   s11_fcC   s22_fcT   s22_fcC   s12_fcS
                   (m)         (m/m)         (m/m)         (rad)          (Pa)          (Pa)          (Pa)       (-)       (-)       (-)       (-)       (-)
                0.0000   4.9044e-004  -7.9406e-005   4.0733e-003   9.3767e+006  -3.0563e+005   1.6089e+007    0.0278   -0.0000    0.0000    0.0009    0.1399
                0.0065   3.8988e-004  -6.1826e-005   4.0748e-003   7.4573e+006  -2.1760e+005   1.6096e+007    0.0221   -0.0000    0.0000    0.0006    0.1400
                0.0253   1.2484e-004  -1.4379e-005   4.0736e-003   2.4015e+006   4.9496e+004   1.6091e+007    0.0071   -0.0000    0.0001   -0.0000    0.1399
                0.0480  -2.9479e-004   5.6020e-005   4.0612e-003  -5.6149e+006   3.4564e+005   1.6042e+007    0.0000    0.0113    0.0010   -0.0000    0.1395
                0.0659  -4.9220e-004   9.1836e-005   4.0435e-003  -9.3796e+006   5.4391e+005   1.5972e+007    0.0000    0.0189    0.0016   -0.0000    0.1389
                0.0900  -7.8924e-004   1.4439e-004   4.0098e-003  -1.5047e+007   8.1611e+005   1.5839e+007    0.0000    0.0303    0.0024   -0.0000    0.1377
                0.1138  -1.0353e-003   1.8822e-004   3.9660e-003  -1.9741e+007   1.0475e+006   1.5666e+007    0.0000    0.0397    0.0031   -0.0000    0.1362
                0.1408  -1.3104e-003   2.3658e-004   3.9050e-003  -2.4991e+007   1.2936e+006   1.5425e+007    0.0000    0.0503    0.0038   -0.0000    0.1341
                0.1709  -1.6035e-003   2.8836e-004   3.8238e-003  -3.0584e+007   1.5605e+006   1.5104e+007    0.0000    0.0615    0.0046   -0.0000    0.1313
                0.2010  -1.8333e-003   3.2897e-004   3.7300e-003  -3.4970e+007   1.7700e+006   1.4734e+007    0.0000    0.0704    0.0053   -0.0000    0.1281
                0.2349  -2.1006e-003   3.7585e-004   3.6116e-003  -4.0071e+007   2.0070e+006   1.4266e+007    0.0000    0.0806    0.0060   -0.0000    0.1241
                0.2702  -2.3436e-003   4.1861e-004   3.4743e-003  -4.4707e+007   2.2254e+006   1.3723e+007    0.0000    0.0900    0.0066   -0.0000    0.1193
                0.3074  -2.5637e-003   4.5723e-004   3.3163e-003  -4.8908e+007   2.4207e+006   1.3100e+007    0.0000    0.0984    0.0072   -0.0000    0.1139
                0.3471  -2.7979e-003   4.9835e-004   3.1343e-003  -5.3379e+007   2.6291e+006   1.2380e+007    0.0000    0.1074    0.0078   -0.0000    0.1077
                0.3876  -2.9756e-003   5.2958e-004   2.9355e-003  -5.6769e+007   2.7880e+006   1.1595e+007    0.0000    0.1142    0.0083   -0.0000    0.1008
                0.4305  -3.1545e-003   5.6091e-004   2.7138e-003  -6.0183e+007   2.9456e+006   1.0719e+007    0.0000    0.1211    0.0087   -0.0000    0.0932
                0.4751  -3.3245e-003   5.9069e-004   2.4716e-003  -6.3428e+007   3.0955e+006   9.7630e+006    0.0000    0.1276    0.0092   -0.0000    0.0849
                0.4819  -3.3373e-003   5.9307e-004   2.4339e-003  -6.3673e+007   3.1094e+006   9.6138e+006    0.0000    0.1281    0.0092   -0.0000    0.0836

            panel:  2     
           lam_num    nPlies        tPly      fibAng     matID  matName
               (-)       (-)         (m)       (deg)       (-)  (-)
                 1         1    0.006094      0.0000         2  (blade-shell)
                 2         1    0.004018      0.0000         1  (blade-root)
                 3         1    0.003510      0.0000         3  (spar-uni)
                 4         1    0.000038      0.0000         4  (spar-core)
                 5         1    0.003510      0.0000         3  (spar-uni)
                 6         1    0.004018      0.0000         1  (blade-root)
                 7         1    0.006094      0.0000         2  (blade-shell)

               lamina:  1     
              matName:  (blade-shell)
                     s           e11           e22           e12           s11           s22           s12   s11_fcT   s11_fcC   s22_fcT   s22_fcC   s12_fcS
                   (m)         (m/m)         (m/m)         (rad)          (Pa)          (Pa)          (Pa)       (-)       (-)       (-)       (-)       (-)
                0.0000  -4.9394e-003   8.9893e-004   2.7880e-003  -9.4185e+007   5.0155e+006   1.1013e+007    0.0000    0.1895    0.0149   -0.0000    0.0958
                0.0383  -5.0343e-003   9.1755e-004   2.3856e-003  -9.5990e+007   5.1383e+006   9.4229e+006    0.0000    0.1931    0.0152   -0.0000    0.0819
                0.0853  -5.1573e-003   9.4138e-004   1.8783e-003  -9.8332e+007   5.2912e+006   7.4192e+006    0.0000    0.1979    0.0157   -0.0000    0.0645
                0.1330  -5.2320e-003   9.5565e-004   1.3520e-003  -9.9754e+007   5.3805e+006   5.3404e+006    0.0000    0.2007    0.0160   -0.0000    0.0464
                0.1822  -5.2647e-003   9.6199e-004   8.0323e-004  -1.0038e+008   5.4211e+006   3.1728e+006    0.0000    0.2020    0.0161   -0.0000    0.0276
                0.2320  -5.2974e-003   9.6836e-004   2.4405e-004  -1.0100e+008   5.4625e+006   9.6400e+005    0.0000    0.2032    0.0162   -0.0000    0.0084
                0.2827  -5.2410e-003   9.5745e-004   3.2162e-004  -9.9927e+007   5.3926e+006   1.2704e+006    0.0000    0.2011    0.0160   -0.0000    0.0110
                0.3345  -5.1805e-003   9.4565e-004   8.9068e-004  -9.8774e+007   5.3159e+006   3.5182e+006    0.0000    0.1987    0.0158   -0.0000    0.0306
                0.3782  -5.1094e-003   9.3179e-004   1.3617e-003  -9.7420e+007   5.2257e+006   5.3786e+006    0.0000    0.1960    0.0155   -0.0000    0.0468

               lamina:  2     
              matName:  (blade-root)
                     s           e11           e22           e12           s11           s22           s12   s11_fcT   s11_fcC   s22_fcT   s22_fcC   s12_fcS
                   (m)         (m/m)         (m/m)         (rad)          (Pa)          (Pa)          (Pa)       (-)       (-)       (-)       (-)       (-)
                0.0000  -4.3103e-003   8.0697e-004   2.7880e-003  -1.5475e+008  -5.2608e+006   1.1487e+007    0.0000    0.1964    0.0000    0.1028    0.1026
                0.0383  -4.4051e-003   8.2559e-004   2.3856e-003  -1.5815e+008  -5.3692e+006   9.8285e+006    0.0000    0.2007    0.0000    0.1049    0.0878
                0.0853  -4.5252e-003   8.4898e-004   1.8783e-003  -1.6246e+008  -5.5081e+006   7.7385e+006    0.0000    0.2062    0.0000    0.1076    0.0691
                0.1330  -4.5965e-003   8.6277e-004   1.3520e-003  -1.6502e+008  -5.5914e+006   5.5703e+006    0.0000    0.2094    0.0000    0.1092    0.0497
                0.1822  -4.6285e-003   8.6899e-004   8.0323e-004  -1.6617e+008  -5.6283e+006   3.3093e+006    0.0000    0.2109    0.0000    0.1099    0.0295
                0.2320  -4.6607e-003   8.7530e-004   2.4405e-004  -1.6733e+008  -5.6654e+006   1.0055e+006    0.0000    0.2123    0.0000    0.1107    0.0090
                0.2827  -4.6058e-003   8.6460e-004   3.2162e-004  -1.6535e+008  -5.6019e+006   1.3251e+006    0.0000    0.2098    0.0000    0.1094    0.0118
                0.3345  -4.5460e-003   8.5290e-004   8.9068e-004  -1.6321e+008  -5.5331e+006   3.6696e+006    0.0000    0.2071    0.0000    0.1081    0.0328
                0.3782  -4.4757e-003   8.3917e-004   1.3617e-003  -1.6069e+008  -5.4524e+006   5.6100e+006    0.0000    0.2039    0.0000    0.1065    0.0501

               lamina:  3     
              matName:  (spar-uni)
                     s           e11           e22           e12           s11           s22           s12   s11_fcT   s11_fcC   s22_fcT   s22_fcC   s12_fcS
                   (m)         (m/m)         (m/m)         (rad)          (Pa)          (Pa)          (Pa)       (-)       (-)       (-)       (-)       (-)
                0.0000  -3.8954e-003   7.4634e-004   2.7880e-003  -4.8032e+008  -3.8066e+006   1.3132e+007    0.0000    0.4803    0.0000    0.0635    0.1275
                0.0383  -3.9903e-003   7.6495e-004   2.3856e-003  -4.9201e+008  -3.8956e+006   1.1236e+007    0.0000    0.4920    0.0000    0.0650    0.1091
                0.0853  -4.1085e-003   7.8807e-004   1.8783e-003  -5.0658e+008  -4.0073e+006   8.8467e+006    0.0000    0.5066    0.0000    0.0669    0.0859
                0.1330  -4.1776e-003   8.0153e-004   1.3520e-003  -5.1510e+008  -4.0729e+006   6.3679e+006    0.0000    0.5151    0.0000    0.0680    0.0618
                0.1822  -4.2090e-003   8.0768e-004   8.0323e-004  -5.1898e+008  -4.1026e+006   3.7832e+006    0.0000    0.5190    0.0000    0.0685    0.0367
                0.2320  -4.2410e-003   8.1394e-004   2.4405e-004  -5.2292e+008  -4.1327e+006   1.1495e+006    0.0000    0.5229    0.0000    0.0690    0.0112
                0.2827  -4.1870e-003   8.0338e-004   3.2162e-004  -5.1626e+008  -4.0817e+006   1.5148e+006    0.0000    0.5163    0.0000    0.0681    0.0147
                0.3345  -4.1276e-003   7.9175e-004   8.9068e-004  -5.0894e+008  -4.0258e+006   4.1951e+006    0.0000    0.5089    0.0000    0.0672    0.0407
                0.3782  -4.0580e-003   7.7810e-004   1.3617e-003  -5.0036e+008  -3.9602e+006   6.4134e+006    0.0000    0.5004    0.0000    0.0661    0.0623

               lamina:  4     
              matName:  (spar-core)
                     s           e11           e22           e12           s11           s22           s12   s11_fcT   s11_fcC   s22_fcT   s22_fcC   s12_fcS
                   (m)         (m/m)         (m/m)         (rad)          (Pa)          (Pa)          (Pa)       (-)       (-)       (-)       (-)       (-)
                0.0000  -3.5330e-003   6.9336e-004   2.7880e-003  -7.7868e+005  -1.1136e+005   2.7323e+005    0.0000    0.1815    0.0000    0.0260    0.0926
                0.0383  -3.6278e-003   7.1197e-004   2.3856e-003  -7.9958e+005  -1.1435e+005   2.3378e+005    0.0000    0.1864    0.0000    0.0267    0.0792
                0.0853  -3.7443e-003   7.3484e-004   1.8783e-003  -8.2526e+005  -1.1802e+005   1.8407e+005    0.0000    0.1924    0.0000    0.0275    0.0624
                0.1330  -3.8115e-003   7.4802e-004   1.3520e-003  -8.4006e+005  -1.2014e+005   1.3250e+005    0.0000    0.1958    0.0000    0.0280    0.0449
                0.1822  -3.8425e-003   7.5410e-004   8.0323e-004  -8.4689e+005  -1.2111e+005   7.8717e+004    0.0000    0.1974    0.0000    0.0282    0.0267
                0.2320  -3.8742e-003   7.6033e-004   2.4405e-004  -8.5389e+005  -1.2211e+005   2.3917e+004    0.0000    0.1990    0.0000    0.0285    0.0081
                0.2827  -3.8210e-003   7.4989e-004   3.2162e-004  -8.4216e+005  -1.2043e+005   3.1519e+004    0.0000    0.1963    0.0000    0.0281    0.0107
                0.3345  -3.7621e-003   7.3832e-004   8.9068e-004  -8.2917e+005  -1.1858e+005   8.7287e+004    0.0000    0.1933    0.0000    0.0276    0.0296
                0.3782  -3.6929e-003   7.2475e-004   1.3617e-003  -8.1393e+005  -1.1640e+005   1.3344e+005    0.0000    0.1897    0.0000    0.0271    0.0452

               lamina:  5     
              matName:  (spar-uni)
                     s           e11           e22           e12           s11           s22           s12   s11_fcT   s11_fcC   s22_fcT   s22_fcC   s12_fcS
                   (m)         (m/m)         (m/m)         (rad)          (Pa)          (Pa)          (Pa)       (-)       (-)       (-)       (-)       (-)
                0.0000  -3.5291e-003   6.9279e-004   2.7880e-003  -4.3511e+008  -3.3113e+006   1.3132e+007    0.0000    0.4351    0.0000    0.0553    0.1275
                0.0383  -3.6240e-003   7.1141e-004   2.3856e-003  -4.4680e+008  -3.4004e+006   1.1236e+007    0.0000    0.4468    0.0000    0.0568    0.1091
                0.0853  -3.7404e-003   7.3427e-004   1.8783e-003  -4.6116e+008  -3.5097e+006   8.8467e+006    0.0000    0.4612    0.0000    0.0586    0.0859
                0.1330  -3.8076e-003   7.4745e-004   1.3520e-003  -4.6944e+008  -3.5727e+006   6.3679e+006    0.0000    0.4694    0.0000    0.0596    0.0618
                0.1822  -3.8386e-003   7.5353e-004   8.0323e-004  -4.7326e+008  -3.6018e+006   3.7832e+006    0.0000    0.4733    0.0000    0.0601    0.0367
                0.2320  -3.8703e-003   7.5976e-004   2.4405e-004  -4.7717e+008  -3.6316e+006   1.1495e+006    0.0000    0.4772    0.0000    0.0606    0.0112
                0.2827  -3.8171e-003   7.4931e-004   3.2162e-004  -4.7061e+008  -3.5816e+006   1.5148e+006    0.0000    0.4706    0.0000    0.0598    0.0147
                0.3345  -3.7582e-003   7.3775e-004   8.9068e-004  -4.6335e+008  -3.5263e+006   4.1951e+006    0.0000    0.4633    0.0000    0.0589    0.0407
                0.3782  -3.6890e-003   7.2418e-004   1.3617e-003  -4.5482e+008  -3.4614e+006   6.4134e+006    0.0000    0.4548    0.0000    0.0578    0.0623

               lamina:  6     
              matName:  (blade-root)
                     s           e11           e22           e12           s11           s22           s12   s11_fcT   s11_fcC   s22_fcT   s22_fcC   s12_fcS
                   (m)         (m/m)         (m/m)         (rad)          (Pa)          (Pa)          (Pa)       (-)       (-)       (-)       (-)       (-)
                0.0000  -3.1667e-003   6.3981e-004   2.7880e-003  -1.1356e+008  -3.4637e+006   1.1487e+007    0.0000    0.1441    0.0000    0.0677    0.1026
                0.0383  -3.2615e-003   6.5843e-004   2.3856e-003  -1.1696e+008  -3.5722e+006   9.8285e+006    0.0000    0.1484    0.0000    0.0698    0.0878
                0.0853  -3.3763e-003   6.8104e-004   1.8783e-003  -1.2108e+008  -3.7027e+006   7.7385e+006    0.0000    0.1537    0.0000    0.0723    0.0691
                0.1330  -3.4415e-003   6.9394e-004   1.3520e-003  -1.2342e+008  -3.7764e+006   5.5703e+006    0.0000    0.1566    0.0000    0.0738    0.0497
                0.1822  -3.4721e-003   6.9996e-004   8.0323e-004  -1.2452e+008  -3.8111e+006   3.3093e+006    0.0000    0.1580    0.0000    0.0744    0.0295
                0.2320  -3.5036e-003   7.0615e-004   2.4405e-004  -1.2565e+008  -3.8470e+006   1.0055e+006    0.0000    0.1594    0.0000    0.0751    0.0090
                0.2827  -3.4511e-003   6.9582e-004   3.2162e-004  -1.2377e+008  -3.7874e+006   1.3251e+006    0.0000    0.1571    0.0000    0.0740    0.0118
                0.3345  -3.3927e-003   6.8432e-004   8.9068e-004  -1.2167e+008  -3.7208e+006   3.6696e+006    0.0000    0.1544    0.0000    0.0727    0.0328
                0.3782  -3.3240e-003   6.7082e-004   1.3617e-003  -1.1920e+008  -3.6425e+006   5.6100e+006    0.0000    0.1513    0.0000    0.0711    0.0501

               lamina:  7     
              matName:  (blade-shell)
                     s           e11           e22           e12           s11           s22           s12   s11_fcT   s11_fcC   s22_fcT   s22_fcC   s12_fcS
                   (m)         (m/m)         (m/m)         (rad)          (Pa)          (Pa)          (Pa)       (-)       (-)       (-)       (-)       (-)
                0.0000  -2.7519e-003   5.7918e-004   2.7880e-003  -5.2273e+007   4.3246e+006   1.1013e+007    0.0000    0.1052    0.0128   -0.0000    0.0958
                0.0383  -2.8467e-003   5.9779e-004   2.3856e-003  -5.4078e+007   4.4474e+006   9.4229e+006    0.0000    0.1088    0.0132   -0.0000    0.0819
                0.0853  -2.9596e-003   6.2013e-004   1.8783e-003  -5.6226e+007   4.5971e+006   7.4192e+006    0.0000    0.1131    0.0136   -0.0000    0.0645
                0.1330  -3.0226e-003   6.3270e-004   1.3520e-003  -5.7424e+007   4.6827e+006   5.3404e+006    0.0000    0.1155    0.0139   -0.0000    0.0464
                0.1822  -3.0526e-003   6.3864e-004   8.0323e-004  -5.7996e+007   4.7225e+006   3.1728e+006    0.0000    0.1167    0.0140   -0.0000    0.0276
                0.2320  -3.0838e-003   6.4479e-004   2.4405e-004  -5.8590e+007   4.7634e+006   9.6400e+005    0.0000    0.1179    0.0141   -0.0000    0.0084
                0.2827  -3.0323e-003   6.3460e-004   3.2162e-004  -5.7610e+007   4.6951e+006   1.2704e+006    0.0000    0.1159    0.0139   -0.0000    0.0110
                0.3345  -2.9743e-003   6.2317e-004   8.9068e-004  -5.6507e+007   4.6191e+006   3.5182e+006    0.0000    0.1137    0.0137   -0.0000    0.0306
                0.3782  -2.9062e-003   6.0976e-004   1.3617e-003  -5.5211e+007   4.5299e+006   5.3786e+006    0.0000    0.1111    0.0134   -0.0000    0.0468

            panel:  3     
           lam_num    nPlies        tPly      fibAng     matID  matName
               (-)       (-)         (m)       (deg)       (-)  (-)
                 1         1    0.006094      0.0000         2  (blade-shell)
                 2         1    0.004018      0.0000         1  (blade-root)
                 3         1    0.003510      0.0000         6  (TEP-core)
                 4         1    0.004018      0.0000         1  (blade-root)
                 5         1    0.006094      0.0000         2  (blade-shell)

               lamina:  1     
              matName:  (blade-shell)
                     s           e11           e22           e12           s11           s22           s12   s11_fcT   s11_fcC   s22_fcT   s22_fcC   s12_fcS
                   (m)         (m/m)         (m/m)         (rad)          (Pa)          (Pa)          (Pa)       (-)       (-)       (-)       (-)       (-)
                0.0000  -4.3182e-003   7.3581e-004   1.9185e-004  -8.2467e+007   3.4068e+006   7.5783e+005    0.0000    0.1659    0.0101   -0.0000    0.0066
                0.0080  -4.3020e-003   7.3310e-004   2.3734e-004  -8.2157e+007   3.3951e+006   9.3751e+005    0.0000    0.1653    0.0101   -0.0000    0.0082
                0.0611  -4.1671e-003   7.0948e-004   5.3137e-004  -7.9582e+007   3.2765e+006   2.0989e+006    0.0000    0.1601    0.0097   -0.0000    0.0183
                0.1140  -4.0311e-003   6.8574e-004   8.1294e-004  -7.6987e+007   3.1580e+006   3.2111e+006    0.0000    0.1549    0.0094   -0.0000    0.0279
                0.1670  -3.8552e-003   6.5505e-004   1.0819e-003  -7.3628e+007   3.0052e+006   4.2736e+006    0.0000    0.1481    0.0089   -0.0000    0.0372
                0.2200  -3.6640e-003   6.2162e-004   1.3359e-003  -6.9981e+007   2.8375e+006   5.2768e+006    0.0000    0.1408    0.0084   -0.0000    0.0459
                0.2723  -3.4718e-003   5.8804e-004   1.5705e-003  -6.6311e+007   2.6700e+006   6.2034e+006    0.0000    0.1334    0.0079   -0.0000    0.0539
                0.3243  -3.2433e-003   5.4814e-004   1.7869e-003  -6.1951e+007   2.4707e+006   7.0582e+006    0.0000    0.1246    0.0073   -0.0000    0.0614
                0.3755  -3.0212e-003   5.0925e-004   1.9816e-003  -5.7711e+007   2.2753e+006   7.8274e+006    0.0000    0.1161    0.0068   -0.0000    0.0681
                0.4255  -2.7929e-003   4.6935e-004   2.1542e-003  -5.3355e+007   2.0754e+006   8.5089e+006    0.0000    0.1074    0.0062   -0.0000    0.0740
                0.4743  -2.5577e-003   4.2820e-004   2.3051e-003  -4.8866e+007   1.8688e+006   9.1050e+006    0.0000    0.0983    0.0055   -0.0000    0.0792
                0.5216  -2.3308e-003   3.8847e-004   2.4338e-003  -4.4534e+007   1.6692e+006   9.6135e+006    0.0000    0.0896    0.0050   -0.0000    0.0836
                0.5671  -2.1027e-003   3.4857e-004   2.5417e-003  -4.0182e+007   1.4688e+006   1.0040e+007    0.0000    0.0808    0.0044   -0.0000    0.0873
                0.6107  -1.8830e-003   3.1008e-004   2.6297e-003  -3.5988e+007   1.2751e+006   1.0388e+007    0.0000    0.0724    0.0038   -0.0000    0.0903
                0.6521  -1.6731e-003   2.7333e-004   2.6994e-003  -3.1981e+007   1.0904e+006   1.0662e+007    0.0000    0.0643    0.0032   -0.0000    0.0927
                0.6912  -1.4699e-003   2.3776e-004   2.7525e-003  -2.8104e+007   9.1151e+005   1.0872e+007    0.0000    0.0565    0.0027   -0.0000    0.0945
                0.7278  -1.2800e-003   2.0450e-004   2.7909e-003  -2.4478e+007   7.4423e+005   1.1024e+007    0.0000    0.0493    0.0022   -0.0000    0.0959
                0.7617  -1.0995e-003   1.7292e-004   2.8168e-003  -2.1034e+007   5.8575e+005   1.1126e+007    0.0000    0.0423    0.0017   -0.0000    0.0968
                0.7929  -9.3089e-004   1.4341e-004   2.8320e-003  -1.7816e+007   4.3737e+005   1.1186e+007    0.0000    0.0358    0.0013   -0.0000    0.0973
                0.8211  -7.7666e-004   1.1649e-004   2.8387e-003  -1.4873e+007   3.0315e+005   1.1213e+007    0.0000    0.0299    0.0009   -0.0000    0.0975
                0.8464  -6.2532e-004   9.0101e-005   2.8388e-003  -1.1984e+007   1.7205e+005   1.1213e+007    0.0000    0.0241    0.0005   -0.0000    0.0975
                0.8686  -4.9163e-004   6.6784e-005   2.8340e-003  -9.4320e+006   5.6089e+004   1.1194e+007    0.0000    0.0190    0.0002   -0.0000    0.0973
                0.8873  -3.6296e-004   4.4641e-005   2.8264e-003  -6.9753e+006  -1.0716e+005   1.1164e+007    0.0000    0.0140    0.0000    0.0003    0.0971
                0.9033  -2.3467e-004   2.2535e-005   2.8169e-003  -4.5259e+006  -2.1205e+005   1.1127e+007    0.0000    0.0091    0.0000    0.0006    0.0968
                0.9147   1.4117e-004  -3.3137e-005   2.8084e-003   2.6729e+006  -2.8876e+005   1.1093e+007    0.0079   -0.0000    0.0000    0.0009    0.0965
                0.9234   2.7430e-004  -5.5176e-005   2.8007e-003   5.2170e+006  -3.8117e+005   1.1063e+007    0.0155   -0.0000    0.0000    0.0011    0.0962
                0.9301   3.7501e-004  -7.2221e-005   2.7938e-003   7.1407e+006  -4.5836e+005   1.1036e+007    0.0212   -0.0000    0.0000    0.0014    0.0960
                0.9326   4.0663e-004  -7.7761e-005   2.7910e-003   7.7441e+006  -4.8628e+005   1.1024e+007    0.0230   -0.0000    0.0000    0.0014    0.0959

               lamina:  2     
              matName:  (blade-root)
                     s           e11           e22           e12           s11           s22           s12   s11_fcT   s11_fcC   s22_fcT   s22_fcC   s12_fcS
                   (m)         (m/m)         (m/m)         (rad)          (Pa)          (Pa)          (Pa)       (-)       (-)       (-)       (-)       (-)
                0.0000  -4.0107e-003   6.9261e-004   1.9185e-004  -1.4416e+008  -5.3935e+006   7.9044e+005    0.0000    0.1829    0.0000    0.1053    0.0071
                0.0080  -3.9965e-003   6.9017e-004   2.3734e-004  -1.4365e+008  -5.3741e+006   9.7786e+005    0.0000    0.1823    0.0000    0.1050    0.0087
                0.0611  -3.8619e-003   6.6661e-004   5.3137e-004  -1.3881e+008  -5.1959e+006   2.1892e+006    0.0000    0.1762    0.0000    0.1015    0.0195
                0.1140  -3.7271e-003   6.4304e-004   8.1294e-004  -1.3397e+008  -5.0173e+006   3.3493e+006    0.0000    0.1700    0.0000    0.0980    0.0299
                0.1670  -3.5532e-003   6.1262e-004   1.0819e-003  -1.2772e+008  -4.7865e+006   4.4576e+006    0.0000    0.1621    0.0000    0.0935    0.0398
                0.2200  -3.3629e-003   5.7930e-004   1.3359e-003  -1.2088e+008  -4.5345e+006   5.5039e+006    0.0000    0.1534    0.0000    0.0886    0.0491
                0.2723  -3.1723e-003   5.4597e-004   1.5705e-003  -1.1403e+008  -4.2818e+006   6.4704e+006    0.0000    0.1447    0.0000    0.0836    0.0578
                0.3243  -2.9457e-003   5.0632e-004   1.7869e-003  -1.0589e+008  -3.9814e+006   7.3619e+006    0.0000    0.1344    0.0000    0.0778    0.0657
                0.3755  -2.7240e-003   4.6750e-004   1.9816e-003  -9.7920e+007  -3.6880e+006   8.1642e+006    0.0000    0.1243    0.0000    0.0720    0.0729
                0.4255  -2.4971e-003   4.2778e-004   2.1542e-003  -8.9764e+007  -3.3874e+006   8.8751e+006    0.0000    0.1139    0.0000    0.0662    0.0792
                0.4743  -2.2627e-003   3.8674e-004   2.3051e-003  -8.1341e+007  -3.0770e+006   9.4968e+006    0.0000    0.1032    0.0000    0.0601    0.0848
                0.5216  -2.0363e-003   3.4710e-004   2.4338e-003  -7.3205e+007  -2.7773e+006   1.0027e+007    0.0000    0.0929    0.0000    0.0542    0.0895
                0.5671  -1.8090e-003   3.0730e-004   2.5417e-003  -6.5037e+007  -2.4763e+006   1.0472e+007    0.0000    0.0825    0.0000    0.0484    0.0935
                0.6107  -1.5895e-003   2.6885e-004   2.6297e-003  -5.7149e+007  -2.1858e+006   1.0835e+007    0.0000    0.0725    0.0000    0.0427    0.0967
                0.6521  -1.3800e-003   2.3216e-004   2.6994e-003  -4.9621e+007  -1.9085e+006   1.1121e+007    0.0000    0.0630    0.0000    0.0373    0.0993
                0.6912  -1.1773e-003   1.9664e-004   2.7525e-003  -4.2334e+007  -1.6400e+006   1.1340e+007    0.0000    0.0537    0.0000    0.0320    0.1013
                0.7278  -9.8765e-004   1.6343e-004   2.7909e-003  -3.5520e+007  -1.3890e+006   1.1499e+007    0.0000    0.0451    0.0000    0.0271    0.1027
                0.7617  -8.0782e-004   1.3195e-004   2.8168e-003  -2.9058e+007  -1.1509e+006   1.1605e+007    0.0000    0.0369    0.0000    0.0225    0.1036
                0.7929  -6.3959e-004   1.0248e-004   2.8320e-003  -2.3012e+007  -9.2821e+005   1.1668e+007    0.0000    0.0292    0.0000    0.0181    0.1042
                0.8211  -4.8685e-004   7.5771e-005   2.8387e-003  -1.7523e+007  -7.2568e+005   1.1695e+007    0.0000    0.0222    0.0000    0.0142    0.1044
                0.8464  -3.3742e-004   4.9652e-005   2.8388e-003  -1.2153e+007  -5.2741e+005   1.1696e+007    0.0000    0.0154    0.0000    0.0103    0.1044
                0.8686  -2.0531e-004   2.6556e-005   2.8340e-003  -7.4046e+006  -3.5215e+005   1.1676e+007    0.0000    0.0094    0.0000    0.0069    0.1043
                0.8873   1.0228e-004  -2.0724e-005   2.8264e-003   3.6677e+006  -1.8809e+005   1.1645e+007    0.0036   -0.0000    0.0000    0.0037    0.1040
                0.9033   2.2146e-004  -4.1550e-005   2.8169e-003   7.9507e+006   2.6954e+005   1.1606e+007    0.0079   -0.0000    0.0053   -0.0000    0.1036
                0.9147   3.0965e-004  -5.6809e-005   2.8084e-003   1.1121e+007   3.8789e+005   1.1571e+007    0.0111   -0.0000    0.0076   -0.0000    0.1033
                0.9234   4.1698e-004  -7.5223e-005   2.8007e-003   1.4979e+007   5.3326e+005   1.1539e+007    0.0149   -0.0000    0.0104   -0.0000    0.1030
                0.9301   5.0565e-004  -9.0575e-005   2.7938e-003   1.8166e+007   6.5215e+005   1.1510e+007    0.0181   -0.0000    0.0127   -0.0000    0.1028
                0.9326   5.3726e-004  -9.6115e-005   2.7910e-003   1.9302e+007   6.9398e+005   1.1499e+007    0.0192   -0.0000    0.0136   -0.0000    0.1027

               lamina:  3     
              matName:  (TEP-core)
                     s           e11           e22           e12           s11           s22           s12   s11_fcT   s11_fcC   s22_fcT   s22_fcC   s12_fcS
                   (m)         (m/m)         (m/m)         (rad)          (Pa)          (Pa)          (Pa)       (-)       (-)       (-)       (-)       (-)
                0.0000  -3.8080e-003   6.6413e-004   1.9185e-004  -8.4576e+005  -1.3964e+005   1.8802e+004    0.0000    0.1971    0.0000    0.0325    0.0064
                0.0080  -3.7950e-003   6.6187e-004   2.3734e-004  -8.4287e+005  -1.3916e+005   2.3260e+004    0.0000    0.1965    0.0000    0.0324    0.0079
                0.0611  -3.6607e-003   6.3835e-004   5.3137e-004  -8.1306e+005  -1.3426e+005   5.2074e+004    0.0000    0.1895    0.0000    0.0313    0.0177
                0.1140  -3.5267e-003   6.1488e-004   8.1294e-004  -7.8331e+005  -1.2937e+005   7.9668e+004    0.0000    0.1826    0.0000    0.0302    0.0270
                0.1670  -3.3541e-003   5.8465e-004   1.0819e-003  -7.4497e+005  -1.2306e+005   1.0603e+005    0.0000    0.1737    0.0000    0.0287    0.0359
                0.2200  -3.1643e-003   5.5140e-004   1.3359e-003  -7.0282e+005  -1.1614e+005   1.3092e+005    0.0000    0.1638    0.0000    0.0271    0.0444
                0.2723  -2.9748e-003   5.1823e-004   1.5705e-003  -6.6076e+005  -1.0922e+005   1.5391e+005    0.0000    0.1540    0.0000    0.0255    0.0522
                0.3243  -2.7494e-003   4.7875e-004   1.7869e-003  -6.1070e+005  -1.0100e+005   1.7511e+005    0.0000    0.1424    0.0000    0.0235    0.0594
                0.3755  -2.5281e-003   4.3998e-004   1.9816e-003  -5.6157e+005  -9.2922e+004   1.9420e+005    0.0000    0.1309    0.0000    0.0217    0.0658
                0.4255  -2.3020e-003   4.0038e-004   2.1542e-003  -5.1136e+005  -8.4671e+004   2.1111e+005    0.0000    0.1192    0.0000    0.0197    0.0716
                0.4743  -2.0681e-003   3.5941e-004   2.3051e-003  -4.5943e+005  -7.6138e+004   2.2590e+005    0.0000    0.1071    0.0000    0.0177    0.0766
                0.5216  -1.8421e-003   3.1982e-004   2.4338e-003  -4.0925e+005  -6.7892e+004   2.3851e+005    0.0000    0.0954    0.0000    0.0158    0.0809
                0.5671  -1.6153e-003   2.8009e-004   2.5417e-003  -3.5890e+005  -5.9618e+004   2.4909e+005    0.0000    0.0837    0.0000    0.0139    0.0844
                0.6107  -1.3960e-003   2.4166e-004   2.6297e-003  -3.1019e+005  -5.1616e+004   2.5772e+005    0.0000    0.0723    0.0000    0.0120    0.0874
                0.6521  -1.1868e-003   2.0501e-004   2.6994e-003  -2.6375e+005  -4.3984e+004   2.6454e+005    0.0000    0.0615    0.0000    0.0103    0.0897
                0.6912  -9.8432e-004   1.6954e-004   2.7525e-003  -2.1878e+005  -3.6596e+004   2.6975e+005    0.0000    0.0510    0.0000    0.0085    0.0914
                0.7278  -7.9492e-004   1.3635e-004   2.7909e-003  -1.7673e+005  -2.9686e+004   2.7351e+005    0.0000    0.0412    0.0000    0.0069    0.0927
                0.7617  -6.1554e-004   1.0493e-004   2.8168e-003  -1.3690e+005  -2.3141e+004   2.7604e+005    0.0000    0.0319    0.0000    0.0054    0.0936
                0.7929  -4.4753e-004   7.5499e-005   2.8320e-003  -9.9596e+004  -1.7012e+004   2.7754e+005    0.0000    0.0232    0.0000    0.0040    0.0941
                0.8211  -2.9577e-004   4.8925e-005   2.8387e-003  -6.5898e+004  -1.1472e+004   2.7819e+005    0.0000    0.0154    0.0000    0.0027    0.0943
                0.8464  -1.4760e-004   2.2982e-005   2.8388e-003  -3.2997e+004  -6.0626e+003   2.7820e+005    0.0000    0.0077    0.0000    0.0014    0.0943
                0.8686   1.4842e-004  -2.3141e-005   2.8340e-003   3.3177e+004   6.0887e+003   2.7773e+005    0.0077   -0.0000    0.0014   -0.0000    0.0941
                0.8873   2.6380e-004  -4.3417e-005   2.8264e-003   5.8792e+004   1.0284e+004   2.7698e+005    0.0137   -0.0000    0.0024   -0.0000    0.0939
                0.9033   3.7981e-004  -6.3798e-005   2.8169e-003   8.4547e+004   1.4503e+004   2.7606e+005    0.0197   -0.0000    0.0034   -0.0000    0.0936
                0.9147   4.5686e-004  -7.7491e-005   2.8084e-003   1.0164e+005   1.7268e+004   2.7522e+005    0.0237   -0.0000    0.0040   -0.0000    0.0933
                0.9234   5.4165e-004  -9.2738e-005   2.8007e-003   1.2043e+005   2.0268e+004   2.7447e+005    0.0281   -0.0000    0.0047   -0.0000    0.0930
                0.9301   6.1979e-004  -1.0661e-004   2.7938e-003   1.3777e+005   2.3076e+004   2.7379e+005    0.0321   -0.0000    0.0054   -0.0000    0.0928
                0.9326   6.5140e-004  -1.1215e-004   2.7910e-003   1.4479e+005   2.4229e+004   2.7351e+005    0.0338   -0.0000    0.0056   -0.0000    0.0927

               lamina:  4     
              matName:  (blade-root)
                     s           e11           e22           e12           s11           s22           s12   s11_fcT   s11_fcC   s22_fcT   s22_fcC   s12_fcS
                   (m)         (m/m)         (m/m)         (rad)          (Pa)          (Pa)          (Pa)       (-)       (-)       (-)       (-)       (-)
                0.0000  -3.6309e-003   6.3924e-004   1.9185e-004  -1.3047e+008  -4.7782e+006   7.9044e+005    0.0000    0.1656    0.0000    0.0933    0.0071
                0.0080  -3.6190e-003   6.3714e-004   2.3734e-004  -1.3005e+008  -4.7626e+006   9.7786e+005    0.0000    0.1650    0.0000    0.0930    0.0087
                0.0611  -3.4850e-003   6.1365e-004   5.3137e-004  -1.2523e+008  -4.5853e+006   2.1892e+006    0.0000    0.1589    0.0000    0.0896    0.0195
                0.1140  -3.3516e-003   5.9028e-004   8.1294e-004  -1.2044e+008  -4.4089e+006   3.3493e+006    0.0000    0.1528    0.0000    0.0861    0.0299
                0.1670  -3.1801e-003   5.6021e-004   1.0819e-003  -1.1427e+008  -4.1822e+006   4.4576e+006    0.0000    0.1450    0.0000    0.0817    0.0398
                0.2200  -2.9908e-003   5.2702e-004   1.3359e-003  -1.0747e+008  -3.9317e+006   5.5039e+006    0.0000    0.1364    0.0000    0.0768    0.0491
                0.2723  -2.8023e-003   4.9399e-004   1.5705e-003  -1.0070e+008  -3.6825e+006   6.4704e+006    0.0000    0.1278    0.0000    0.0719    0.0578
                0.3243  -2.5779e-003   4.5465e-004   1.7869e-003  -9.2634e+007  -3.3857e+006   7.3619e+006    0.0000    0.1176    0.0000    0.0661    0.0657
                0.3755  -2.3569e-003   4.1593e-004   1.9816e-003  -8.4692e+007  -3.0933e+006   8.1642e+006    0.0000    0.1075    0.0000    0.0604    0.0729
                0.4255  -2.1316e-003   3.7643e-004   2.1542e-003  -7.6593e+007  -2.7952e+006   8.8751e+006    0.0000    0.0972    0.0000    0.0546    0.0792
                0.4743  -1.8982e-003   3.3552e-004   2.3051e-003  -6.8205e+007  -2.4864e+006   9.4968e+006    0.0000    0.0866    0.0000    0.0486    0.0848
                0.5216  -1.6725e-003   2.9598e-004   2.4338e-003  -6.0095e+007  -2.1879e+006   1.0027e+007    0.0000    0.0763    0.0000    0.0427    0.0895
                0.5671  -1.4461e-003   2.5631e-004   2.5417e-003  -5.1961e+007  -1.8884e+006   1.0472e+007    0.0000    0.0659    0.0000    0.0369    0.0935
                0.6107  -1.2269e-003   2.1790e-004   2.6297e-003  -4.4083e+007  -1.5984e+006   1.0835e+007    0.0000    0.0559    0.0000    0.0312    0.0967
                0.6521  -1.0180e-003   1.8129e-004   2.6994e-003  -3.6575e+007  -1.3220e+006   1.1121e+007    0.0000    0.0464    0.0000    0.0258    0.0993
                0.6912  -8.1574e-004   1.4585e-004   2.7525e-003  -2.9307e+007  -1.0544e+006   1.1340e+007    0.0000    0.0372    0.0000    0.0206    0.1013
                0.7278  -6.2653e-004   1.1270e-004   2.7909e-003  -2.2507e+007  -8.0404e+005   1.1499e+007    0.0000    0.0286    0.0000    0.0157    0.1027
                0.7617  -4.4753e-004   8.1327e-005   2.8168e-003  -1.6074e+007  -5.6725e+005   1.1605e+007    0.0000    0.0204    0.0000    0.0111    0.1036
                0.7929  -2.7972e-004   5.1922e-005   2.8320e-003  -1.0044e+007  -3.4523e+005   1.1668e+007    0.0000    0.0127    0.0000    0.0067    0.1042
                0.8211  -1.2882e-004   2.5468e-005   2.8387e-003  -4.6211e+006   1.6386e+005   1.1695e+007    0.0000    0.0059    0.0032   -0.0000    0.1044
                0.8464   2.0807e-004  -2.6989e-005   2.8388e-003   7.5042e+006   3.5626e+005   1.1696e+007    0.0075   -0.0000    0.0070   -0.0000    0.1044
                0.8686   3.3720e-004  -4.9665e-005   2.8340e-003   1.2144e+007   5.2668e+005   1.1676e+007    0.0121   -0.0000    0.0103   -0.0000    0.1043
                0.8873   4.4866e-004  -6.9390e-005   2.8264e-003   1.6149e+007   6.7249e+005   1.1645e+007    0.0161   -0.0000    0.0131   -0.0000    0.1040
                0.9033   5.6105e-004  -8.9262e-005   2.8169e-003   2.0188e+007   8.1967e+005   1.1606e+007    0.0201   -0.0000    0.0160   -0.0000    0.1036
                0.9147   6.2534e-004  -1.0116e-004   2.8084e-003   2.2496e+007   8.9930e+005   1.1571e+007    0.0224   -0.0000    0.0176   -0.0000    0.1033
                0.9234   6.8433e-004  -1.1278e-004   2.8007e-003   2.4613e+007   9.6635e+005   1.1539e+007    0.0245   -0.0000    0.0189   -0.0000    0.1030
                0.9301   7.5042e-004  -1.2497e-004   2.7938e-003   2.6986e+007   1.0487e+006   1.1510e+007    0.0269   -0.0000    0.0205   -0.0000    0.1028
                0.9326   7.8204e-004  -1.3050e-004   2.7910e-003   2.8122e+007   1.0905e+006   1.1499e+007    0.0280   -0.0000    0.0213   -0.0000    0.1027

               lamina:  5     
              matName:  (blade-shell)
                     s           e11           e22           e12           s11           s22           s12   s11_fcT   s11_fcC   s22_fcT   s22_fcC   s12_fcS
                   (m)         (m/m)         (m/m)         (rad)          (Pa)          (Pa)          (Pa)       (-)       (-)       (-)       (-)       (-)
                0.0000  -3.4282e-003   6.1076e-004   1.9185e-004  -6.5402e+007   3.2244e+006   7.5783e+005    0.0000    0.1316    0.0096   -0.0000    0.0066
                0.0080  -3.4175e-003   6.0883e-004   2.3734e-004  -6.5199e+007   3.2137e+006   9.3751e+005    0.0000    0.1312    0.0095   -0.0000    0.0082
                0.0611  -3.2838e-003   5.8538e-004   5.3137e-004  -6.2646e+007   3.0954e+006   2.0989e+006    0.0000    0.1260    0.0092   -0.0000    0.0183
                0.1140  -3.1512e-003   5.6212e-004   8.1294e-004  -6.0116e+007   2.9776e+006   3.2111e+006    0.0000    0.1210    0.0088   -0.0000    0.0279
                0.1670  -2.9810e-003   5.3223e-004   1.0819e-003  -5.6868e+007   2.8260e+006   4.2736e+006    0.0000    0.1144    0.0084   -0.0000    0.0372
                0.2200  -2.7922e-003   4.9912e-004   1.3359e-003  -5.3264e+007   2.6588e+006   5.2768e+006    0.0000    0.1072    0.0079   -0.0000    0.0459
                0.2723  -2.6049e-003   4.6625e-004   1.5705e-003  -4.9690e+007   2.4923e+006   6.2034e+006    0.0000    0.1000    0.0074   -0.0000    0.0539
                0.3243  -2.3817e-003   4.2708e-004   1.7869e-003  -4.5430e+007   2.2941e+006   7.0582e+006    0.0000    0.0914    0.0068   -0.0000    0.0614
                0.3755  -2.1610e-003   3.8840e-004   1.9816e-003  -4.1218e+007   2.0989e+006   7.8274e+006    0.0000    0.0829    0.0062   -0.0000    0.0681
                0.4255  -1.9365e-003   3.4902e-004   2.1542e-003  -3.6934e+007   1.8998e+006   8.5089e+006    0.0000    0.0743    0.0056   -0.0000    0.0740
                0.4743  -1.7036e-003   3.0819e-004   2.3051e-003  -3.2489e+007   1.6937e+006   9.1050e+006    0.0000    0.0654    0.0050   -0.0000    0.0792
                0.5216  -1.4783e-003   2.6870e-004   2.4338e-003  -2.8189e+007   1.4944e+006   9.6135e+006    0.0000    0.0567    0.0044   -0.0000    0.0836
                0.5671  -1.2525e-003   2.2910e-004   2.5417e-003  -2.3879e+007   1.2945e+006   1.0040e+007    0.0000    0.0480    0.0038   -0.0000    0.0873
                0.6107  -1.0334e-003   1.9072e-004   2.6297e-003  -1.9698e+007   1.1009e+006   1.0388e+007    0.0000    0.0396    0.0033   -0.0000    0.0903
                0.6521  -8.2479e-004   1.5415e-004   2.6994e-003  -1.5717e+007   9.1645e+005   1.0662e+007    0.0000    0.0316    0.0027   -0.0000    0.0927
                0.6912  -6.2279e-004   1.1874e-004   2.7525e-003  -1.1862e+007   7.3783e+005   1.0872e+007    0.0000    0.0239    0.0022   -0.0000    0.0945
                0.7278  -4.3380e-004   8.5618e-005   2.7909e-003  -8.2547e+006   5.7075e+005   1.1024e+007    0.0000    0.0166    0.0017   -0.0000    0.0959
                0.7617  -2.5524e-004   5.4311e-005   2.8168e-003  -4.8470e+006   4.1267e+005   1.1126e+007    0.0000    0.0098    0.0012   -0.0000    0.0968
                0.7929   2.0364e-004   2.4938e-005   2.8320e-003   3.9365e+006   2.6448e+005   1.1186e+007    0.0117   -0.0000    0.0008   -0.0000    0.0973
                0.8211   3.5207e-004  -4.2096e-005   2.8387e-003   6.7691e+006   1.3115e+005   1.1213e+007    0.0201   -0.0000    0.0004   -0.0000    0.0975
                0.8464   4.9597e-004  -6.7438e-005   2.8388e-003   9.5152e+006  -5.7843e+004   1.1213e+007    0.0282   -0.0000    0.0000    0.0002    0.0975
                0.8686   6.2352e-004  -8.9892e-005   2.8340e-003   1.1949e+007  -1.7254e+005   1.1194e+007    0.0355   -0.0000    0.0000    0.0005    0.0973
                0.8873   7.2904e-004  -1.0878e-004   2.8264e-003   1.3962e+007  -2.7356e+005   1.1164e+007    0.0414   -0.0000    0.0000    0.0008    0.0971
                0.9033   8.3594e-004  -1.2788e-004   2.8169e-003   1.6001e+007  -3.7519e+005   1.1127e+007    0.0475   -0.0000    0.0000    0.0011    0.0968
                0.9147   8.8088e-004  -1.3706e-004   2.8084e-003   1.6856e+007  -4.4042e+005   1.1093e+007    0.0500   -0.0000    0.0000    0.0013    0.0965
                0.9234   9.0073e-004  -1.4319e-004   2.8007e-003   1.7228e+007  -5.0961e+005   1.1063e+007    0.0511   -0.0000    0.0000    0.0015    0.0962
                0.9301   9.4855e-004  -1.5280e-004   2.7938e-003   1.8137e+007  -5.7595e+005   1.1036e+007    0.0538   -0.0000    0.0000    0.0017    0.0960
                0.9326   9.8017e-004  -1.5834e-004   2.7910e-003   1.8741e+007  -6.0387e+005   1.1024e+007    0.0556   -0.0000    0.0000    0.0018    0.0959

  Bottom:  panel  nNode   nLam     xc_St    xc_End         b         t         E_eff         G_eff      nu_eff     density  buckleCrit
            (-)    (-)    (-)       (-)       (-)       (m)       (m)          (Pa)          (Pa)         (-)    (kg/m^3)         (-)
              1     18      5    0.0000    0.2365    0.4602    0.0204   2.5500e+010   3.9743e+009      0.1748   1697.0031      0.0074
              2      9      7    0.2365    0.4635    0.3781    0.0273   5.0799e+010   4.1903e+009      0.1963   1648.9030      0.0002
              3     28      5    0.4635    1.0000    0.9166    0.0237   2.2001e+010   3.4378e+009      0.1752   1489.8127      0.0240

            panel:  1     
           lam_num    nPlies        tPly      fibAng     matID  matName
               (-)       (-)         (m)       (deg)       (-)  (-)
                 1         1    0.006094      0.0000         2  (blade-shell)
                 2         1    0.004018      0.0000         1  (blade-root)
                 3         1    0.000226      0.0000         5  (LEP-core)
                 4         1    0.004018      0.0000         1  (blade-root)
                 5         1    0.006094      0.0000         2  (blade-shell)

               lamina:  1     
              matName:  (blade-shell)
                     s           e11           e22           e12           s11           s22           s12   s11_fcT   s11_fcC   s22_fcT   s22_fcC   s12_fcS
                   (m)         (m/m)         (m/m)         (rad)          (Pa)          (Pa)          (Pa)       (-)       (-)       (-)       (-)       (-)
                0.0000   4.0730e-004  -6.4692e-005   4.0733e-003   7.7904e+006  -2.2935e+005   1.6089e+007    0.0231   -0.0000    0.0000    0.0007    0.1399
                0.0060   5.0009e-004  -8.0913e-005   4.0718e-003   9.5613e+006  -3.1056e+005   1.6084e+007    0.0284   -0.0000    0.0000    0.0009    0.1399
                0.0233   8.0105e-004  -1.3231e-004   4.0626e-003   1.5309e+007  -5.5030e+005   1.6047e+007    0.0454   -0.0000    0.0000    0.0016    0.1395
                0.0440   1.2145e-003  -2.0062e-004   4.0424e-003   2.3210e+007  -8.3467e+005   1.5968e+007    0.0689   -0.0000    0.0000    0.0025    0.1388
                0.0604   1.5075e-003  -2.4842e-004   4.0199e-003   2.8811e+007  -1.0241e+006   1.5879e+007    0.0855   -0.0000    0.0000    0.0030    0.1381
                0.0826   1.8314e-003  -3.0334e-004   3.9811e-003   3.4997e+007  -1.2744e+006   1.5725e+007    0.1038   -0.0000    0.0000    0.0038    0.1367
                0.1045   2.1159e-003  -3.5090e-004   3.9342e-003   4.0433e+007  -1.4810e+006   1.5540e+007    0.1200   -0.0000    0.0000    0.0044    0.1351
                0.1297   2.3716e-003  -3.9491e-004   3.8713e-003   4.5314e+007  -1.6915e+006   1.5291e+007    0.1345   -0.0000    0.0000    0.0050    0.1330
                0.1577   2.6612e-003  -4.4436e-004   3.7903e-003   5.0846e+007  -1.9217e+006   1.4972e+007    0.1509   -0.0000    0.0000    0.0057    0.1302
                0.1864   2.8833e-003  -4.8226e-004   3.6972e-003   5.5086e+007  -2.0981e+006   1.4604e+007    0.1635   -0.0000    0.0000    0.0062    0.1270
                0.2187   3.1154e-003  -5.2251e-004   3.5818e-003   5.9517e+007  -2.2951e+006   1.4148e+007    0.1766   -0.0000    0.0000    0.0068    0.1230
                0.2527   3.3348e-003  -5.6029e-004   3.4490e-003   6.3707e+007  -2.4757e+006   1.3624e+007    0.1890   -0.0000    0.0000    0.0073    0.1185
                0.2888   3.5208e-003  -5.9253e-004   3.2969e-003   6.7256e+007  -2.6333e+006   1.3023e+007    0.1996   -0.0000    0.0000    0.0078    0.1132
                0.3273   3.7201e-003  -6.2706e-004   3.1234e-003   7.1061e+007  -2.8017e+006   1.2337e+007    0.2109   -0.0000    0.0000    0.0083    0.1073
                0.3672   3.8706e-003  -6.5307e-004   2.9333e-003   7.3934e+007  -2.9275e+006   1.1587e+007    0.2194   -0.0000    0.0000    0.0087    0.1008
                0.4094   4.0132e-003  -6.7792e-004   2.7225e-003   7.6657e+007  -3.0506e+006   1.0754e+007    0.2275   -0.0000    0.0000    0.0091    0.0935
                0.4534   4.1477e-003  -7.0133e-004   2.4931e-003   7.9224e+007  -3.1665e+006   9.8477e+006    0.2351   -0.0000    0.0000    0.0094    0.0856
                0.4602   4.1653e-003  -7.0419e-004   2.4567e-003   7.9561e+007  -3.1775e+006   9.7041e+006    0.2361   -0.0000    0.0000    0.0094    0.0844

               lamina:  2     
              matName:  (blade-root)
                     s           e11           e22           e12           s11           s22           s12   s11_fcT   s11_fcC   s22_fcT   s22_fcC   s12_fcS
                   (m)         (m/m)         (m/m)         (rad)          (Pa)          (Pa)          (Pa)       (-)       (-)       (-)       (-)       (-)
                0.0000   3.0734e-004  -5.1098e-005   4.0733e-003   1.1053e+007   4.3019e+005   1.6782e+007    0.0110   -0.0000    0.0084   -0.0000    0.1498
                0.0060   4.0013e-004  -6.7319e-005   4.0718e-003   1.4387e+007   5.5328e+005   1.6776e+007    0.0143   -0.0000    0.0108   -0.0000    0.1498
                0.0233   6.8246e-004  -1.1619e-004   4.0626e-003   2.4535e+007   9.3200e+005   1.6738e+007    0.0244   -0.0000    0.0182   -0.0000    0.1494
                0.0440   1.0350e-003  -1.7621e-004   4.0424e-003   3.7208e+007   1.4133e+006   1.6655e+007    0.0370   -0.0000    0.0276   -0.0000    0.1487
                0.0604   1.2753e-003  -2.1684e-004   4.0199e-003   4.5849e+007   1.7440e+006   1.6562e+007    0.0456   -0.0000    0.0341   -0.0000    0.1479
                0.0826   1.5731e-003  -2.6821e-004   3.9811e-003   5.6553e+007   2.1449e+006   1.6402e+007    0.0563   -0.0000    0.0419   -0.0000    0.1464
                0.1045   1.8242e-003  -3.1123e-004   3.9342e-003   6.5579e+007   2.4855e+006   1.6209e+007    0.0653   -0.0000    0.0485   -0.0000    0.1447
                0.1297   2.0694e-003  -3.5383e-004   3.8713e-003   7.4393e+007   2.8132e+006   1.5950e+007    0.0740   -0.0000    0.0549   -0.0000    0.1424
                0.1577   2.3407e-003  -4.0077e-004   3.7903e-003   8.4145e+007   3.1772e+006   1.5616e+007    0.0837   -0.0000    0.0621   -0.0000    0.1394
                0.1864   2.5487e-003  -4.3676e-004   3.6972e-003   9.1620e+007   3.4563e+006   1.5233e+007    0.0912   -0.0000    0.0675   -0.0000    0.1360
                0.2187   2.7759e-003  -4.7635e-004   3.5818e-003   9.9785e+007   3.7588e+006   1.4757e+007    0.0993   -0.0000    0.0734   -0.0000    0.1318
                0.2527   2.9864e-003  -5.1290e-004   3.4490e-003   1.0735e+008   4.0400e+006   1.4210e+007    0.1068   -0.0000    0.0789   -0.0000    0.1269
                0.2888   3.1682e-003  -5.4459e-004   3.2969e-003   1.1388e+008   4.2821e+006   1.3583e+007    0.1133   -0.0000    0.0836   -0.0000    0.1213
                0.3273   3.3628e-003  -5.7847e-004   3.1234e-003   1.2088e+008   4.5413e+006   1.2868e+007    0.1203   -0.0000    0.0887   -0.0000    0.1149
                0.3672   3.5086e-003  -6.0385e-004   2.9333e-003   1.2612e+008   4.7358e+006   1.2085e+007    0.1255   -0.0000    0.0925   -0.0000    0.1079
                0.4094   3.6499e-003  -6.2851e-004   2.7225e-003   1.3120e+008   4.9235e+006   1.1217e+007    0.1305   -0.0000    0.0962   -0.0000    0.1001
                0.4534   3.7829e-003  -6.5173e-004   2.4931e-003   1.3598e+008   5.1003e+006   1.0272e+007    0.1353   -0.0000    0.0996   -0.0000    0.0917
                0.4602   3.7971e-003  -6.5412e-004   2.4567e-003   1.3649e+008   5.1199e+006   1.0122e+007    0.1358   -0.0000    0.1000   -0.0000    0.0904

               lamina:  3     
              matName:  (LEP-core)
                     s           e11           e22           e12           s11           s22           s12   s11_fcT   s11_fcC   s22_fcT   s22_fcC   s12_fcS
                   (m)         (m/m)         (m/m)         (rad)          (Pa)          (Pa)          (Pa)       (-)       (-)       (-)       (-)       (-)
                0.0000   2.4143e-004  -4.2135e-005   4.0733e-003   5.3620e+004   8.8463e+003   3.9918e+005    0.0125   -0.0000    0.0021   -0.0000    0.1353
                0.0060   3.3422e-004  -5.8356e-005   4.0718e-003   7.4225e+004   1.2240e+004   3.9903e+005    0.0173   -0.0000    0.0029   -0.0000    0.1353
                0.0233   6.0427e-004  -1.0555e-004   4.0626e-003   1.3420e+005   2.2119e+004   3.9813e+005    0.0313   -0.0000    0.0052   -0.0000    0.1350
                0.0440   9.1659e-004  -1.6011e-004   4.0424e-003   2.0356e+005   3.3551e+004   3.9616e+005    0.0474   -0.0000    0.0078   -0.0000    0.1343
                0.0604   1.1222e-003  -1.9602e-004   4.0199e-003   2.4922e+005   4.1079e+004   3.9395e+005    0.0581   -0.0000    0.0096   -0.0000    0.1335
                0.0826   1.4028e-003  -2.4505e-004   3.9811e-003   3.1153e+005   5.1345e+004   3.9014e+005    0.0726   -0.0000    0.0120   -0.0000    0.1323
                0.1045   1.6319e-003  -2.8507e-004   3.9342e-003   3.6240e+005   5.9727e+004   3.8556e+005    0.0845   -0.0000    0.0139   -0.0000    0.1307
                0.1297   1.8702e-003  -3.2673e-004   3.8713e-003   4.1533e+005   6.8446e+004   3.7938e+005    0.0968   -0.0000    0.0160   -0.0000    0.1286
                0.1577   2.1294e-003  -3.7203e-004   3.7903e-003   4.7289e+005   7.7928e+004   3.7145e+005    0.1102   -0.0000    0.0182   -0.0000    0.1259
                0.1864   2.3281e-003  -4.0676e-004   3.6972e-003   5.1702e+005   8.5198e+004   3.6233e+005    0.1205   -0.0000    0.0199   -0.0000    0.1228
                0.2187   2.5521e-003  -4.4591e-004   3.5818e-003   5.6676e+005   9.3389e+004   3.5102e+005    0.1321   -0.0000    0.0218   -0.0000    0.1190
                0.2527   2.7566e-003  -4.8165e-004   3.4490e-003   6.1217e+005   1.0087e+005   3.3800e+005    0.1427   -0.0000    0.0235   -0.0000    0.1146
                0.2888   2.9358e-003  -5.1298e-004   3.2969e-003   6.5196e+005   1.0742e+005   3.2310e+005    0.1520   -0.0000    0.0250   -0.0000    0.1095
                0.3273   3.1272e-003  -5.4643e-004   3.1234e-003   6.9447e+005   1.1442e+005   3.0609e+005    0.1619   -0.0000    0.0267   -0.0000    0.1038
                0.3672   3.2700e-003  -5.7140e-004   2.9333e-003   7.2619e+005   1.1965e+005   2.8747e+005    0.1693   -0.0000    0.0279   -0.0000    0.0974
                0.4094   3.4103e-003  -5.9593e-004   2.7225e-003   7.5735e+005   1.2478e+005   2.6680e+005    0.1765   -0.0000    0.0291   -0.0000    0.0904
                0.4534   3.5424e-003  -6.1902e-004   2.4931e-003   7.8668e+005   1.2961e+005   2.4432e+005    0.1834   -0.0000    0.0302   -0.0000    0.0828
                0.4602   3.5543e-003  -6.2110e-004   2.4567e-003   7.8933e+005   1.3005e+005   2.4076e+005    0.1840   -0.0000    0.0303   -0.0000    0.0816

               lamina:  4     
              matName:  (blade-root)
                     s           e11           e22           e12           s11           s22           s12   s11_fcT   s11_fcC   s22_fcT   s22_fcC   s12_fcS
                   (m)         (m/m)         (m/m)         (rad)          (Pa)          (Pa)          (Pa)       (-)       (-)       (-)       (-)       (-)
                0.0000   2.3773e-004  -4.1632e-005   4.0733e-003   8.5433e+006   3.1475e+005   1.6782e+007    0.0085   -0.0000    0.0061   -0.0000    0.1498
                0.0060   3.3052e-004  -5.7853e-005   4.0718e-003   1.1878e+007   4.3784e+005   1.6776e+007    0.0118   -0.0000    0.0086   -0.0000    0.1498
                0.0233   5.9988e-004  -1.0496e-004   4.0626e-003   2.1558e+007   7.9504e+005   1.6738e+007    0.0215   -0.0000    0.0155   -0.0000    0.1494
                0.0440   9.0994e-004  -1.5920e-004   4.0424e-003   3.2701e+007   1.2060e+006   1.6655e+007    0.0325   -0.0000    0.0236   -0.0000    0.1487
                0.0604   1.1136e-003  -1.9485e-004   4.0199e-003   4.0021e+007   1.4759e+006   1.6562e+007    0.0398   -0.0000    0.0288   -0.0000    0.1479
                0.0826   1.3932e-003  -2.4375e-004   3.9811e-003   5.0069e+007   1.8466e+006   1.6402e+007    0.0498   -0.0000    0.0361   -0.0000    0.1464
                0.1045   1.6211e-003  -2.8360e-004   3.9342e-003   5.8257e+007   2.1486e+006   1.6209e+007    0.0580   -0.0000    0.0420   -0.0000    0.1447
                0.1297   1.8590e-003  -3.2521e-004   3.8713e-003   6.6809e+007   2.4643e+006   1.5950e+007    0.0665   -0.0000    0.0481   -0.0000    0.1424
                0.1577   2.1175e-003  -3.7042e-004   3.7903e-003   7.6099e+007   2.8071e+006   1.5616e+007    0.0757   -0.0000    0.0548   -0.0000    0.1394
                0.1864   2.3157e-003  -4.0508e-004   3.6972e-003   8.3222e+007   3.0699e+006   1.5233e+007    0.0828   -0.0000    0.0600   -0.0000    0.1360
                0.2187   2.5395e-003  -4.4420e-004   3.5818e-003   9.1264e+007   3.3667e+006   1.4757e+007    0.0908   -0.0000    0.0658   -0.0000    0.1318
                0.2527   2.7437e-003  -4.7990e-004   3.4490e-003   9.8601e+007   3.6375e+006   1.4210e+007    0.0981   -0.0000    0.0710   -0.0000    0.1269
                0.2888   2.9227e-003  -5.1120e-004   3.2969e-003   1.0504e+008   3.8750e+006   1.3583e+007    0.1045   -0.0000    0.0757   -0.0000    0.1213
                0.3273   3.1140e-003  -5.4463e-004   3.1234e-003   1.1191e+008   4.1286e+006   1.2868e+007    0.1114   -0.0000    0.0806   -0.0000    0.1149
                0.3672   3.2566e-003  -5.6958e-004   2.9333e-003   1.1703e+008   4.3179e+006   1.2085e+007    0.1165   -0.0000    0.0843   -0.0000    0.1079
                0.4094   3.3969e-003  -5.9410e-004   2.7225e-003   1.2208e+008   4.5039e+006   1.1217e+007    0.1215   -0.0000    0.0880   -0.0000    0.1001
                0.4534   3.5289e-003  -6.1718e-004   2.4931e-003   1.2682e+008   4.6791e+006   1.0272e+007    0.1262   -0.0000    0.0914   -0.0000    0.0917
                0.4602   3.5407e-003  -6.1925e-004   2.4567e-003   1.2724e+008   4.6947e+006   1.0122e+007    0.1266   -0.0000    0.0917   -0.0000    0.0904

               lamina:  5     
              matName:  (blade-shell)
                     s           e11           e22           e12           s11           s22           s12   s11_fcT   s11_fcC   s22_fcT   s22_fcC   s12_fcS
                   (m)         (m/m)         (m/m)         (rad)          (Pa)          (Pa)          (Pa)       (-)       (-)       (-)       (-)       (-)
                0.0000   1.7182e-004  -3.2669e-005   4.0733e-003   3.2728e+006  -2.0178e+005   1.6089e+007    0.0097   -0.0000    0.0000    0.0006    0.1399
                0.0060   2.6461e-004  -4.8890e-005   4.0718e-003   5.0438e+006  -2.8300e+005   1.6084e+007    0.0150   -0.0000    0.0000    0.0008    0.1399
                0.0233   5.2169e-004  -9.4322e-005   4.0626e-003   9.9491e+006  -5.1760e+005   1.6047e+007    0.0295   -0.0000    0.0000    0.0015    0.1395
                0.0440   7.9157e-004  -1.4311e-004   4.0424e-003   1.5096e+007  -7.8515e+005   1.5968e+007    0.0448   -0.0000    0.0000    0.0023    0.1388
                0.0604   9.6052e-004  -1.7403e-004   4.0199e-003   1.8317e+007  -9.6011e+005   1.5879e+007    0.0544   -0.0000    0.0000    0.0028    0.1381
                0.0826   1.2229e-003  -2.2059e-004   3.9811e-003   2.3324e+007  -1.2032e+006   1.5725e+007    0.0692   -0.0000    0.0000    0.0036    0.1367
                0.1045   1.4287e-003  -2.5745e-004   3.9342e-003   2.7249e+007  -1.4005e+006   1.5540e+007    0.0809   -0.0000    0.0000    0.0042    0.1351
                0.1297   1.6598e-003  -2.9812e-004   3.8713e-003   3.1660e+007  -1.6082e+006   1.5291e+007    0.0939   -0.0000    0.0000    0.0048    0.1330
                0.1577   1.9062e-003  -3.4168e-004   3.7903e-003   3.6361e+007  -1.8333e+006   1.4972e+007    0.1079   -0.0000    0.0000    0.0054    0.1302
                0.1864   2.0951e-003  -3.7508e-004   3.6972e-003   3.9966e+007  -2.0059e+006   1.4604e+007    0.1186   -0.0000    0.0000    0.0060    0.1270
                0.2187   2.3157e-003  -4.1376e-004   3.5818e-003   4.4175e+007  -2.2014e+006   1.4148e+007    0.1311   -0.0000    0.0000    0.0065    0.1230
                0.2527   2.5139e-003  -4.4865e-004   3.4490e-003   4.7958e+007  -2.3796e+006   1.3624e+007    0.1423   -0.0000    0.0000    0.0071    0.1185
                0.2888   2.6903e-003  -4.7959e-004   3.2969e-003   5.1324e+007  -2.5360e+006   1.3023e+007    0.1523   -0.0000    0.0000    0.0075    0.1132
                0.3273   2.8784e-003  -5.1260e-004   3.1234e-003   5.4913e+007  -2.7031e+006   1.2337e+007    0.1629   -0.0000    0.0000    0.0080    0.1073
                0.3672   3.0180e-003  -5.3713e-004   2.9333e-003   5.7578e+007  -2.8277e+006   1.1587e+007    0.1709   -0.0000    0.0000    0.0084    0.1008
                0.4094   3.1573e-003  -5.6153e-004   2.7225e-003   6.0237e+007  -2.9504e+006   1.0754e+007    0.1787   -0.0000    0.0000    0.0088    0.0935
                0.4534   3.2884e-003  -5.8448e-004   2.4931e-003   6.2739e+007  -3.0659e+006   9.8477e+006    0.1862   -0.0000    0.0000    0.0091    0.0856
                0.4602   3.2979e-003  -5.8623e-004   2.4567e-003   6.2921e+007  -3.0760e+006   9.7041e+006    0.1867   -0.0000    0.0000    0.0091    0.0844

            panel:  2     
           lam_num    nPlies        tPly      fibAng     matID  matName
               (-)       (-)         (m)       (deg)       (-)  (-)
                 1         1    0.006094      0.0000         2  (blade-shell)
                 2         1    0.004018      0.0000         1  (blade-root)
                 3         1    0.003510      0.0000         3  (spar-uni)
                 4         1    0.000038      0.0000         4  (spar-core)
                 5         1    0.003510      0.0000         3  (spar-uni)
                 6         1    0.004018      0.0000         1  (blade-root)
                 7         1    0.006094      0.0000         2  (blade-shell)

               lamina:  1     
              matName:  (blade-shell)
                     s           e11           e22           e12           s11           s22           s12   s11_fcT   s11_fcC   s22_fcT   s22_fcC   s12_fcS
                   (m)         (m/m)         (m/m)         (rad)          (Pa)          (Pa)          (Pa)       (-)       (-)       (-)       (-)       (-)
                0.0000   4.9092e-003  -8.9260e-004   2.8097e-003   9.3611e+007  -4.9685e+006   1.1098e+007    0.2778   -0.0000    0.0000    0.0147    0.0965
                0.0380   4.9772e-003  -9.0595e-004   2.4280e-003   9.4905e+007  -5.0566e+006   9.5905e+006    0.2816   -0.0000    0.0000    0.0150    0.0834
                0.0847   5.0649e-003  -9.2296e-004   1.9478e-003   9.6575e+007  -5.1662e+006   7.6939e+006    0.2866   -0.0000    0.0000    0.0153    0.0669
                0.1324   5.1100e-003  -9.3161e-004   1.4485e-003   9.7433e+007  -5.2206e+006   5.7216e+006    0.2891   -0.0000    0.0000    0.0155    0.0498
                0.1816   5.1201e-003  -9.3356e-004   9.2813e-004   9.7626e+007  -5.2330e+006   3.6661e+006    0.2897   -0.0000    0.0000    0.0155    0.0319
                0.2314   5.1292e-003  -9.3539e-004   3.9807e-004   9.7799e+007  -5.2456e+006   1.5724e+006    0.2902   -0.0000    0.0000    0.0156    0.0137
                0.2823   5.0599e-003  -9.2199e-004   1.3965e-004   9.6480e+007  -5.1597e+006   5.5163e+005    0.2863   -0.0000    0.0000    0.0153    0.0048
                0.3343   4.9876e-003  -9.0787e-004   6.8026e-004   9.5103e+007  -5.0677e+006   2.6870e+006    0.2822   -0.0000    0.0000    0.0150    0.0234
                0.3781   4.9099e-003  -8.9272e-004   1.1282e-003   9.3625e+007  -4.9689e+006   4.4563e+006    0.2778   -0.0000    0.0000    0.0147    0.0388

               lamina:  2     
              matName:  (blade-root)
                     s           e11           e22           e12           s11           s22           s12   s11_fcT   s11_fcC   s22_fcT   s22_fcC   s12_fcS
                   (m)         (m/m)         (m/m)         (rad)          (Pa)          (Pa)          (Pa)       (-)       (-)       (-)       (-)       (-)
                0.0000   4.2764e-003  -8.0011e-004   2.8097e-003   1.5354e+008   5.2241e+006   1.1576e+007    0.1528   -0.0000    0.1020   -0.0000    0.1034
                0.0380   4.3445e-003  -8.1346e-004   2.4280e-003   1.5598e+008   5.3018e+006   1.0003e+007    0.1552   -0.0000    0.1036   -0.0000    0.0893
                0.0847   4.4304e-003  -8.3021e-004   1.9478e-003   1.5906e+008   5.4010e+006   8.0251e+006    0.1583   -0.0000    0.1055   -0.0000    0.0717
                0.1324   4.4736e-003  -8.3859e-004   1.4485e-003   1.6061e+008   5.4514e+006   5.9679e+006    0.1598   -0.0000    0.1065   -0.0000    0.0533
                0.1816   4.4835e-003  -8.4050e-004   9.2813e-004   1.6097e+008   5.4628e+006   3.8239e+006    0.1602   -0.0000    0.1067   -0.0000    0.0341
                0.2314   4.4929e-003  -8.4238e-004   3.9807e-004   1.6130e+008   5.4734e+006   1.6401e+006    0.1605   -0.0000    0.1069   -0.0000    0.0146
                0.2823   4.4254e-003  -8.2923e-004   1.3965e-004   1.5888e+008   5.3953e+006   5.7537e+005    0.1581   -0.0000    0.1054   -0.0000    0.0051
                0.3343   4.3538e-003  -8.1522e-004   6.8026e-004   1.5631e+008   5.3130e+006   2.8027e+006    0.1555   -0.0000    0.1038   -0.0000    0.0250
                0.3781   4.2769e-003  -8.0019e-004   1.1282e-003   1.5355e+008   5.2248e+006   4.6481e+006    0.1528   -0.0000    0.1020   -0.0000    0.0415

               lamina:  3     
              matName:  (spar-uni)
                     s           e11           e22           e12           s11           s22           s12   s11_fcT   s11_fcC   s22_fcT   s22_fcC   s12_fcS
                   (m)         (m/m)         (m/m)         (rad)          (Pa)          (Pa)          (Pa)       (-)       (-)       (-)       (-)       (-)
                0.0000   3.8592e-003  -7.3912e-004   2.8097e-003   4.7586e+008   3.7735e+006   1.3234e+007    0.2405   -0.0000    0.0630   -0.0000    0.1285
                0.0380   3.9273e-003  -7.5248e-004   2.4280e-003   4.8424e+008   3.8374e+006   1.1436e+007    0.2447   -0.0000    0.0641   -0.0000    0.1110
                0.0847   4.0120e-003  -7.6905e-004   1.9478e-003   4.9469e+008   3.9173e+006   9.1743e+006    0.2500   -0.0000    0.0654   -0.0000    0.0891
                0.1324   4.0541e-003  -7.7726e-004   1.4485e-003   4.9988e+008   3.9572e+006   6.8225e+006    0.2526   -0.0000    0.0661   -0.0000    0.0662
                0.1816   4.0637e-003  -7.7914e-004   9.2813e-004   5.0106e+008   3.9663e+006   4.3715e+006    0.2532   -0.0000    0.0662   -0.0000    0.0424
                0.2314   4.0734e-003  -7.8105e-004   3.9807e-004   5.0226e+008   3.9753e+006   1.8749e+006    0.2538   -0.0000    0.0664   -0.0000    0.0182
                0.2823   4.0070e-003  -7.6808e-004   1.3965e-004   4.9407e+008   3.9126e+006   6.5777e+005    0.2497   -0.0000    0.0653   -0.0000    0.0064
                0.3343   3.9359e-003  -7.5414e-004   6.8026e-004   4.8530e+008   3.8457e+006   3.2040e+006    0.2452   -0.0000    0.0642   -0.0000    0.0311
                0.3781   3.8595e-003  -7.3918e-004   1.1282e-003   4.7589e+008   3.7739e+006   5.3137e+006    0.2405   -0.0000    0.0630   -0.0000    0.0516

               lamina:  4     
              matName:  (spar-core)
                     s           e11           e22           e12           s11           s22           s12   s11_fcT   s11_fcC   s22_fcT   s22_fcC   s12_fcS
                   (m)         (m/m)         (m/m)         (rad)          (Pa)          (Pa)          (Pa)       (-)       (-)       (-)       (-)       (-)
                0.0000   3.4947e-003  -6.8584e-004   2.8097e-003   7.7024e+005   1.1015e+005   2.7535e+005    0.1795   -0.0000    0.0257   -0.0000    0.0933
                0.0380   3.5627e-003  -6.9919e-004   2.4280e-003   7.8523e+005   1.1230e+005   2.3794e+005    0.1830   -0.0000    0.0262   -0.0000    0.0807
                0.0847   3.6464e-003  -7.1562e-004   1.9478e-003   8.0367e+005   1.1493e+005   1.9089e+005    0.1873   -0.0000    0.0268   -0.0000    0.0647
                0.1324   3.6875e-003  -7.2368e-004   1.4485e-003   8.1273e+005   1.1623e+005   1.4195e+005    0.1894   -0.0000    0.0271   -0.0000    0.0481
                0.1816   3.6969e-003  -7.2553e-004   9.2813e-004   8.1481e+005   1.1652e+005   9.0957e+004    0.1899   -0.0000    0.0272   -0.0000    0.0308
                0.2314   3.7068e-003  -7.2747e-004   3.9807e-004   8.1698e+005   1.1684e+005   3.9011e+004    0.1904   -0.0000    0.0272   -0.0000    0.0132
                0.2823   3.6415e-003  -7.1464e-004   1.3965e-004   8.0258e+005   1.1478e+005   1.3686e+004    0.1871   -0.0000    0.0268   -0.0000    0.0046
                0.3343   3.5707e-003  -7.0076e-004   6.8026e-004   7.8699e+005   1.1255e+005   6.6665e+004    0.1834   -0.0000    0.0262   -0.0000    0.0226
                0.3781   3.4949e-003  -6.8587e-004   1.1282e-003   7.7028e+005   1.1016e+005   1.1056e+005    0.1796   -0.0000    0.0257   -0.0000    0.0375

               lamina:  5     
              matName:  (spar-uni)
                     s           e11           e22           e12           s11           s22           s12   s11_fcT   s11_fcC   s22_fcT   s22_fcC   s12_fcS
                   (m)         (m/m)         (m/m)         (rad)          (Pa)          (Pa)          (Pa)       (-)       (-)       (-)       (-)       (-)
                0.0000   3.4908e-003  -6.8527e-004   2.8097e-003   4.3038e+008   3.2754e+006   1.3234e+007    0.2175   -0.0000    0.0547   -0.0000    0.1285
                0.0380   3.5588e-003  -6.9862e-004   2.4280e-003   4.3877e+008   3.3392e+006   1.1436e+007    0.2217   -0.0000    0.0557   -0.0000    0.1110
                0.0847   3.6425e-003  -7.1505e-004   1.9478e-003   4.4909e+008   3.4178e+006   9.1743e+006    0.2269   -0.0000    0.0571   -0.0000    0.0891
                0.1324   3.6836e-003  -7.2311e-004   1.4485e-003   4.5415e+008   3.4563e+006   6.8225e+006    0.2295   -0.0000    0.0577   -0.0000    0.0662
                0.1816   3.6930e-003  -7.2496e-004   9.2813e-004   4.5531e+008   3.4651e+006   4.3715e+006    0.2301   -0.0000    0.0578   -0.0000    0.0424
                0.2314   3.7029e-003  -7.2689e-004   3.9807e-004   4.5653e+008   3.4744e+006   1.8749e+006    0.2307   -0.0000    0.0580   -0.0000    0.0182
                0.2823   3.6375e-003  -7.1407e-004   1.3965e-004   4.4847e+008   3.4131e+006   6.5777e+005    0.2266   -0.0000    0.0570   -0.0000    0.0064
                0.3343   3.5668e-003  -7.0019e-004   6.8026e-004   4.3976e+008   3.3467e+006   3.2040e+006    0.2222   -0.0000    0.0559   -0.0000    0.0311
                0.3781   3.4910e-003  -6.8530e-004   1.1282e-003   4.3040e+008   3.2755e+006   5.3137e+006    0.2175   -0.0000    0.0547   -0.0000    0.0516

               lamina:  6     
              matName:  (blade-root)
                     s           e11           e22           e12           s11           s22           s12   s11_fcT   s11_fcC   s22_fcT   s22_fcC   s12_fcS
                   (m)         (m/m)         (m/m)         (rad)          (Pa)          (Pa)          (Pa)       (-)       (-)       (-)       (-)       (-)
                0.0000   3.1263e-003  -6.3199e-004   2.8097e-003   1.1211e+008   3.4167e+006   1.1576e+007    0.1116   -0.0000    0.0667   -0.0000    0.1034
                0.0380   3.1943e-003  -6.4534e-004   2.4280e-003   1.1455e+008   3.4944e+006   1.0003e+007    0.1140   -0.0000    0.0683   -0.0000    0.0893
                0.0847   3.2769e-003  -6.6161e-004   1.9478e-003   1.1752e+008   3.5885e+006   8.0251e+006    0.1169   -0.0000    0.0701   -0.0000    0.0717
                0.1324   3.3170e-003  -6.6952e-004   1.4485e-003   1.1895e+008   3.6338e+006   5.9679e+006    0.1184   -0.0000    0.0710   -0.0000    0.0533
                0.1816   3.3262e-003  -6.7135e-004   9.2813e-004   1.1928e+008   3.6443e+006   3.8239e+006    0.1187   -0.0000    0.0712   -0.0000    0.0341
                0.2314   3.3363e-003  -6.7331e-004   3.9807e-004   1.1964e+008   3.6559e+006   1.6401e+006    0.1190   -0.0000    0.0714   -0.0000    0.0146
                0.2823   3.2720e-003  -6.6064e-004   1.3965e-004   1.1734e+008   3.5828e+006   5.7537e+005    0.1168   -0.0000    0.0700   -0.0000    0.0051
                0.3343   3.2017e-003  -6.4682e-004   6.8026e-004   1.1482e+008   3.5026e+006   2.8027e+006    0.1142   -0.0000    0.0684   -0.0000    0.0250
                0.3781   3.1263e-003  -6.3200e-004   1.1282e-003   1.1211e+008   3.4166e+006   4.6481e+006    0.1116   -0.0000    0.0667   -0.0000    0.0415

               lamina:  7     
              matName:  (blade-shell)
                     s           e11           e22           e12           s11           s22           s12   s11_fcT   s11_fcC   s22_fcT   s22_fcC   s12_fcS
                   (m)         (m/m)         (m/m)         (rad)          (Pa)          (Pa)          (Pa)       (-)       (-)       (-)       (-)       (-)
                0.0000   2.7091e-003  -5.7100e-004   2.8097e-003   5.1459e+007  -4.2737e+006   1.1098e+007    0.1527   -0.0000    0.0000    0.0127    0.0965
                0.0380   2.7771e-003  -5.8436e-004   2.4280e-003   5.2753e+007  -4.3617e+006   9.5905e+006    0.1565   -0.0000    0.0000    0.0129    0.0834
                0.0847   2.8586e-003  -6.0046e-004   1.9478e-003   5.4303e+007  -4.4693e+006   7.6939e+006    0.1611   -0.0000    0.0000    0.0133    0.0669
                0.1324   2.8974e-003  -6.0819e-004   1.4485e-003   5.5042e+007  -4.5218e+006   5.7216e+006    0.1633   -0.0000    0.0000    0.0134    0.0498
                0.1816   2.9065e-003  -6.0999e-004   9.2813e-004   5.5215e+007  -4.5339e+006   3.6661e+006    0.1638   -0.0000    0.0000    0.0135    0.0319
                0.2314   2.9167e-003  -6.1199e-004   3.9807e-004   5.5410e+007  -4.5468e+006   1.5724e+006    0.1644   -0.0000    0.0000    0.0135    0.0137
                0.2823   2.8536e-003  -5.9948e-004   1.3965e-004   5.4209e+007  -4.4629e+006   5.5163e+005    0.1609   -0.0000    0.0000    0.0132    0.0048
                0.3343   2.7838e-003  -5.8573e-004   6.8026e-004   5.2880e+007  -4.3716e+006   2.6870e+006    0.1569   -0.0000    0.0000    0.0130    0.0234
                0.3781   2.7089e-003  -5.7099e-004   1.1282e-003   5.1456e+007  -4.2738e+006   4.4563e+006    0.1527   -0.0000    0.0000    0.0127    0.0388

            panel:  3     
           lam_num    nPlies        tPly      fibAng     matID  matName
               (-)       (-)         (m)       (deg)       (-)  (-)
                 1         1    0.006094      0.0000         2  (blade-shell)
                 2         1    0.004018      0.0000         1  (blade-root)
                 3         1    0.003510      0.0000         6  (TEP-core)
                 4         1    0.004018      0.0000         1  (blade-root)
                 5         1    0.006094      0.0000         2  (blade-shell)

               lamina:  1     
              matName:  (blade-shell)
                     s           e11           e22           e12           s11           s22           s12   s11_fcT   s11_fcC   s22_fcT   s22_fcC   s12_fcS
                   (m)         (m/m)         (m/m)         (rad)          (Pa)          (Pa)          (Pa)       (-)       (-)       (-)       (-)       (-)
                0.0000   4.1196e-003  -7.0102e-004   1.4451e-004   7.8676e+007  -3.2318e+006   5.7081e+005    0.2335   -0.0000    0.0000    0.0096    0.0050
                0.0082   4.1024e-003  -6.9812e-004   1.0068e-004   7.8347e+007  -3.2189e+006   3.9767e+005    0.2325   -0.0000    0.0000    0.0096    0.0035
                0.0613   3.9680e-003  -6.7461e-004   1.7946e-004   7.5783e+007  -3.1007e+006   7.0886e+005    0.2249   -0.0000    0.0000    0.0092    0.0062
                0.1144   3.8330e-003  -6.5101e-004   4.4887e-004   7.3206e+007  -2.9825e+006   1.7730e+006    0.2172   -0.0000    0.0000    0.0089    0.0154
                0.1675   3.6690e-003  -6.2237e-004   7.0714e-004   7.0076e+007  -2.8395e+006   2.7932e+006    0.2079   -0.0000    0.0000    0.0084    0.0243
                0.2205   3.4942e-003  -5.9177e-004   9.5220e-004   6.6740e+007  -2.6859e+006   3.7612e+006    0.1980   -0.0000    0.0000    0.0080    0.0327
                0.2729   3.3197e-003  -5.6126e-004   1.1809e-003   6.3409e+007  -2.5330e+006   4.6647e+006    0.1882   -0.0000    0.0000    0.0075    0.0406
                0.3247   3.1256e-003  -5.2730e-004   1.3936e-003   5.9703e+007  -2.3628e+006   5.5048e+006    0.1772   -0.0000    0.0000    0.0070    0.0479
                0.3756   2.9363e-003  -4.9416e-004   1.5884e-003   5.6092e+007  -2.1959e+006   6.2741e+006    0.1664   -0.0000    0.0000    0.0065    0.0546
                0.4252   2.7488e-003  -4.6131e-004   1.7647e-003   5.2512e+007  -2.0306e+006   6.9707e+006    0.1558   -0.0000    0.0000    0.0060    0.0606
                0.4735   2.5630e-003  -4.2878e-004   1.9231e-003   4.8967e+007  -1.8668e+006   7.5962e+006    0.1453   -0.0000    0.0000    0.0055    0.0661
                0.5203   2.3841e-003  -3.9742e-004   2.0638e-003   4.5552e+007  -1.7086e+006   8.1520e+006    0.1352   -0.0000    0.0000    0.0051    0.0709
                0.5651   2.2168e-003  -3.6809e-004   2.1874e-003   4.2360e+007  -1.5605e+006   8.6404e+006    0.1257   -0.0000    0.0000    0.0046    0.0751
                0.6079   2.0580e-003  -3.4026e-004   2.2953e-003   3.9330e+007  -1.4201e+006   9.0663e+006    0.1167   -0.0000    0.0000    0.0042    0.0788
                0.6485   1.9095e-003  -3.1420e-004   2.3885e-003   3.6495e+007  -1.2882e+006   9.4348e+006    0.1083   -0.0000    0.0000    0.0038    0.0820
                0.6868   1.7779e-003  -2.9110e-004   2.4683e-003   3.3983e+007  -1.1714e+006   9.7500e+006    0.1008   -0.0000    0.0000    0.0035    0.0848
                0.7225   1.6545e-003  -2.6948e-004   2.5363e-003   3.1629e+007  -1.0622e+006   1.0018e+007    0.0939   -0.0000    0.0000    0.0032    0.0871
                0.7556   1.5452e-003  -2.5028e-004   2.5935e-003   2.9542e+007  -9.6494e+005   1.0244e+007    0.0877   -0.0000    0.0000    0.0029    0.0891
                0.7858   1.4486e-003  -2.3334e-004   2.6414e-003   2.7698e+007  -8.7929e+005   1.0433e+007    0.0822   -0.0000    0.0000    0.0026    0.0907
                0.8132   1.3608e-003  -2.1796e-004   2.6809e-003   2.6023e+007  -8.0175e+005   1.0590e+007    0.0772   -0.0000    0.0000    0.0024    0.0921
                0.8376   1.2832e-003  -2.0435e-004   2.7133e-003   2.4542e+007  -7.3314e+005   1.0718e+007    0.0728   -0.0000    0.0000    0.0022    0.0932
                0.8588   1.2147e-003  -1.9239e-004   2.7393e-003   2.3235e+007  -6.7324e+005   1.0820e+007    0.0689   -0.0000    0.0000    0.0020    0.0941
                0.8767   1.1498e-003  -1.8115e-004   2.7595e-003   2.1996e+007  -6.1845e+005   1.0900e+007    0.0653   -0.0000    0.0000    0.0018    0.0948
                0.8916   1.0848e-003  -1.6987e-004   2.7749e-003   2.0754e+007  -5.6344e+005   1.0961e+007    0.0616   -0.0000    0.0000    0.0017    0.0953
                0.9021   1.0198e-003  -1.5930e-004   2.7850e-003   1.9513e+007  -5.2199e+005   1.1001e+007    0.0579   -0.0000    0.0000    0.0015    0.0957
                0.9091   8.9911e-004  -1.4027e-004   2.7912e-003   1.7204e+007  -4.5677e+005   1.1025e+007    0.0510   -0.0000    0.0000    0.0014    0.0959
                0.9145   8.0996e-004  -1.2581e-004   2.7955e-003   1.5499e+007  -4.0073e+005   1.1042e+007    0.0460   -0.0000    0.0000    0.0012    0.0960
                0.9166   7.8782e-004  -1.2193e-004   2.7971e-003   1.5077e+007  -3.8118e+005   1.1049e+007    0.0447   -0.0000    0.0000    0.0011    0.0961

               lamina:  2     
              matName:  (blade-root)
                     s           e11           e22           e12           s11           s22           s12   s11_fcT   s11_fcC   s22_fcT   s22_fcC   s12_fcS
                   (m)         (m/m)         (m/m)         (rad)          (Pa)          (Pa)          (Pa)       (-)       (-)       (-)       (-)       (-)
                0.0000   3.8124e-003  -6.5787e-004   1.4451e-004   1.3703e+008   5.1310e+006   5.9538e+005    0.1364   -0.0000    0.1002   -0.0000    0.0053
                0.0082   3.7969e-003  -6.5520e-004   1.0068e-004   1.3648e+008   5.1100e+006   4.1478e+005    0.1358   -0.0000    0.0998   -0.0000    0.0037
                0.0613   3.6628e-003  -6.3173e-004   1.7946e-004   1.3166e+008   4.9325e+006   7.3937e+005    0.1310   -0.0000    0.0963   -0.0000    0.0066
                0.1144   3.5287e-003  -6.0825e-004   4.4887e-004   1.2684e+008   4.7547e+006   1.8493e+006    0.1262   -0.0000    0.0929   -0.0000    0.0165
                0.1675   3.3660e-003  -5.7980e-004   7.0714e-004   1.2099e+008   4.5392e+006   2.9134e+006    0.1204   -0.0000    0.0887   -0.0000    0.0260
                0.2205   3.1917e-003  -5.4928e-004   9.5220e-004   1.1473e+008   4.3084e+006   3.9230e+006    0.1142   -0.0000    0.0841   -0.0000    0.0350
                0.2729   3.0181e-003  -5.1889e-004   1.1809e-003   1.0849e+008   4.0784e+006   4.8655e+006    0.1079   -0.0000    0.0797   -0.0000    0.0434
                0.3247   2.8249e-003  -4.8506e-004   1.3936e-003   1.0154e+008   3.8225e+006   5.7417e+006    0.1010   -0.0000    0.0747   -0.0000    0.0513
                0.3756   2.6358e-003  -4.5193e-004   1.5884e-003   9.4750e+007   3.5722e+006   6.5441e+006    0.0943   -0.0000    0.0698   -0.0000    0.0584
                0.4252   2.4485e-003  -4.1913e-004   1.7647e-003   8.8019e+007   3.3243e+006   7.2707e+006    0.0876   -0.0000    0.0649   -0.0000    0.0649
                0.4735   2.2629e-003  -3.8662e-004   1.9231e-003   8.1350e+007   3.0787e+006   7.9231e+006    0.0809   -0.0000    0.0601   -0.0000    0.0707
                0.5203   2.0838e-003  -3.5522e-004   2.0638e-003   7.4912e+007   2.8417e+006   8.5028e+006    0.0745   -0.0000    0.0555   -0.0000    0.0759
                0.5651   1.9162e-003  -3.2586e-004   2.1874e-003   6.8891e+007   2.6201e+006   9.0123e+006    0.0685   -0.0000    0.0512   -0.0000    0.0805
                0.6079   1.7573e-003  -2.9801e-004   2.2953e-003   6.3180e+007   2.4099e+006   9.4564e+006    0.0629   -0.0000    0.0471   -0.0000    0.0844
                0.6485   1.6082e-003  -2.7187e-004   2.3885e-003   5.7822e+007   2.2127e+006   9.8408e+006    0.0575   -0.0000    0.0432   -0.0000    0.0879
                0.6868   1.4761e-003  -2.4871e-004   2.4683e-003   5.3075e+007   2.0381e+006   1.0170e+007    0.0528   -0.0000    0.0398   -0.0000    0.0908
                0.7225   1.3525e-003  -2.2705e-004   2.5363e-003   4.8633e+007   1.8746e+006   1.0449e+007    0.0484   -0.0000    0.0366   -0.0000    0.0933
                0.7556   1.2427e-003  -2.0778e-004   2.5935e-003   4.4685e+007   1.7294e+006   1.0685e+007    0.0445   -0.0000    0.0338   -0.0000    0.0954
                0.7858   1.1458e-003  -1.9080e-004   2.6414e-003   4.1204e+007   1.6012e+006   1.0882e+007    0.0410   -0.0000    0.0313   -0.0000    0.0972
                0.8132   1.0580e-003  -1.7541e-004   2.6809e-003   3.8049e+007   1.4851e+006   1.1045e+007    0.0379   -0.0000    0.0290   -0.0000    0.0986
                0.8376   9.8031e-004  -1.6180e-004   2.7133e-003   3.5257e+007   1.3823e+006   1.1179e+007    0.0351   -0.0000    0.0270   -0.0000    0.0998
                0.8588   9.1227e-004  -1.4989e-004   2.7393e-003   3.2812e+007   1.2922e+006   1.1286e+007    0.0326   -0.0000    0.0252   -0.0000    0.1008
                0.8767   8.4928e-004  -1.3892e-004   2.7595e-003   3.0548e+007   1.2083e+006   1.1369e+007    0.0304   -0.0000    0.0236   -0.0000    0.1015
                0.8916   7.8606e-004  -1.2790e-004   2.7749e-003   2.8276e+007   1.1241e+006   1.1433e+007    0.0281   -0.0000    0.0220   -0.0000    0.1021
                0.9021   7.3315e-004  -1.1903e-004   2.7850e-003   2.6373e+007   1.0507e+006   1.1474e+007    0.0262   -0.0000    0.0205   -0.0000    0.1024
                0.9091   6.4377e-004  -1.0440e-004   2.7912e-003   2.3159e+007   9.2362e+005   1.1500e+007    0.0230   -0.0000    0.0180   -0.0000    0.1027
                0.9145   5.7179e-004  -9.2352e-005   2.7955e-003   2.0570e+007   8.2356e+005   1.1518e+007    0.0205   -0.0000    0.0161   -0.0000    0.1028
                0.9166   5.4965e-004  -8.8472e-005   2.7971e-003   1.9775e+007   7.9426e+005   1.1524e+007    0.0197   -0.0000    0.0155   -0.0000    0.1029

               lamina:  3     
              matName:  (TEP-core)
                     s           e11           e22           e12           s11           s22           s12   s11_fcT   s11_fcC   s22_fcT   s22_fcC   s12_fcS
                   (m)         (m/m)         (m/m)         (rad)          (Pa)          (Pa)          (Pa)       (-)       (-)       (-)       (-)       (-)
                0.0000   3.6099e-003  -6.2941e-004   1.4451e-004   8.0176e+005   1.3241e+005   1.4162e+004    0.1869   -0.0000    0.0309   -0.0000    0.0048
                0.0082   3.5954e-003  -6.2690e-004   1.0068e-004   7.9856e+005   1.3188e+005   9.8662e+003    0.1861   -0.0000    0.0307   -0.0000    0.0033
                0.0613   3.4616e-003  -6.0346e-004   1.7946e-004   7.6885e+005   1.2699e+005   1.7587e+004    0.1792   -0.0000    0.0296   -0.0000    0.0060
                0.1144   3.3280e-003  -5.8005e-004   4.4887e-004   7.3918e+005   1.2212e+005   4.3989e+004    0.1723   -0.0000    0.0285   -0.0000    0.0149
                0.1675   3.1663e-003  -5.5173e-004   7.0714e-004   7.0327e+005   1.1621e+005   6.9299e+004    0.1639   -0.0000    0.0271   -0.0000    0.0235
                0.2205   2.9923e-003  -5.2126e-004   9.5220e-004   6.6464e+005   1.0987e+005   9.3315e+004    0.1549   -0.0000    0.0256   -0.0000    0.0316
                0.2729   2.8193e-003  -4.9095e-004   1.1809e-003   6.2622e+005   1.0355e+005   1.1573e+005    0.1460   -0.0000    0.0241   -0.0000    0.0392
                0.3247   2.6266e-003  -4.5721e-004   1.3936e-003   5.8345e+005   9.6525e+004   1.3657e+005    0.1360   -0.0000    0.0225   -0.0000    0.0463
                0.3756   2.4376e-003  -4.2409e-004   1.5884e-003   5.4148e+005   8.9630e+004   1.5566e+005    0.1262   -0.0000    0.0209   -0.0000    0.0528
                0.4252   2.2505e-003  -3.9131e-004   1.7647e-003   4.9994e+005   8.2804e+004   1.7294e+005    0.1165   -0.0000    0.0193   -0.0000    0.0586
                0.4735   2.0651e-003  -3.5882e-004   1.9231e-003   4.5876e+005   7.6038e+004   1.8846e+005    0.1069   -0.0000    0.0177   -0.0000    0.0639
                0.5203   1.8858e-003  -3.2741e-004   2.0638e-003   4.1895e+005   6.9498e+004   2.0225e+005    0.0977   -0.0000    0.0162   -0.0000    0.0686
                0.5651   1.7181e-003  -2.9801e-004   2.1874e-003   3.8171e+005   6.3380e+004   2.1437e+005    0.0890   -0.0000    0.0148   -0.0000    0.0727
                0.6079   1.5590e-003  -2.7015e-004   2.2953e-003   3.4640e+005   5.7580e+004   2.2493e+005    0.0807   -0.0000    0.0134   -0.0000    0.0762
                0.6485   1.4096e-003  -2.4396e-004   2.3885e-003   3.1322e+005   5.2129e+004   2.3408e+005    0.0730   -0.0000    0.0122   -0.0000    0.0793
                0.6868   1.2772e-003  -2.2076e-004   2.4683e-003   2.8382e+005   4.7301e+004   2.4190e+005    0.0662   -0.0000    0.0110   -0.0000    0.0820
                0.7225   1.1534e-003  -1.9907e-004   2.5363e-003   2.5634e+005   4.2786e+004   2.4855e+005    0.0598   -0.0000    0.0100   -0.0000    0.0843
                0.7556   1.0432e-003  -1.7975e-004   2.5935e-003   2.3187e+005   3.8767e+004   2.5417e+005    0.0540   -0.0000    0.0090   -0.0000    0.0862
                0.7858   9.4615e-004  -1.6275e-004   2.6414e-003   2.1032e+005   3.5228e+004   2.5885e+005    0.0490   -0.0000    0.0082   -0.0000    0.0877
                0.8132   8.5833e-004  -1.4736e-004   2.6809e-003   1.9082e+005   3.2024e+004   2.6273e+005    0.0445   -0.0000    0.0075   -0.0000    0.0891
                0.8376   7.8061e-004  -1.3374e-004   2.7133e-003   1.7356e+005   2.9189e+004   2.6590e+005    0.0405   -0.0000    0.0068   -0.0000    0.0901
                0.8588   7.1285e-004  -1.2187e-004   2.7393e-003   1.5851e+005   2.6716e+004   2.6845e+005    0.0369   -0.0000    0.0062   -0.0000    0.0910
                0.8767   6.5111e-004  -1.1108e-004   2.7595e-003   1.4480e+005   2.4460e+004   2.7043e+005    0.0338   -0.0000    0.0057   -0.0000    0.0917
                0.8916   5.8910e-004  -1.0023e-004   2.7749e-003   1.3104e+005   2.2193e+004   2.7194e+005    0.0305   -0.0000    0.0052   -0.0000    0.0922
                0.9021   5.4414e-004  -9.2472e-005   2.7850e-003   1.2104e+005   2.0525e+004   2.7293e+005    0.0282   -0.0000    0.0048   -0.0000    0.0925
                0.9091   4.7541e-004  -8.0743e-005   2.7912e-003   1.0576e+005   1.7944e+004   2.7354e+005    0.0247   -0.0000    0.0042   -0.0000    0.0927
                0.9145   4.1476e-004  -7.0289e-005   2.7955e-003   9.2278e+004   1.5691e+004   2.7396e+005    0.0215   -0.0000    0.0037   -0.0000    0.0929
                0.9166   3.9262e-004  -6.6409e-005   2.7971e-003   8.7362e+004   1.4883e+004   2.7412e+005    0.0204   -0.0000    0.0035   -0.0000    0.0929

               lamina:  4     
              matName:  (blade-root)
                     s           e11           e22           e12           s11           s22           s12   s11_fcT   s11_fcC   s22_fcT   s22_fcC   s12_fcS
                   (m)         (m/m)         (m/m)         (rad)          (Pa)          (Pa)          (Pa)       (-)       (-)       (-)       (-)       (-)
                0.0000   3.4329e-003  -6.0455e-004   1.4451e-004   1.2336e+008   4.5162e+006   5.9538e+005    0.1227   -0.0000    0.0882   -0.0000    0.0053
                0.0082   3.4194e-003  -6.0217e-004   1.0068e-004   1.2287e+008   4.4985e+006   4.1478e+005    0.1223   -0.0000    0.0879   -0.0000    0.0037
                0.0613   3.2858e-003  -5.7876e-004   1.7946e-004   1.1807e+008   4.3218e+006   7.3937e+005    0.1175   -0.0000    0.0844   -0.0000    0.0066
                0.1144   3.1527e-003  -5.5542e-004   4.4887e-004   1.1329e+008   4.1456e+006   1.8493e+006    0.1127   -0.0000    0.0810   -0.0000    0.0165
                0.1675   2.9917e-003  -5.2721e-004   7.0714e-004   1.0750e+008   3.9328e+006   2.9134e+006    0.1070   -0.0000    0.0768   -0.0000    0.0260
                0.2205   2.8181e-003  -4.9677e-004   9.5220e-004   1.0126e+008   3.7030e+006   3.9230e+006    0.1008   -0.0000    0.0723   -0.0000    0.0350
                0.2729   2.6456e-003  -4.6654e-004   1.1809e-003   9.5064e+007   3.4749e+006   4.8655e+006    0.0946   -0.0000    0.0679   -0.0000    0.0434
                0.3247   2.4534e-003  -4.3287e-004   1.3936e-003   8.8160e+007   3.2207e+006   5.7417e+006    0.0877   -0.0000    0.0629   -0.0000    0.0513
                0.3756   2.2645e-003  -3.9977e-004   1.5884e-003   8.1370e+007   2.9707e+006   6.5441e+006    0.0810   -0.0000    0.0580   -0.0000    0.0584
                0.4252   2.0776e-003  -3.6701e-004   1.7647e-003   7.4652e+007   2.7234e+006   7.2707e+006    0.0743   -0.0000    0.0532   -0.0000    0.0649
                0.4735   1.8922e-003  -3.3453e-004   1.9231e-003   6.7991e+007   2.4781e+006   7.9231e+006    0.0677   -0.0000    0.0484   -0.0000    0.0707
                0.5203   1.7128e-003  -3.0310e-004   2.0638e-003   6.1543e+007   2.2407e+006   8.5028e+006    0.0612   -0.0000    0.0438   -0.0000    0.0759
                0.5651   1.5449e-003  -2.7368e-004   2.1874e-003   5.5510e+007   2.0185e+006   9.0123e+006    0.0552   -0.0000    0.0394   -0.0000    0.0805
                0.6079   1.3858e-003  -2.4581e-004   2.2953e-003   4.9792e+007   1.8080e+006   9.4564e+006    0.0495   -0.0000    0.0353   -0.0000    0.0844
                0.6485   1.2360e-003  -2.1958e-004   2.3885e-003   4.4410e+007   1.6098e+006   9.8408e+006    0.0442   -0.0000    0.0314   -0.0000    0.0879
                0.6868   1.1034e-003  -1.9634e-004   2.4683e-003   3.9642e+007   1.4342e+006   1.0170e+007    0.0394   -0.0000    0.0280   -0.0000    0.0908
                0.7225   9.7943e-004  -1.7463e-004   2.5363e-003   3.5189e+007   1.2702e+006   1.0449e+007    0.0350   -0.0000    0.0248   -0.0000    0.0933
                0.7556   8.6892e-004  -1.5527e-004   2.5935e-003   3.1218e+007   1.1239e+006   1.0685e+007    0.0311   -0.0000    0.0220   -0.0000    0.0954
                0.7858   7.7173e-004  -1.3824e-004   2.6414e-003   2.7725e+007   9.9529e+005   1.0882e+007    0.0276   -0.0000    0.0194   -0.0000    0.0972
                0.8132   6.8388e-004  -1.2285e-004   2.6809e-003   2.4568e+007   8.7903e+005   1.1045e+007    0.0244   -0.0000    0.0172   -0.0000    0.0986
                0.8376   6.0613e-004  -1.0923e-004   2.7133e-003   2.1774e+007   7.7615e+005   1.1179e+007    0.0217   -0.0000    0.0152   -0.0000    0.0998
                0.8588   5.3861e-004  -9.7393e-005   2.7393e-003   1.9347e+007   6.8684e+005   1.1286e+007    0.0193   -0.0000    0.0134   -0.0000    0.1008
                0.8767   4.7797e-004  -8.6749e-005   2.7595e-003   1.7168e+007   6.0676e+005   1.1369e+007    0.0171   -0.0000    0.0119   -0.0000    0.1015
                0.8916   4.1702e-004  -7.6052e-005   2.7749e-003   1.4978e+007   5.2627e+005   1.1433e+007    0.0149   -0.0000    0.0103   -0.0000    0.1021
                0.9021   3.7899e-004  -6.9270e-005   2.7850e-003   1.3612e+007   4.7699e+005   1.1474e+007    0.0135   -0.0000    0.0093   -0.0000    0.1024
                0.9091   3.2831e-004  -6.0076e-005   2.7912e-003   1.1791e+007   4.1260e+005   1.1500e+007    0.0117   -0.0000    0.0081   -0.0000    0.1027
                0.9145   2.7756e-004  -5.1012e-005   2.7955e-003   9.9678e+006   3.4691e+005   1.1518e+007    0.0099   -0.0000    0.0068   -0.0000    0.1028
                0.9166   2.5542e-004  -4.7133e-005   2.7971e-003   9.1721e+006   3.1761e+005   1.1524e+007    0.0091   -0.0000    0.0062   -0.0000    0.1029

               lamina:  5     
              matName:  (blade-shell)
                     s           e11           e22           e12           s11           s22           s12   s11_fcT   s11_fcC   s22_fcT   s22_fcC   s12_fcS
                   (m)         (m/m)         (m/m)         (rad)          (Pa)          (Pa)          (Pa)       (-)       (-)       (-)       (-)       (-)
                0.0000   3.2304e-003  -5.7609e-004   1.4451e-004   6.1626e+007  -3.0495e+006   5.7081e+005    0.1829   -0.0000    0.0000    0.0090    0.0050
                0.0082   3.2180e-003  -5.7387e-004   1.0068e-004   6.1391e+007  -3.0375e+006   3.9767e+005    0.1822   -0.0000    0.0000    0.0090    0.0035
                0.0613   3.0846e-003  -5.5049e-004   1.7946e-004   5.8845e+007  -2.9195e+006   7.0886e+005    0.1746   -0.0000    0.0000    0.0087    0.0062
                0.1144   2.9520e-003  -5.2723e-004   4.4887e-004   5.6314e+007  -2.8019e+006   1.7730e+006    0.1671   -0.0000    0.0000    0.0083    0.0154
                0.1675   2.7920e-003  -4.9914e-004   7.0714e-004   5.3260e+007  -2.6597e+006   2.7932e+006    0.1580   -0.0000    0.0000    0.0079    0.0243
                0.2205   2.6186e-003  -4.6876e-004   9.5220e-004   4.9952e+007  -2.5064e+006   3.7612e+006    0.1482   -0.0000    0.0000    0.0074    0.0327
                0.2729   2.4467e-003  -4.3861e-004   1.1809e-003   4.6671e+007  -2.3540e+006   4.6647e+006    0.1385   -0.0000    0.0000    0.0070    0.0406
                0.3247   2.2552e-003  -4.0502e-004   1.3936e-003   4.3016e+007  -2.1843e+006   5.5048e+006    0.1276   -0.0000    0.0000    0.0065    0.0479
                0.3756   2.0663e-003  -3.7193e-004   1.5884e-003   3.9411e+007  -2.0175e+006   6.2741e+006    0.1169   -0.0000    0.0000    0.0060    0.0546
                0.4252   1.8796e-003  -3.3920e-004   1.7647e-003   3.5847e+007  -1.8524e+006   6.9707e+006    0.1064   -0.0000    0.0000    0.0055    0.0606
                0.4735   1.6944e-003  -3.0673e-004   1.9231e-003   3.2312e+007  -1.6887e+006   7.5962e+006    0.0959   -0.0000    0.0000    0.0050    0.0661
                0.5203   1.5148e-003  -2.7528e-004   2.0638e-003   2.8885e+007  -1.5303e+006   8.1520e+006    0.0857   -0.0000    0.0000    0.0045    0.0709
                0.5651   1.3467e-003  -2.4584e-004   2.1874e-003   2.5677e+007  -1.3821e+006   8.6404e+006    0.0762   -0.0000    0.0000    0.0041    0.0751
                0.6079   1.1875e-003  -2.1795e-004   2.2953e-003   2.2639e+007  -1.2416e+006   9.0663e+006    0.0672   -0.0000    0.0000    0.0037    0.0788
                0.6485   1.0374e-003  -1.9167e-004   2.3885e-003   1.9774e+007  -1.1094e+006   9.4348e+006    0.0587   -0.0000    0.0000    0.0033    0.0820
                0.6868   9.0441e-004  -1.6838e-004   2.4683e-003   1.7236e+007  -9.9234e+005   9.7500e+006    0.0511   -0.0000    0.0000    0.0029    0.0848
                0.7225   7.8031e-004  -1.4665e-004   2.5363e-003   1.4867e+007  -8.8293e+005   1.0018e+007    0.0441   -0.0000    0.0000    0.0026    0.0871
                0.7556   6.6946e-004  -1.2724e-004   2.5935e-003   1.2752e+007  -7.8539e+005   1.0244e+007    0.0378   -0.0000    0.0000    0.0023    0.0891
                0.7858   5.7210e-004  -1.1019e-004   2.6414e-003   1.0893e+007  -6.9959e+005   1.0433e+007    0.0323   -0.0000    0.0000    0.0021    0.0907
                0.8132   4.8421e-004  -9.4797e-005   2.6809e-003   9.2160e+006  -6.2202e+005   1.0590e+007    0.0273   -0.0000    0.0000    0.0018    0.0921
                0.8376   4.0643e-004  -8.1171e-005   2.7133e-003   7.7315e+006  -5.5338e+005   1.0718e+007    0.0229   -0.0000    0.0000    0.0016    0.0932
                0.8588   3.3918e-004  -6.9375e-005   2.7393e-003   6.4481e+006  -4.9374e+005   1.0820e+007    0.0191   -0.0000    0.0000    0.0015    0.0941
                0.8767   2.7980e-004  -5.8907e-005   2.7595e-003   5.3149e+006  -4.4008e+005   1.0900e+007    0.0158   -0.0000    0.0000    0.0013    0.0948
                0.8916   2.2006e-004  -4.8380e-005   2.7749e-003   4.1750e+006  -3.8615e+005   1.0961e+007    0.0124   -0.0000    0.0000    0.0011    0.0953
                0.9021   1.8998e-004  -4.2714e-005   2.7850e-003   3.6020e+006  -3.5186e+005   1.1001e+007    0.0107   -0.0000    0.0000    0.0010    0.0957
                0.9091   1.5996e-004  -3.6423e-005   2.7912e-003   3.0315e+006  -3.0523e+005   1.1025e+007    0.0090   -0.0000    0.0000    0.0009    0.0959
                0.9145   1.2053e-004  -2.8950e-005   2.7955e-003  -2.2861e+006  -2.5938e+005   1.1042e+007    0.0000    0.0046    0.0000    0.0008    0.0960
                0.9166  -1.3978e-004  -2.5070e-005   2.7971e-003  -2.7087e+006  -2.3983e+005   1.1049e+007    0.0000    0.0055    0.0000    0.0007    0.0961

     Web:  panel  nNode   nLam     xc_St    xc_End         b         t         E_eff         G_eff      nu_eff     density  buckleCrit
            (-)    (-)    (-)       (-)       (-)       (m)       (m)          (Pa)          (Pa)         (-)    (kg/m^3)         (-)
              1     10      3    0.2365    0.2365    0.4220    0.0121   6.5707e+009   1.3870e+009      0.1347    691.8998      0.2201
              2     10      3    0.4635    0.4635    0.4182    0.0121   6.5707e+009   1.3870e+009      0.1347    691.8998      0.2715

            panel:  1     
           lam_num    nPlies        tPly      fibAng     matID  matName
               (-)       (-)         (m)       (deg)       (-)  (-)
                 1         1    0.002023      0.0000         7  (web-shell)
                 2         1    0.008047      0.0000         8  (web-core)
                 3         1    0.002023      0.0000         7  (web-shell)

               lamina:  1     
              matName:  (web-shell)
                     s           e11           e22           e12           s11           s22           s12   s11_fcT   s11_fcC   s22_fcT   s22_fcC   s12_fcS
                   (m)         (m/m)         (m/m)         (rad)          (Pa)          (Pa)          (Pa)       (-)       (-)       (-)       (-)       (-)
                0.0000  -3.4216e-003   4.6085e-004   7.2094e-003  -6.5655e+007   3.1322e+005   2.8477e+007    0.0000    0.1321    0.0009   -0.0000    0.2476
                0.0469  -2.6654e-003   3.5899e-004   7.3737e-003  -5.1144e+007   2.4401e+005   2.9126e+007    0.0000    0.1029    0.0007   -0.0000    0.2533
                0.0938  -1.9091e-003   2.5714e-004   7.4980e-003  -3.6633e+007   1.7480e+005   2.9617e+007    0.0000    0.0737    0.0005   -0.0000    0.2575
                0.1407  -1.1529e-003   1.5528e-004   7.5822e-003  -2.2122e+007   1.0558e+005   2.9950e+007    0.0000    0.0445    0.0003   -0.0000    0.2604
                0.1875  -3.9667e-004   5.3430e-005   7.6264e-003  -7.6114e+006   3.6370e+004   3.0124e+007    0.0000    0.0153    0.0001   -0.0000    0.2620
                0.2344   3.6003e-004  -4.8485e-005   7.6305e-003   6.9082e+006  -3.2852e+004   3.0140e+007    0.0205   -0.0000    0.0000    0.0001    0.2621
                0.2813   1.1163e-003  -1.5034e-004   7.5945e-003   2.1419e+007  -1.0207e+005   2.9998e+007    0.0636   -0.0000    0.0000    0.0003    0.2609
                0.3282   1.8725e-003  -2.5220e-004   7.5185e-003   3.5930e+007  -1.7128e+005   2.9698e+007    0.1066   -0.0000    0.0000    0.0005    0.2582
                0.3751   2.6287e-003  -3.5405e-004   7.4024e-003   5.0441e+007  -2.4049e+005   2.9239e+007    0.1497   -0.0000    0.0000    0.0007    0.2543
                0.4220   3.3850e-003  -4.5591e-004   7.2462e-003   6.4951e+007  -3.0971e+005   2.8622e+007    0.1927   -0.0000    0.0000    0.0009    0.2489

               lamina:  2     
              matName:  (web-core)
                     s           e11           e22           e12           s11           s22           s12   s11_fcT   s11_fcC   s22_fcT   s22_fcC   s12_fcS
                   (m)         (m/m)         (m/m)         (rad)          (Pa)          (Pa)          (Pa)       (-)       (-)       (-)       (-)       (-)
                0.0000  -3.4234e-003   4.6109e-004   7.2094e-003  -7.7092e+005  -1.5758e+005   7.0652e+005    0.0000    0.1797    0.0000    0.0367    0.2395
                0.0469  -2.6672e-003   3.5923e-004   7.3737e-003  -6.0063e+005  -1.2277e+005   7.2263e+005    0.0000    0.1400    0.0000    0.0286    0.2450
                0.0938  -1.9110e-003   2.5738e-004   7.4980e-003  -4.3033e+005  -8.7960e+004   7.3481e+005    0.0000    0.1003    0.0000    0.0205    0.2491
                0.1407  -1.1547e-003   1.5552e-004   7.5822e-003  -2.6003e+005  -5.3151e+004   7.4306e+005    0.0000    0.0606    0.0000    0.0124    0.2519
                0.1875  -3.9849e-004   5.3668e-005   7.6264e-003  -8.9736e+004  -1.8343e+004   7.4739e+005    0.0000    0.0209    0.0000    0.0043    0.2534
                0.2344   3.5957e-004  -4.8426e-005   7.6305e-003   8.0971e+004   1.6551e+004   7.4779e+005    0.0189   -0.0000    0.0039   -0.0000    0.2535
                0.2813   1.1158e-003  -1.5028e-004   7.5945e-003   2.5127e+005   5.1360e+004   7.4426e+005    0.0586   -0.0000    0.0120   -0.0000    0.2523
                0.3282   1.8720e-003  -2.5214e-004   7.5185e-003   4.2157e+005   8.6168e+004   7.3681e+005    0.0983   -0.0000    0.0201   -0.0000    0.2498
                0.3751   2.6283e-003  -3.5399e-004   7.4024e-003   5.9186e+005   1.2098e+005   7.2543e+005    0.1380   -0.0000    0.0282   -0.0000    0.2459
                0.4220   3.3845e-003  -4.5585e-004   7.2462e-003   7.6216e+005   1.5578e+005   7.1013e+005    0.1777   -0.0000    0.0363   -0.0000    0.2407

               lamina:  3     
              matName:  (web-shell)
                     s           e11           e22           e12           s11           s22           s12   s11_fcT   s11_fcC   s22_fcT   s22_fcC   s12_fcS
                   (m)         (m/m)         (m/m)         (rad)          (Pa)          (Pa)          (Pa)       (-)       (-)       (-)       (-)       (-)
                0.0000  -3.4239e-003   4.6115e-004   7.2094e-003  -6.5698e+007   3.1327e+005   2.8477e+007    0.0000    0.1322    0.0009   -0.0000    0.2476
                0.0469  -2.6677e-003   3.5929e-004   7.3737e-003  -5.1187e+007   2.4406e+005   2.9126e+007    0.0000    0.1030    0.0007   -0.0000    0.2533
                0.0938  -1.9114e-003   2.5744e-004   7.4980e-003  -3.6677e+007   1.7484e+005   2.9617e+007    0.0000    0.0738    0.0005   -0.0000    0.2575
                0.1407  -1.1552e-003   1.5558e-004   7.5822e-003  -2.2166e+007   1.0563e+005   2.9950e+007    0.0000    0.0446    0.0003   -0.0000    0.2604
                0.1875  -3.9895e-004   5.3728e-005   7.6264e-003  -7.6550e+006   3.6415e+004   3.0124e+007    0.0000    0.0154    0.0001   -0.0000    0.2620
                0.2344   3.5775e-004  -4.8187e-005   7.6305e-003   6.8645e+006  -3.2808e+004   3.0140e+007    0.0204   -0.0000    0.0000    0.0001    0.2621
                0.2813   1.1140e-003  -1.5004e-004   7.5945e-003   2.1375e+007  -1.0202e+005   2.9998e+007    0.0634   -0.0000    0.0000    0.0003    0.2609
                0.3282   1.8702e-003  -2.5190e-004   7.5185e-003   3.5886e+007  -1.7124e+005   2.9698e+007    0.1065   -0.0000    0.0000    0.0005    0.2582
                0.3751   2.6265e-003  -3.5375e-004   7.4024e-003   5.0397e+007  -2.4045e+005   2.9239e+007    0.1495   -0.0000    0.0000    0.0007    0.2543
                0.4220   3.3827e-003  -4.5561e-004   7.2462e-003   6.4908e+007  -3.0966e+005   2.8622e+007    0.1926   -0.0000    0.0000    0.0009    0.2489

            panel:  2     
           lam_num    nPlies        tPly      fibAng     matID  matName
               (-)       (-)         (m)       (deg)       (-)  (-)
                 1         1    0.002023      0.0000         7  (web-shell)
                 2         1    0.008047      0.0000         8  (web-core)
                 3         1    0.002023      0.0000         7  (web-shell)

               lamina:  1     
              matName:  (web-shell)
                     s           e11           e22           e12           s11           s22           s12   s11_fcT   s11_fcC   s22_fcT   s22_fcC   s12_fcS
                   (m)         (m/m)         (m/m)         (rad)          (Pa)          (Pa)          (Pa)       (-)       (-)       (-)       (-)       (-)
                0.0000  -3.4712e-003   4.6753e-004   8.3470e-003  -6.6606e+007   3.1775e+005   3.2971e+007    0.0000    0.1340    0.0009   -0.0000    0.2867
                0.0465  -2.7216e-003   3.6657e-004   8.5094e-003  -5.2223e+007   2.4915e+005   3.3612e+007    0.0000    0.1051    0.0007   -0.0000    0.2923
                0.0929  -1.9721e-003   2.6561e-004   8.6325e-003  -3.7840e+007   1.8055e+005   3.4098e+007    0.0000    0.0761    0.0005   -0.0000    0.2965
                0.1394  -1.2225e-003   1.6466e-004   8.7162e-003  -2.3457e+007   1.1194e+005   3.4429e+007    0.0000    0.0472    0.0003   -0.0000    0.2994
                0.1859  -4.7292e-004   6.3698e-005   8.7606e-003  -9.0744e+006   4.3340e+004   3.4604e+007    0.0000    0.0183    0.0001   -0.0000    0.3009
                0.2323   2.7705e-004  -3.7311e-005   8.7656e-003   5.3161e+006  -2.5271e+004   3.4624e+007    0.0158   -0.0000    0.0000    0.0001    0.3011
                0.2788   1.0266e-003  -1.3827e-004   8.7312e-003   1.9699e+007  -9.3874e+004   3.4488e+007    0.0585   -0.0000    0.0000    0.0003    0.2999
                0.3253   1.7762e-003  -2.3922e-004   8.6575e-003   3.4082e+007  -1.6248e+005   3.4197e+007    0.1011   -0.0000    0.0000    0.0005    0.2974
                0.3718   2.5258e-003  -3.4018e-004   8.5444e-003   4.8465e+007  -2.3108e+005   3.3750e+007    0.1438   -0.0000    0.0000    0.0007    0.2935
                0.4182   3.2753e-003  -4.4114e-004   8.3919e-003   6.2848e+007  -2.9968e+005   3.3148e+007    0.1865   -0.0000    0.0000    0.0009    0.2882

               lamina:  2     
              matName:  (web-core)
                     s           e11           e22           e12           s11           s22           s12   s11_fcT   s11_fcC   s22_fcT   s22_fcC   s12_fcS
                   (m)         (m/m)         (m/m)         (rad)          (Pa)          (Pa)          (Pa)       (-)       (-)       (-)       (-)       (-)
                0.0000  -3.4728e-003   4.6773e-004   8.3470e-003  -7.8204e+005  -1.5985e+005   8.1801e+005    0.0000    0.1823    0.0000    0.0373    0.2773
                0.0465  -2.7232e-003   3.6678e-004   8.5094e-003  -6.1324e+005  -1.2535e+005   8.3393e+005    0.0000    0.1429    0.0000    0.0292    0.2827
                0.0929  -1.9736e-003   2.6582e-004   8.6325e-003  -4.4444e+005  -9.0844e+004   8.4599e+005    0.0000    0.1036    0.0000    0.0212    0.2868
                0.1394  -1.2241e-003   1.6486e-004   8.7162e-003  -2.7565e+005  -5.6343e+004   8.5419e+005    0.0000    0.0643    0.0000    0.0131    0.2896
                0.1859  -4.7450e-004   6.3906e-005   8.7606e-003  -1.0685e+005  -2.1841e+004   8.5854e+005    0.0000    0.0249    0.0000    0.0051    0.2910
                0.2323   2.7665e-004  -3.7259e-005   8.7656e-003   6.2300e+004   1.2735e+004   8.5903e+005    0.0145   -0.0000    0.0030   -0.0000    0.2912
                0.2788   1.0262e-003  -1.3822e-004   8.7312e-003   2.3110e+005   4.7236e+004   8.5566e+005    0.0539   -0.0000    0.0110   -0.0000    0.2901
                0.3253   1.7758e-003  -2.3917e-004   8.6575e-003   3.9989e+005   8.1738e+004   8.4843e+005    0.0932   -0.0000    0.0191   -0.0000    0.2876
                0.3718   2.5254e-003  -3.4013e-004   8.5444e-003   5.6869e+005   1.1624e+005   8.3735e+005    0.1326   -0.0000    0.0271   -0.0000    0.2838
                0.4182   3.2749e-003  -4.4109e-004   8.3919e-003   7.3748e+005   1.5074e+005   8.2241e+005    0.1719   -0.0000    0.0351   -0.0000    0.2788

               lamina:  3     
              matName:  (web-shell)
                     s           e11           e22           e12           s11           s22           s12   s11_fcT   s11_fcC   s22_fcT   s22_fcC   s12_fcS
                   (m)         (m/m)         (m/m)         (rad)          (Pa)          (Pa)          (Pa)       (-)       (-)       (-)       (-)       (-)
                0.0000  -3.4732e-003   4.6779e-004   8.3470e-003  -6.6644e+007   3.1779e+005   3.2971e+007    0.0000    0.1341    0.0009   -0.0000    0.2867
                0.0465  -2.7236e-003   3.6683e-004   8.5094e-003  -5.2261e+007   2.4919e+005   3.3612e+007    0.0000    0.1052    0.0007   -0.0000    0.2923
                0.0929  -1.9740e-003   2.6587e-004   8.6325e-003  -3.7878e+007   1.8059e+005   3.4098e+007    0.0000    0.0762    0.0005   -0.0000    0.2965
                0.1394  -1.2245e-003   1.6492e-004   8.7162e-003  -2.3495e+007   1.1198e+005   3.4429e+007    0.0000    0.0473    0.0003   -0.0000    0.2994
                0.1859  -4.7490e-004   6.3959e-005   8.7606e-003  -9.1125e+006   4.3379e+004   3.4604e+007    0.0000    0.0183    0.0001   -0.0000    0.3009
                0.2323   2.7507e-004  -3.7051e-005   8.7656e-003   5.2780e+006  -2.5232e+004   3.4624e+007    0.0157   -0.0000    0.0000    0.0001    0.3011
                0.2788   1.0246e-003  -1.3801e-004   8.7312e-003   1.9661e+007  -9.3836e+004   3.4488e+007    0.0583   -0.0000    0.0000    0.0003    0.2999
                0.3253   1.7742e-003  -2.3896e-004   8.6575e-003   3.4044e+007  -1.6244e+005   3.4197e+007    0.1010   -0.0000    0.0000    0.0005    0.2974
                0.3718   2.5238e-003  -3.3992e-004   8.5444e-003   4.8427e+007  -2.3104e+005   3.3750e+007    0.1437   -0.0000    0.0000    0.0007    0.2935
                0.4182   3.2734e-003  -4.4088e-004   8.3919e-003   6.2809e+007  -2.9965e+005   3.3148e+007    0.1864   -0.0000    0.0000    0.0009    0.2882

================================================================================
sec        =  7      
zSec       =  1.8000  (m)
nPanelsTop =  3      
nPanelsBot =  3      
nWebs      =  2      

    Top:  panel  nNode   nLam     xc_St    xc_End         b         t         E_eff         G_eff      nu_eff     density  buckleCrit
            (-)    (-)    (-)       (-)       (-)       (m)       (m)          (Pa)          (Pa)         (-)    (kg/m^3)         (-)
              1     18      3    0.0000    0.2401    0.4836    0.0125   1.8772e+010   3.8631e+009      0.1301   1636.8421      0.2277
              2      9      5    0.2401    0.4599    0.3700    0.0210   6.2525e+010   4.2583e+009      0.1719   1583.3213      0.2952
              3     28      3    0.4599    1.0000    0.9410    0.0166   1.4186e+010   2.9325e+009      0.1309   1281.6981      0.8990

            panel:  1     
           lam_num    nPlies        tPly      fibAng     matID  matName
               (-)       (-)         (m)       (deg)       (-)  (-)
                 1         1    0.006094      0.0000         2  (blade-shell)
                 2         1    0.000281      0.0000         5  (LEP-core)
                 3         1    0.006094      0.0000         2  (blade-shell)

               lamina:  1     
              matName:  (blade-shell)
                     s           e11           e22           e12           s11           s22           s12   s11_fcT   s11_fcC   s22_fcT   s22_fcC   s12_fcS
                   (m)         (m/m)         (m/m)         (rad)          (Pa)          (Pa)          (Pa)       (-)       (-)       (-)       (-)       (-)
                0.0000   4.8897e-004  -6.3593e-005   5.7069e-003   9.3881e+006  -5.3480e+002   2.2542e+007    0.0279   -0.0000    0.0000    0.0000    0.1960
                0.0059   3.5438e-004  -4.6090e-005   5.7085e-003   6.8041e+006  -3.8845e+002   2.2549e+007    0.0202   -0.0000    0.0000    0.0000    0.1961
                0.0233  -1.8690e-004   2.4299e-005   5.7075e-003  -3.5885e+006   4.2112e+001   2.2545e+007    0.0000    0.0072    0.0000   -0.0000    0.1960
                0.0446  -7.2676e-004   9.4508e-005   5.6951e-003  -1.3954e+007   5.5456e+002   2.2496e+007    0.0000    0.0281    0.0000   -0.0000    0.1956
                0.0622  -1.1087e-003   1.4418e-004   5.6763e-003  -2.1287e+007   9.0726e+002   2.2421e+007    0.0000    0.0428    0.0000   -0.0000    0.1950
                0.0854  -1.5663e-003   2.0369e-004   5.6409e-003  -3.0073e+007   1.3757e+003   2.2282e+007    0.0000    0.0605    0.0000   -0.0000    0.1938
                0.1089  -1.9732e-003   2.5660e-004   5.5937e-003  -3.7885e+007   1.7810e+003   2.2095e+007    0.0000    0.0762    0.0000   -0.0000    0.1921
                0.1355  -2.3738e-003   3.0870e-004   5.5280e-003  -4.5576e+007   2.2045e+003   2.1836e+007    0.0000    0.0917    0.0000   -0.0000    0.1899
                0.1653  -2.8216e-003   3.6694e-004   5.4400e-003  -5.4174e+007   2.6676e+003   2.1488e+007    0.0000    0.1090    0.0000   -0.0000    0.1869
                0.1954  -3.1732e-003   4.1267e-004   5.3371e-003  -6.0925e+007   3.0312e+003   2.1082e+007    0.0000    0.1226    0.0000   -0.0000    0.1833
                0.2291  -3.5530e-003   4.6207e-004   5.2081e-003  -6.8217e+007   3.4374e+003   2.0572e+007    0.0000    0.1373    0.0000   -0.0000    0.1789
                0.2645  -3.9107e-003   5.0859e-004   5.0573e-003  -7.5086e+007   3.8137e+003   1.9976e+007    0.0000    0.1511    0.0000   -0.0000    0.1737
                0.3017  -4.2233e-003   5.4924e-004   4.8839e-003  -8.1087e+007   4.1477e+003   1.9291e+007    0.0000    0.1632    0.0000   -0.0000    0.1678
                0.3415  -4.5582e-003   5.9279e-004   4.6839e-003  -8.7516e+007   4.5045e+003   1.8502e+007    0.0000    0.1761    0.0000   -0.0000    0.1609
                0.3824  -4.8133e-003   6.2597e-004   4.4646e-003  -9.2414e+007   4.7746e+003   1.7635e+007    0.0000    0.1859    0.0000   -0.0000    0.1533
                0.4255  -5.0596e-003   6.5800e-004   4.2211e-003  -9.7143e+007   5.0402e+003   1.6673e+007    0.0000    0.1955    0.0000   -0.0000    0.1450
                0.4703  -5.2933e-003   6.8841e-004   3.9555e-003  -1.0163e+008   5.2914e+003   1.5624e+007    0.0000    0.2045    0.0000   -0.0000    0.1359
                0.4836  -5.3403e-003   6.9451e-004   3.8748e-003  -1.0253e+008   5.3374e+003   1.5305e+007    0.0000    0.2063    0.0000   -0.0000    0.1331

               lamina:  2     
              matName:  (LEP-core)
                     s           e11           e22           e12           s11           s22           s12   s11_fcT   s11_fcC   s22_fcT   s22_fcC   s12_fcS
                   (m)         (m/m)         (m/m)         (rad)          (Pa)          (Pa)          (Pa)       (-)       (-)       (-)       (-)       (-)
                0.0000   4.9469e-004  -6.4336e-005   5.7069e-003   1.1158e+005   2.3309e+004   5.5928e+005    0.0260   -0.0000    0.0054   -0.0000    0.1896
                0.0059   3.6010e-004  -4.6833e-005   5.7085e-003   8.1221e+004   1.6968e+004   5.5943e+005    0.0189   -0.0000    0.0040   -0.0000    0.1896
                0.0233  -4.1998e-005   5.4619e-006   5.7075e-003  -9.4726e+003  -1.9790e+003   5.5934e+005    0.0000    0.0022    0.0000    0.0005    0.1896
                0.0446  -5.1478e-004   6.6950e-005   5.6951e-003  -1.1611e+005  -2.4256e+004   5.5812e+005    0.0000    0.0271    0.0000    0.0057    0.1892
                0.0622  -8.4041e-004   1.0930e-004   5.6763e-003  -1.8955e+005  -3.9600e+004   5.5628e+005    0.0000    0.0442    0.0000    0.0092    0.1886
                0.0854  -1.2718e-003   1.6541e-004   5.6409e-003  -2.8686e+005  -5.9927e+004   5.5281e+005    0.0000    0.0669    0.0000    0.0140    0.1874
                0.1089  -1.6453e-003   2.1398e-004   5.5937e-003  -3.7109e+005  -7.7524e+004   5.4818e+005    0.0000    0.0865    0.0000    0.0181    0.1858
                0.1355  -2.0350e-003   2.6466e-004   5.5280e-003  -4.5899e+005  -9.5889e+004   5.4174e+005    0.0000    0.1070    0.0000    0.0224    0.1836
                0.1653  -2.4613e-003   3.2011e-004   5.4400e-003  -5.5516e+005  -1.1598e+005   5.3312e+005    0.0000    0.1294    0.0000    0.0270    0.1807
                0.1954  -2.7961e-003   3.6365e-004   5.3371e-003  -6.3066e+005  -1.3175e+005   5.2304e+005    0.0000    0.1470    0.0000    0.0307    0.1773
                0.2291  -3.1698e-003   4.1226e-004   5.2081e-003  -7.1496e+005  -1.4936e+005   5.1039e+005    0.0000    0.1667    0.0000    0.0348    0.1730
                0.2645  -3.5162e-003   4.5730e-004   5.0573e-003  -7.9307e+005  -1.6568e+005   4.9561e+005    0.0000    0.1849    0.0000    0.0386    0.1680
                0.3017  -3.8235e-003   4.9726e-004   4.8839e-003  -8.6238e+005  -1.8016e+005   4.7862e+005    0.0000    0.2010    0.0000    0.0420    0.1622
                0.3415  -4.1517e-003   5.3995e-004   4.6839e-003  -9.3642e+005  -1.9563e+005   4.5902e+005    0.0000    0.2183    0.0000    0.0456    0.1556
                0.3824  -4.4003e-003   5.7228e-004   4.4646e-003  -9.9248e+005  -2.0734e+005   4.3753e+005    0.0000    0.2313    0.0000    0.0483    0.1483
                0.4255  -4.6445e-003   6.0405e-004   4.2211e-003  -1.0476e+006  -2.1885e+005   4.1366e+005    0.0000    0.2442    0.0000    0.0510    0.1402
                0.4703  -4.8756e-003   6.3410e-004   3.9555e-003  -1.0997e+006  -2.2974e+005   3.8764e+005    0.0000    0.2563    0.0000    0.0536    0.1314
                0.4836  -4.9180e-003   6.3962e-004   3.8748e-003  -1.1093e+006  -2.3174e+005   3.7973e+005    0.0000    0.2586    0.0000    0.0540    0.1287

               lamina:  3     
              matName:  (blade-shell)
                     s           e11           e22           e12           s11           s22           s12   s11_fcT   s11_fcC   s22_fcT   s22_fcC   s12_fcS
                   (m)         (m/m)         (m/m)         (rad)          (Pa)          (Pa)          (Pa)       (-)       (-)       (-)       (-)       (-)
                0.0000   6.1859e-004  -8.0444e-005   5.7069e-003   1.1877e+007  -5.3487e+002   2.2542e+007    0.0352   -0.0000    0.0000    0.0000    0.1960
                0.0059   4.8400e-004  -6.2940e-005   5.7085e-003   9.2928e+006  -3.8852e+002   2.2549e+007    0.0276   -0.0000    0.0000    0.0000    0.1961
                0.0233   1.0959e-004  -1.4245e-005   5.7075e-003   2.1042e+006   4.2030e+001   2.2545e+007    0.0062   -0.0000    0.0000   -0.0000    0.1960
                0.0446  -5.0500e-004   6.5678e-005   5.6951e-003  -9.6959e+006   5.5444e+002   2.2496e+007    0.0000    0.0195    0.0000   -0.0000    0.1956
                0.0622  -8.2803e-004   1.0769e-004   5.6763e-003  -1.5898e+007   9.0711e+002   2.2421e+007    0.0000    0.0320    0.0000   -0.0000    0.1950
                0.0854  -1.2582e-003   1.6364e-004   5.6409e-003  -2.4158e+007   1.3755e+003   2.2282e+007    0.0000    0.0486    0.0000   -0.0000    0.1938
                0.1089  -1.6301e-003   2.1201e-004   5.5937e-003  -3.1298e+007   1.7808e+003   2.2095e+007    0.0000    0.0630    0.0000   -0.0000    0.1921
                0.1355  -2.0194e-003   2.6263e-004   5.5280e-003  -3.8772e+007   2.2043e+003   2.1836e+007    0.0000    0.0780    0.0000   -0.0000    0.1899
                0.1653  -2.4447e-003   3.1795e-004   5.4400e-003  -4.6938e+007   2.6674e+003   2.1488e+007    0.0000    0.0944    0.0000   -0.0000    0.1869
                0.1954  -2.7787e-003   3.6139e-004   5.3371e-003  -5.3351e+007   3.0310e+003   2.1082e+007    0.0000    0.1073    0.0000   -0.0000    0.1833
                0.2291  -3.1522e-003   4.0996e-004   5.2081e-003  -6.0521e+007   3.4372e+003   2.0572e+007    0.0000    0.1218    0.0000   -0.0000    0.1789
                0.2645  -3.4980e-003   4.5493e-004   5.0573e-003  -6.7160e+007   3.8135e+003   1.9976e+007    0.0000    0.1351    0.0000   -0.0000    0.1737
                0.3017  -3.8050e-003   4.9486e-004   4.8839e-003  -7.3056e+007   4.1475e+003   1.9291e+007    0.0000    0.1470    0.0000   -0.0000    0.1678
                0.3415  -4.1329e-003   5.3751e-004   4.6839e-003  -7.9352e+007   4.5043e+003   1.8502e+007    0.0000    0.1597    0.0000   -0.0000    0.1609
                0.3824  -4.3812e-003   5.6980e-004   4.4646e-003  -8.4119e+007   4.7744e+003   1.7635e+007    0.0000    0.1693    0.0000   -0.0000    0.1533
                0.4255  -4.6254e-003   6.0156e-004   4.2211e-003  -8.8807e+007   5.0400e+003   1.6673e+007    0.0000    0.1787    0.0000   -0.0000    0.1450
                0.4703  -4.8563e-003   6.3159e-004   3.9555e-003  -9.3241e+007   5.2911e+003   1.5624e+007    0.0000    0.1876    0.0000   -0.0000    0.1359
                0.4836  -4.8985e-003   6.3708e-004   3.8748e-003  -9.4051e+007   5.3372e+003   1.5305e+007    0.0000    0.1892    0.0000   -0.0000    0.1331

            panel:  2     
           lam_num    nPlies        tPly      fibAng     matID  matName
               (-)       (-)         (m)       (deg)       (-)  (-)
                 1         1    0.006094      0.0000         2  (blade-shell)
                 2         1    0.004375      0.0000         3  (spar-uni)
                 3         1    0.000047      0.0000         4  (spar-core)
                 4         1    0.004375      0.0000         3  (spar-uni)
                 5         1    0.006094      0.0000         2  (blade-shell)

               lamina:  1     
              matName:  (blade-shell)
                     s           e11           e22           e12           s11           s22           s12   s11_fcT   s11_fcC   s22_fcT   s22_fcC   s12_fcS
                   (m)         (m/m)         (m/m)         (rad)          (Pa)          (Pa)          (Pa)       (-)       (-)       (-)       (-)       (-)
                0.0000  -6.5382e-003   1.0616e-003   4.1628e-003  -1.2500e+008   4.1323e+006   1.6443e+007    0.0000    0.2515    0.0123   -0.0000    0.1430
                0.0324  -6.6424e-003   1.0795e-003   3.5706e-003  -1.2699e+008   4.2176e+006   1.4104e+007    0.0000    0.2555    0.0125   -0.0000    0.1226
                0.0798  -6.8015e-003   1.1066e-003   2.6851e-003  -1.3002e+008   4.3430e+006   1.0606e+007    0.0000    0.2616    0.0129   -0.0000    0.0922
                0.1281  -6.8895e-003   1.1214e-003   1.7657e-003  -1.3170e+008   4.4100e+006   6.9747e+006    0.0000    0.2650    0.0131   -0.0000    0.0606
                0.1777  -6.9187e-003   1.1264e-003   8.1161e-004  -1.3226e+008   4.4329e+006   3.2059e+006    0.0000    0.2661    0.0132   -0.0000    0.0279
                0.2281  -6.9471e-003   1.1313e-003   1.5919e-004  -1.3280e+008   4.4562e+006   6.2881e+005    0.0000    0.2672    0.0132   -0.0000    0.0055
                0.2795  -6.8471e-003   1.1143e-003   1.1383e-003  -1.3090e+008   4.3779e+006   4.4961e+006    0.0000    0.2634    0.0130   -0.0000    0.0391
                0.3318  -6.7414e-003   1.0962e-003   2.1153e-003  -1.2888e+008   4.2929e+006   8.3555e+006    0.0000    0.2593    0.0127   -0.0000    0.0727
                0.3700  -6.6394e-003   1.0787e-003   2.8105e-003  -1.2693e+008   4.2113e+006   1.1101e+007    0.0000    0.2554    0.0125   -0.0000    0.0965

               lamina:  2     
              matName:  (spar-uni)
                     s           e11           e22           e12           s11           s22           s12   s11_fcT   s11_fcC   s22_fcT   s22_fcC   s12_fcS
                   (m)         (m/m)         (m/m)         (rad)          (Pa)          (Pa)          (Pa)       (-)       (-)       (-)       (-)       (-)
                0.0000  -5.5331e-003   9.2501e-004   4.1628e-003  -6.8260e+008  -6.5219e+006   1.9607e+007    0.0000    0.6826    0.0000    0.1089    0.1904
                0.0324  -5.6373e-003   9.4293e-004   3.5706e-003  -6.9545e+008  -6.6406e+006   1.6817e+007    0.0000    0.6955    0.0000    0.1109    0.1633
                0.0798  -5.7925e-003   9.6949e-004   2.6851e-003  -7.1459e+008  -6.8183e+006   1.2647e+007    0.0000    0.7146    0.0000    0.1138    0.1228
                0.1281  -5.8763e-003   9.8380e-004   1.7657e-003  -7.2493e+008  -6.9148e+006   8.3166e+006    0.0000    0.7249    0.0000    0.1154    0.0807
                0.1777  -5.9047e-003   9.8865e-004   8.1161e-004  -7.2843e+008  -6.9473e+006   3.8227e+006    0.0000    0.7284    0.0000    0.1160    0.0371
                0.2281  -5.9332e-003   9.9355e-004   1.5919e-004  -7.3195e+008  -6.9797e+006   7.4979e+005    0.0000    0.7319    0.0000    0.1165    0.0073
                0.2795  -5.8361e-003   9.7694e-004   1.1383e-003  -7.1997e+008  -6.8684e+006   5.3612e+006    0.0000    0.7200    0.0000    0.1147    0.0521
                0.3318  -5.7317e-003   9.5902e-004   2.1153e-003  -7.0709e+008  -6.7492e+006   9.9631e+006    0.0000    0.7071    0.0000    0.1127    0.0967
                0.3700  -5.6312e-003   9.4178e-004   2.8105e-003  -6.9469e+008  -6.6343e+006   1.3237e+007    0.0000    0.6947    0.0000    0.1108    0.1285

               lamina:  3     
              matName:  (spar-core)
                     s           e11           e22           e12           s11           s22           s12   s11_fcT   s11_fcC   s22_fcT   s22_fcC   s12_fcS
                   (m)         (m/m)         (m/m)         (rad)          (Pa)          (Pa)          (Pa)       (-)       (-)       (-)       (-)       (-)
                0.0000  -4.8116e-003   8.2699e-004   4.1628e-003  -1.0696e+006  -1.7930e+005   4.0796e+005    0.0000    0.2493    0.0000    0.0418    0.1383
                0.0324  -4.9158e-003   8.4490e-004   3.5706e-003  -1.0928e+006  -1.8318e+005   3.4992e+005    0.0000    0.2547    0.0000    0.0427    0.1186
                0.0798  -5.0681e-003   8.7108e-004   2.6851e-003  -1.1266e+006  -1.8886e+005   2.6314e+005    0.0000    0.2626    0.0000    0.0440    0.0892
                0.1281  -5.1489e-003   8.8498e-004   1.7657e-003  -1.1446e+006  -1.9187e+005   1.7304e+005    0.0000    0.2668    0.0000    0.0447    0.0587
                0.1777  -5.1767e-003   8.8975e-004   8.1161e-004  -1.1508e+006  -1.9290e+005   7.9538e+004    0.0000    0.2682    0.0000    0.0450    0.0270
                0.2281  -5.2053e-003   8.9466e-004   1.5919e-004  -1.1571e+006  -1.9397e+005   1.5601e+004    0.0000    0.2697    0.0000    0.0452    0.0053
                0.2795  -5.1102e-003   8.7833e-004   1.1383e-003  -1.1360e+006  -1.9043e+005   1.1155e+005    0.0000    0.2648    0.0000    0.0444    0.0378
                0.3318  -5.0067e-003   8.6053e-004   2.1153e-003  -1.1130e+006  -1.8657e+005   2.0730e+005    0.0000    0.2594    0.0000    0.0435    0.0703
                0.3700  -4.9073e-003   8.4345e-004   2.8105e-003  -1.0909e+006  -1.8287e+005   2.7543e+005    0.0000    0.2543    0.0000    0.0426    0.0934

               lamina:  4     
              matName:  (spar-uni)
                     s           e11           e22           e12           s11           s22           s12   s11_fcT   s11_fcC   s22_fcT   s22_fcC   s12_fcS
                   (m)         (m/m)         (m/m)         (rad)          (Pa)          (Pa)          (Pa)       (-)       (-)       (-)       (-)       (-)
                0.0000  -4.8038e-003   8.2594e-004   4.1628e-003  -5.9257e+008  -5.4737e+006   1.9607e+007    0.0000    0.5926    0.0000    0.0914    0.1904
                0.0324  -4.9080e-003   8.4385e-004   3.5706e-003  -6.0542e+008  -5.5925e+006   1.6817e+007    0.0000    0.6054    0.0000    0.0934    0.1633
                0.0798  -5.0603e-003   8.7003e-004   2.6851e-003  -6.2421e+008  -5.7661e+006   1.2647e+007    0.0000    0.6242    0.0000    0.0963    0.1228
                0.1281  -5.1411e-003   8.8392e-004   1.7657e-003  -6.3417e+008  -5.8581e+006   8.3166e+006    0.0000    0.6342    0.0000    0.0978    0.0807
                0.1777  -5.1689e-003   8.8869e-004   8.1161e-004  -6.3760e+008  -5.8898e+006   3.8227e+006    0.0000    0.6376    0.0000    0.0983    0.0371
                0.2281  -5.1975e-003   8.9360e-004   1.5919e-004  -6.4112e+008  -5.9223e+006   7.4979e+005    0.0000    0.6411    0.0000    0.0989    0.0073
                0.2795  -5.1025e-003   8.7727e-004   1.1383e-003  -6.2940e+008  -5.8141e+006   5.3612e+006    0.0000    0.6294    0.0000    0.0971    0.0521
                0.3318  -4.9989e-003   8.5947e-004   2.1153e-003  -6.1663e+008  -5.6961e+006   9.9631e+006    0.0000    0.6166    0.0000    0.0951    0.0967
                0.3700  -4.8996e-003   8.4239e-004   2.8105e-003  -6.0438e+008  -5.5828e+006   1.3237e+007    0.0000    0.6044    0.0000    0.0932    0.1285

               lamina:  5     
              matName:  (blade-shell)
                     s           e11           e22           e12           s11           s22           s12   s11_fcT   s11_fcC   s22_fcT   s22_fcC   s12_fcS
                   (m)         (m/m)         (m/m)         (rad)          (Pa)          (Pa)          (Pa)       (-)       (-)       (-)       (-)       (-)
                0.0000  -4.0823e-003   7.2791e-004   4.1628e-003  -7.7879e+007   3.8516e+006   1.6443e+007    0.0000    0.1567    0.0114   -0.0000    0.1430
                0.0324  -4.1865e-003   7.4582e-004   3.5706e-003  -7.9868e+007   3.9369e+006   1.4104e+007    0.0000    0.1607    0.0117   -0.0000    0.1226
                0.0798  -4.3359e-003   7.7162e-004   2.6851e-003  -8.2722e+007   4.0612e+006   1.0606e+007    0.0000    0.1664    0.0121   -0.0000    0.0922
                0.1281  -4.4137e-003   7.8510e-004   1.7657e-003  -8.4207e+007   4.1270e+006   6.9747e+006    0.0000    0.1694    0.0122   -0.0000    0.0606
                0.1777  -4.4409e-003   7.8979e-004   8.1161e-004  -8.4726e+007   4.1497e+006   3.2059e+006    0.0000    0.1705    0.0123   -0.0000    0.0279
                0.2281  -4.4695e-003   7.9471e-004   1.5919e-004  -8.5273e+007   4.1731e+006   6.2881e+005    0.0000    0.1716    0.0124   -0.0000    0.0055
                0.2795  -4.3766e-003   7.7866e-004   1.1383e-003  -8.3498e+007   4.0955e+006   4.4961e+006    0.0000    0.1680    0.0122   -0.0000    0.0391
                0.3318  -4.2739e-003   7.6098e-004   2.1153e-003  -8.1538e+007   4.0109e+006   8.3555e+006    0.0000    0.1641    0.0119   -0.0000    0.0727
                0.3700  -4.1757e-003   7.4406e-004   2.8105e-003  -7.9663e+007   3.9297e+006   1.1101e+007    0.0000    0.1603    0.0117   -0.0000    0.0965

            panel:  3     
           lam_num    nPlies        tPly      fibAng     matID  matName
               (-)       (-)         (m)       (deg)       (-)  (-)
                 1         1    0.006094      0.0000         2  (blade-shell)
                 2         1    0.004375      0.0000         6  (TEP-core)
                 3         1    0.006094      0.0000         2  (blade-shell)

               lamina:  1     
              matName:  (blade-shell)
                     s           e11           e22           e12           s11           s22           s12   s11_fcT   s11_fcC   s22_fcT   s22_fcC   s12_fcS
                   (m)         (m/m)         (m/m)         (rad)          (Pa)          (Pa)          (Pa)       (-)       (-)       (-)       (-)       (-)
                0.0000  -5.3989e-003   7.0615e-004   8.7080e-004  -1.0365e+008   8.3880e+004   3.4397e+006    0.0000    0.2085    0.0002   -0.0000    0.0299
                0.0144  -5.3590e-003   7.0093e-004   9.5689e-004  -1.0288e+008   8.3249e+004   3.7797e+006    0.0000    0.2070    0.0002   -0.0000    0.0329
                0.0680  -5.1469e-003   6.7318e-004   1.2683e-003  -9.8811e+007   7.9691e+004   5.0099e+006    0.0000    0.1988    0.0002   -0.0000    0.0436
                0.1214  -4.9345e-003   6.4538e-004   1.5646e-003  -9.4732e+007   7.6138e+004   6.1802e+006    0.0000    0.1906    0.0002   -0.0000    0.0537
                0.1750  -4.6673e-003   6.1042e-004   1.8450e-003  -8.9603e+007   7.1682e+004   7.2879e+006    0.0000    0.1803    0.0002   -0.0000    0.0634
                0.2286  -4.3780e-003   5.7256e-004   2.1062e-003  -8.4048e+007   6.6824e+004   8.3196e+006    0.0000    0.1691    0.0002   -0.0000    0.0723
                0.2815  -4.0885e-003   5.3468e-004   2.3445e-003  -7.8492e+007   6.1984e+004   9.2608e+006    0.0000    0.1579    0.0002   -0.0000    0.0805
                0.3340  -3.7521e-003   4.9066e-004   2.5605e-003  -7.2034e+007   5.6354e+004   1.0114e+007    0.0000    0.1449    0.0002   -0.0000    0.0879
                0.3856  -3.4235e-003   4.4766e-004   2.7510e-003  -6.5724e+007   5.0826e+004   1.0866e+007    0.0000    0.1322    0.0002   -0.0000    0.0945
                0.4360  -3.0905e-003   4.0408e-004   2.9159e-003  -5.9331e+007   4.5238e+004   1.1518e+007    0.0000    0.1194    0.0001   -0.0000    0.1002
                0.4852  -2.7512e-003   3.5969e-004   3.0558e-003  -5.2819e+007   3.9537e+004   1.2071e+007    0.0000    0.1063    0.0001   -0.0000    0.1050
                0.5327  -2.4238e-003   3.1684e-004   3.1711e-003  -4.6533e+007   3.4027e+004   1.2526e+007    0.0000    0.0936    0.0001   -0.0000    0.1089
                0.5784  -2.1030e-003   2.7485e-004   3.2633e-003  -4.0374e+007   2.8629e+004   1.2890e+007    0.0000    0.0812    0.0001   -0.0000    0.1121
                0.6221  -1.7951e-003   2.3456e-004   3.3340e-003  -3.4463e+007   2.3443e+004   1.3169e+007    0.0000    0.0693    0.0001   -0.0000    0.1145
                0.6637  -1.5034e-003   1.9639e-004   3.3855e-003  -2.8863e+007   1.8526e+004   1.3373e+007    0.0000    0.0581    0.0001   -0.0000    0.1163
                0.7028  -1.2309e-003   1.6073e-004   3.4199e-003  -2.3632e+007   1.3933e+004   1.3509e+007    0.0000    0.0475    0.0000   -0.0000    0.1175
                0.7393  -9.7607e-004   1.2738e-004   3.4400e-003  -1.8739e+007   9.6373e+003   1.3588e+007    0.0000    0.0377    0.0000   -0.0000    0.1182
                0.7732  -7.4196e-004   9.6746e-005   3.4480e-003  -1.4245e+007   5.6887e+003   1.3620e+007    0.0000    0.0287    0.0000   -0.0000    0.1184
                0.8043  -5.2892e-004   6.8867e-005   3.4466e-003  -1.0155e+007   2.0974e+003   1.3614e+007    0.0000    0.0204    0.0000   -0.0000    0.1184
                0.8324  -3.3577e-004   4.3591e-005   3.4381e-003  -6.4469e+006  -1.4302e+003   1.3580e+007    0.0000    0.0130    0.0000    0.0000    0.1181
                0.8575  -1.6076e-004   2.0689e-005   3.4246e-003  -3.0871e+006  -4.3730e+003   1.3527e+007    0.0000    0.0062    0.0000    0.0000    0.1176
                0.8794   3.0600e-004  -4.0136e-005   3.4084e-003   5.8743e+006  -6.9492e+003   1.3463e+007    0.0174   -0.0000    0.0000    0.0000    0.1171
                0.8980   4.4139e-004  -5.7853e-005   3.3911e-003   8.4735e+006  -9.2177e+003   1.3395e+007    0.0251   -0.0000    0.0000    0.0000    0.1165
                0.9135   5.6604e-004  -7.4164e-005   3.3743e-003   1.0866e+007  -1.1306e+004   1.3328e+007    0.0322   -0.0000    0.0000    0.0000    0.1159
                0.9251   6.6181e-004  -8.6694e-005   3.3600e-003   1.2705e+007  -1.2871e+004   1.3272e+007    0.0377   -0.0000    0.0000    0.0000    0.1154
                0.9335   7.6550e-004  -1.0026e-004   3.3488e-003   1.4696e+007  -1.4505e+004   1.3228e+007    0.0436   -0.0000    0.0000    0.0000    0.1150
                0.9390   8.4444e-004  -1.1058e-004   3.3408e-003   1.6211e+007  -1.5773e+004   1.3196e+007    0.0481   -0.0000    0.0000    0.0000    0.1147
                0.9410   8.7167e-004  -1.1415e-004   3.3377e-003   1.6734e+007  -1.6231e+004   1.3184e+007    0.0497   -0.0000    0.0000    0.0000    0.1146

               lamina:  2     
              matName:  (TEP-core)
                     s           e11           e22           e12           s11           s22           s12   s11_fcT   s11_fcC   s22_fcT   s22_fcC   s12_fcS
                   (m)         (m/m)         (m/m)         (rad)          (Pa)          (Pa)          (Pa)       (-)       (-)       (-)       (-)       (-)
                0.0000  -5.0729e-003   6.6375e-004   8.7080e-004  -1.1439e+006  -2.3809e+005   8.5339e+004    0.0000    0.2666    0.0000    0.0555    0.0289
                0.0144  -5.0349e-003   6.5878e-004   9.5689e-004  -1.1353e+006  -2.3631e+005   9.3775e+004    0.0000    0.2646    0.0000    0.0551    0.0318
                0.0680  -4.8235e-003   6.3112e-004   1.2683e-003  -1.0876e+006  -2.2639e+005   1.2430e+005    0.0000    0.2535    0.0000    0.0528    0.0421
                0.1214  -4.6122e-003   6.0347e-004   1.5646e-003  -1.0400e+006  -2.1647e+005   1.5333e+005    0.0000    0.2424    0.0000    0.0505    0.0520
                0.1750  -4.3471e-003   5.6878e-004   1.8450e-003  -9.8022e+005  -2.0403e+005   1.8081e+005    0.0000    0.2285    0.0000    0.0476    0.0613
                0.2286  -4.0585e-003   5.3102e-004   2.1062e-003  -9.1515e+005  -1.9049e+005   2.0641e+005    0.0000    0.2133    0.0000    0.0444    0.0700
                0.2815  -3.7707e-003   4.9336e-004   2.3445e-003  -8.5026e+005  -1.7698e+005   2.2976e+005    0.0000    0.1982    0.0000    0.0413    0.0779
                0.3340  -3.4360e-003   4.4956e-004   2.5605e-003  -7.7479e+005  -1.6127e+005   2.5093e+005    0.0000    0.1806    0.0000    0.0376    0.0851
                0.3856  -3.1078e-003   4.0660e-004   2.7510e-003  -7.0078e+005  -1.4587e+005   2.6959e+005    0.0000    0.1634    0.0000    0.0340    0.0914
                0.4360  -2.7758e-003   3.6316e-004   2.9159e-003  -6.2592e+005  -1.3029e+005   2.8576e+005    0.0000    0.1459    0.0000    0.0304    0.0969
                0.4852  -2.4372e-003   3.1885e-004   3.0558e-003  -5.4957e+005  -1.1440e+005   2.9947e+005    0.0000    0.1281    0.0000    0.0267    0.1015
                0.5327  -2.1100e-003   2.7603e-004   3.1711e-003  -4.7579e+005  -9.9045e+004   3.1077e+005    0.0000    0.1109    0.0000    0.0231    0.1053
                0.5784  -1.7895e-003   2.3409e-004   3.2633e-003  -4.0353e+005  -8.4004e+004   3.1980e+005    0.0000    0.0941    0.0000    0.0196    0.1084
                0.6221  -1.4817e-003   1.9381e-004   3.3340e-003  -3.3411e+005  -6.9557e+004   3.2674e+005    0.0000    0.0779    0.0000    0.0162    0.1108
                0.6637  -1.1899e-003   1.5562e-004   3.3855e-003  -2.6831e+005  -5.5862e+004   3.3178e+005    0.0000    0.0625    0.0000    0.0130    0.1125
                0.7028  -9.1727e-004   1.1994e-004   3.4199e-003  -2.0684e+005  -4.3068e+004   3.3515e+005    0.0000    0.0482    0.0000    0.0100    0.1136
                0.7393  -6.6230e-004   8.6579e-005   3.4400e-003  -1.4935e+005  -3.1103e+004   3.3712e+005    0.0000    0.0348    0.0000    0.0073    0.1143
                0.7732  -4.2798e-004   5.5915e-005   3.4480e-003  -9.6511e+004  -2.0107e+004   3.3791e+005    0.0000    0.0225    0.0000    0.0047    0.1145
                0.8043  -2.1483e-004   2.8021e-005   3.4466e-003  -4.8449e+004  -1.0104e+004   3.3777e+005    0.0000    0.0113    0.0000    0.0024    0.1145
                0.8324   2.0350e-004  -2.6538e-005   3.4381e-003   4.5893e+004   9.5716e+003   3.3693e+005    0.0107   -0.0000    0.0022   -0.0000    0.1142
                0.8575   3.7809e-004  -4.9385e-005   3.4246e-003   8.5261e+004   1.7765e+004   3.3562e+005    0.0199   -0.0000    0.0041   -0.0000    0.1138
                0.8794   5.3081e-004  -6.9371e-005   3.4084e-003   1.1970e+005   2.4932e+004   3.3402e+005    0.0279   -0.0000    0.0058   -0.0000    0.1132
                0.8980   6.6466e-004  -8.6887e-005   3.3911e-003   1.4988e+005   3.1213e+004   3.3233e+005    0.0349   -0.0000    0.0073   -0.0000    0.1127
                0.9135   7.8788e-004  -1.0301e-004   3.3743e-003   1.7766e+005   3.6996e+004   3.3068e+005    0.0414   -0.0000    0.0086   -0.0000    0.1121
                0.9251   8.7755e-004  -1.1475e-004   3.3600e-003   1.9788e+005   4.1204e+004   3.2928e+005    0.0461   -0.0000    0.0096   -0.0000    0.1116
                0.9335   9.6713e-004  -1.2648e-004   3.3488e-003   2.1808e+005   4.5406e+004   3.2818e+005    0.0508   -0.0000    0.0106   -0.0000    0.1112
                0.9390   1.0383e-003  -1.3579e-004   3.3408e-003   2.3412e+005   4.8744e+004   3.2740e+005    0.0546   -0.0000    0.0114   -0.0000    0.1110
                0.9410   1.0655e-003  -1.3935e-004   3.3377e-003   2.4026e+005   5.0021e+004   3.2710e+005    0.0560   -0.0000    0.0117   -0.0000    0.1109

               lamina:  3     
              matName:  (blade-shell)
                     s           e11           e22           e12           s11           s22           s12   s11_fcT   s11_fcC   s22_fcT   s22_fcC   s12_fcS
                   (m)         (m/m)         (m/m)         (rad)          (Pa)          (Pa)          (Pa)       (-)       (-)       (-)       (-)       (-)
                0.0000  -4.8388e-003   6.3331e-004   8.7080e-004  -9.2894e+007   8.3385e+004   3.4397e+006    0.0000    0.1869    0.0002   -0.0000    0.0299
                0.0144  -4.8022e-003   6.2852e-004   9.5689e-004  -9.2191e+007   8.2757e+004   3.7797e+006    0.0000    0.1855    0.0002   -0.0000    0.0329
                0.0680  -4.5912e-003   6.0092e-004   1.2683e-003  -8.8141e+007   7.9199e+004   5.0099e+006    0.0000    0.1773    0.0002   -0.0000    0.0436
                0.1214  -4.3809e-003   5.7339e-004   1.5646e-003  -8.4103e+007   7.5649e+004   6.1802e+006    0.0000    0.1692    0.0002   -0.0000    0.0537
                0.1750  -4.1172e-003   5.3888e-004   1.8450e-003  -7.9041e+007   7.1195e+004   7.2879e+006    0.0000    0.1590    0.0002   -0.0000    0.0634
                0.2286  -3.8292e-003   5.0119e-004   2.1062e-003  -7.3512e+007   6.6339e+004   8.3196e+006    0.0000    0.1479    0.0002   -0.0000    0.0723
                0.2815  -3.5426e-003   4.6368e-004   2.3445e-003  -6.8009e+007   6.1501e+004   9.2608e+006    0.0000    0.1368    0.0002   -0.0000    0.0805
                0.3340  -3.2091e-003   4.2004e-004   2.5605e-003  -6.1607e+007   5.5873e+004   1.0114e+007    0.0000    0.1240    0.0002   -0.0000    0.0879
                0.3856  -2.8812e-003   3.7713e-004   2.7510e-003  -5.5312e+007   5.0346e+004   1.0866e+007    0.0000    0.1113    0.0001   -0.0000    0.0945
                0.4360  -2.5499e-003   3.3378e-004   2.9159e-003  -4.8953e+007   4.4760e+004   1.1518e+007    0.0000    0.0985    0.0001   -0.0000    0.1002
                0.4852  -2.2118e-003   2.8953e-004   3.0558e-003  -4.2461e+007   3.9060e+004   1.2071e+007    0.0000    0.0854    0.0001   -0.0000    0.1050
                0.5327  -1.8848e-003   2.4674e-004   3.1711e-003  -3.6183e+007   3.3550e+004   1.2526e+007    0.0000    0.0728    0.0001   -0.0000    0.1089
                0.5784  -1.5645e-003   2.0483e-004   3.2633e-003  -3.0035e+007   2.8153e+004   1.2890e+007    0.0000    0.0604    0.0001   -0.0000    0.1121
                0.6221  -1.2567e-003   1.6455e-004   3.3340e-003  -2.4126e+007   2.2967e+004   1.3169e+007    0.0000    0.0485    0.0001   -0.0000    0.1145
                0.6637  -9.6479e-004   1.2635e-004   3.3855e-003  -1.8522e+007   1.8050e+004   1.3373e+007    0.0000    0.0373    0.0001   -0.0000    0.1163
                0.7028  -6.9208e-004   9.0659e-005   3.4199e-003  -1.3286e+007   1.3456e+004   1.3509e+007    0.0000    0.0267    0.0000   -0.0000    0.1175
                0.7393  -4.3704e-004   5.7284e-005   3.4400e-003  -8.3900e+006   9.1604e+003   1.3588e+007    0.0000    0.0169    0.0000   -0.0000    0.1182
                0.7732  -2.0256e-004   2.6599e-005   3.4480e-003  -3.8884e+006   5.2115e+003   1.3620e+007    0.0000    0.0078    0.0000   -0.0000    0.1184
                0.8043   3.2476e-004  -4.2150e-005   3.4466e-003   6.2356e+006   1.6199e+003   1.3614e+007    0.0185   -0.0000    0.0000   -0.0000    0.1184
                0.8324   5.1739e-004  -6.7359e-005   3.4381e-003   9.9337e+006  -1.9073e+003   1.3580e+007    0.0295   -0.0000    0.0000    0.0000    0.1181
                0.8575   6.9174e-004  -9.0175e-005   3.4246e-003   1.3281e+007  -4.8498e+003   1.3527e+007    0.0394   -0.0000    0.0000    0.0000    0.1176
                0.8794   8.4394e-004  -1.1009e-004   3.4084e-003   1.6203e+007  -7.4252e+003   1.3463e+007    0.0481   -0.0000    0.0000    0.0000    0.1171
                0.8980   9.7563e-004  -1.2733e-004   3.3911e-003   1.8731e+007  -9.6904e+003   1.3395e+007    0.0556   -0.0000    0.0000    0.0000    0.1165
                0.9135   1.0969e-003  -1.4320e-004   3.3743e-003   2.1059e+007  -1.1776e+004   1.3328e+007    0.0625   -0.0000    0.0000    0.0000    0.1159
                0.9251   1.1781e-003  -1.5383e-004   3.3600e-003   2.2617e+007  -1.3328e+004   1.3272e+007    0.0671   -0.0000    0.0000    0.0000    0.1154
                0.9335   1.2480e-003  -1.6300e-004   3.3488e-003   2.3959e+007  -1.4932e+004   1.3228e+007    0.0711   -0.0000    0.0000    0.0000    0.1150
                0.9390   1.3082e-003  -1.7090e-004   3.3408e-003   2.5116e+007  -1.6183e+004   1.3196e+007    0.0745   -0.0000    0.0000    0.0000    0.1147
                0.9410   1.3355e-003  -1.7446e-004   3.3377e-003   2.5639e+007  -1.6642e+004   1.3184e+007    0.0761   -0.0000    0.0000    0.0000    0.1146

  Bottom:  panel  nNode   nLam     xc_St    xc_End         b         t         E_eff         G_eff      nu_eff     density  buckleCrit
            (-)    (-)    (-)       (-)       (-)       (m)       (m)          (Pa)          (Pa)         (-)    (kg/m^3)         (-)
              1     18      3    0.0000    0.2401    0.4621    0.0125   1.8772e+010   3.8631e+009      0.1301   1636.8421      0.0674
              2      9      5    0.2401    0.4599    0.3700    0.0210   6.2525e+010   4.2583e+009      0.1719   1583.3213      0.0007
              3     28      3    0.4599    1.0000    0.9286    0.0166   1.4186e+010   2.9325e+009      0.1309   1281.6981      0.1391

            panel:  1     
           lam_num    nPlies        tPly      fibAng     matID  matName
               (-)       (-)         (m)       (deg)       (-)  (-)
                 1         1    0.006094      0.0000         2  (blade-shell)
                 2         1    0.000281      0.0000         5  (LEP-core)
                 3         1    0.006094      0.0000         2  (blade-shell)

               lamina:  1     
              matName:  (blade-shell)
                     s           e11           e22           e12           s11           s22           s12   s11_fcT   s11_fcC   s22_fcT   s22_fcC   s12_fcS
                   (m)         (m/m)         (m/m)         (rad)          (Pa)          (Pa)          (Pa)       (-)       (-)       (-)       (-)       (-)
                0.0000   5.3493e-004  -6.9564e-005   5.7069e-003   1.0271e+007  -4.3932e+002   2.2542e+007    0.0305   -0.0000    0.0000    0.0000    0.1960
                0.0054   6.5752e-004  -8.5507e-005   5.7052e-003   1.2624e+007  -5.7263e+002   2.2536e+007    0.0375   -0.0000    0.0000    0.0000    0.1960
                0.0212   1.0404e-003  -1.3530e-004   5.6956e-003   1.9976e+007  -9.6325e+002   2.2498e+007    0.0593   -0.0000    0.0000    0.0000    0.1956
                0.0405   1.5380e-003  -2.0002e-004   5.6745e-003   2.9530e+007  -1.4231e+003   2.2414e+007    0.0876   -0.0000    0.0000    0.0000    0.1949
                0.0566   1.8841e-003  -2.4502e-004   5.6499e-003   3.6174e+007  -1.7332e+003   2.2317e+007    0.1073   -0.0000    0.0000    0.0000    0.1941
                0.0780   2.2947e-003  -2.9842e-004   5.6084e-003   4.4058e+007  -2.1478e+003   2.2153e+007    0.1307   -0.0000    0.0000    0.0000    0.1926
                0.0997   2.6456e-003  -3.4405e-004   5.5570e-003   5.0795e+007  -2.4899e+003   2.1950e+007    0.1507   -0.0000    0.0000    0.0000    0.1909
                0.1244   2.9795e-003  -3.8748e-004   5.4885e-003   5.7205e+007  -2.8409e+003   2.1680e+007    0.1697   -0.0000    0.0000    0.0000    0.1885
                0.1522   3.3512e-003  -4.3583e-004   5.4001e-003   6.4343e+007  -3.2242e+003   2.1330e+007    0.1909   -0.0000    0.0000    0.0000    0.1855
                0.1809   3.6355e-003  -4.7280e-004   5.2972e-003   6.9802e+007  -3.5177e+003   2.0924e+007    0.2071   -0.0000    0.0000    0.0000    0.1819
                0.2131   3.9423e-003  -5.1269e-004   5.1708e-003   7.5691e+007  -3.8458e+003   2.0425e+007    0.2246   -0.0000    0.0000    0.0000    0.1776
                0.2471   4.2273e-003  -5.4976e-004   5.0243e-003   8.1164e+007  -4.1460e+003   1.9846e+007    0.2408   -0.0000    0.0000    0.0000    0.1726
                0.2833   4.4715e-003  -5.8152e-004   4.8567e-003   8.5852e+007  -4.4071e+003   1.9184e+007    0.2548   -0.0000    0.0000    0.0000    0.1668
                0.3220   4.7328e-003  -6.1551e-004   4.6655e-003   9.0870e+007  -4.6861e+003   1.8429e+007    0.2696   -0.0000    0.0000    0.0000    0.1602
                0.3622   4.9270e-003  -6.4076e-004   4.4552e-003   9.4598e+007  -4.8924e+003   1.7598e+007    0.2807   -0.0000    0.0000    0.0000    0.1530
                0.4046   5.1134e-003  -6.6500e-004   4.2229e-003   9.8177e+007  -5.0936e+003   1.6680e+007    0.2913   -0.0000    0.0000    0.0000    0.1450
                0.4489   5.2881e-003  -6.8773e-004   3.9704e-003   1.0153e+008  -5.2816e+003   1.5683e+007    0.3013   -0.0000    0.0000    0.0000    0.1364
                0.4621   5.3201e-003  -6.9189e-004   3.8931e-003   1.0215e+008  -5.3132e+003   1.5378e+007    0.3031   -0.0000    0.0000    0.0000    0.1337

               lamina:  2     
              matName:  (LEP-core)
                     s           e11           e22           e12           s11           s22           s12   s11_fcT   s11_fcC   s22_fcT   s22_fcC   s12_fcS
                   (m)         (m/m)         (m/m)         (rad)          (Pa)          (Pa)          (Pa)       (-)       (-)       (-)       (-)       (-)
                0.0000   4.0691e-004  -5.2921e-005   5.7069e-003   9.1778e+004   1.9173e+004   5.5928e+005    0.0214   -0.0000    0.0045   -0.0000    0.1896
                0.0054   5.2950e-004  -6.8864e-005   5.7052e-003   1.1943e+005   2.4950e+004   5.5911e+005    0.0278   -0.0000    0.0058   -0.0000    0.1895
                0.0212   8.8926e-004  -1.1565e-004   5.6956e-003   2.0057e+005   4.1902e+004   5.5817e+005    0.0468   -0.0000    0.0098   -0.0000    0.1892
                0.0405   1.3138e-003  -1.7087e-004   5.6745e-003   2.9633e+005   6.1906e+004   5.5610e+005    0.0691   -0.0000    0.0144   -0.0000    0.1885
                0.0566   1.6004e-003  -2.0814e-004   5.6499e-003   3.6096e+005   7.5409e+004   5.5369e+005    0.0841   -0.0000    0.0176   -0.0000    0.1877
                0.0780   1.9823e-003  -2.5781e-004   5.6084e-003   4.4710e+005   9.3405e+004   5.4962e+005    0.1042   -0.0000    0.0218   -0.0000    0.1863
                0.0997   2.2977e-003  -2.9882e-004   5.5570e-003   5.1823e+005   1.0826e+005   5.4458e+005    0.1208   -0.0000    0.0252   -0.0000    0.1846
                0.1244   2.6207e-003  -3.4084e-004   5.4885e-003   5.9110e+005   1.2349e+005   5.3788e+005    0.1378   -0.0000    0.0288   -0.0000    0.1823
                0.1522   2.9737e-003  -3.8674e-004   5.4001e-003   6.7071e+005   1.4012e+005   5.2921e+005    0.1563   -0.0000    0.0327   -0.0000    0.1794
                0.1809   3.2439e-003  -4.2189e-004   5.2972e-003   7.3166e+005   1.5285e+005   5.1913e+005    0.1706   -0.0000    0.0356   -0.0000    0.1760
                0.2131   3.5458e-003  -4.6115e-004   5.1708e-003   7.9974e+005   1.6708e+005   5.0674e+005    0.1864   -0.0000    0.0389   -0.0000    0.1718
                0.2471   3.8220e-003  -4.9707e-004   5.0243e-003   8.6204e+005   1.8009e+005   4.9238e+005    0.2009   -0.0000    0.0420   -0.0000    0.1669
                0.2833   4.0622e-003  -5.2831e-004   4.8567e-003   9.1623e+005   1.9141e+005   4.7596e+005    0.2136   -0.0000    0.0446   -0.0000    0.1613
                0.3220   4.3189e-003  -5.6170e-004   4.6655e-003   9.7413e+005   2.0351e+005   4.5722e+005    0.2271   -0.0000    0.0474   -0.0000    0.1550
                0.3622   4.5087e-003  -5.8638e-004   4.4552e-003   1.0169e+006   2.1245e+005   4.3661e+005    0.2370   -0.0000    0.0495   -0.0000    0.1480
                0.4046   4.6937e-003  -6.1045e-004   4.2229e-003   1.0587e+006   2.2117e+005   4.1384e+005    0.2468   -0.0000    0.0516   -0.0000    0.1403
                0.4489   4.8667e-003  -6.3294e-004   3.9704e-003   1.0977e+006   2.2932e+005   3.8910e+005    0.2559   -0.0000    0.0535   -0.0000    0.1319
                0.4621   4.8958e-003  -6.3673e-004   3.8931e-003   1.1043e+006   2.3069e+005   3.8152e+005    0.2574   -0.0000    0.0538   -0.0000    0.1293

               lamina:  3     
              matName:  (blade-shell)
                     s           e11           e22           e12           s11           s22           s12   s11_fcT   s11_fcC   s22_fcT   s22_fcC   s12_fcS
                   (m)         (m/m)         (m/m)         (rad)          (Pa)          (Pa)          (Pa)       (-)       (-)       (-)       (-)       (-)
                0.0000   4.0100e-004  -5.2153e-005   5.7069e-003   7.6992e+006  -4.3925e+002   2.2542e+007    0.0228   -0.0000    0.0000    0.0000    0.1960
                0.0054   5.2359e-004  -6.8096e-005   5.7052e-003   1.0053e+007  -5.7255e+002   2.2536e+007    0.0298   -0.0000    0.0000    0.0000    0.1960
                0.0212   8.8228e-004  -1.1475e-004   5.6956e-003   1.6940e+007  -9.6316e+002   2.2498e+007    0.0503   -0.0000    0.0000    0.0000    0.1956
                0.0405   1.3035e-003  -1.6952e-004   5.6745e-003   2.5026e+007  -1.4230e+003   2.2414e+007    0.0743   -0.0000    0.0000    0.0000    0.1949
                0.0566   1.5873e-003  -2.0643e-004   5.6499e-003   3.0475e+007  -1.7331e+003   2.2317e+007    0.0904   -0.0000    0.0000    0.0000    0.1941
                0.0780   1.9679e-003  -2.5593e-004   5.6084e-003   3.7783e+007  -2.1476e+003   2.2153e+007    0.1121   -0.0000    0.0000    0.0000    0.1926
                0.0997   2.2816e-003  -2.9673e-004   5.5570e-003   4.3806e+007  -2.4897e+003   2.1950e+007    0.1300   -0.0000    0.0000    0.0000    0.1909
                0.1244   2.6042e-003  -3.3869e-004   5.4885e-003   5.0000e+007  -2.8407e+003   2.1680e+007    0.1484   -0.0000    0.0000    0.0000    0.1885
                0.1522   2.9563e-003  -3.8448e-004   5.4001e-003   5.6760e+007  -3.2240e+003   2.1330e+007    0.1684   -0.0000    0.0000    0.0000    0.1855
                0.1809   3.2258e-003  -4.1954e-004   5.2972e-003   6.1935e+007  -3.5175e+003   2.0924e+007    0.1838   -0.0000    0.0000    0.0000    0.1819
                0.2131   3.5275e-003  -4.5877e-004   5.1708e-003   6.7727e+007  -3.8456e+003   2.0425e+007    0.2010   -0.0000    0.0000    0.0000    0.1776
                0.2471   3.8033e-003  -4.9464e-004   5.0243e-003   7.3022e+007  -4.1457e+003   1.9846e+007    0.2167   -0.0000    0.0000    0.0000    0.1726
                0.2833   4.0433e-003  -5.2586e-004   4.8567e-003   7.7631e+007  -4.4069e+003   1.9184e+007    0.2304   -0.0000    0.0000    0.0000    0.1668
                0.3220   4.2998e-003  -5.5922e-004   4.6655e-003   8.2556e+007  -4.6859e+003   1.8429e+007    0.2450   -0.0000    0.0000    0.0000    0.1602
                0.3622   4.4894e-003  -5.8387e-004   4.4552e-003   8.6195e+007  -4.8921e+003   1.7598e+007    0.2558   -0.0000    0.0000    0.0000    0.1530
                0.4046   4.6744e-003  -6.0793e-004   4.2229e-003   8.9747e+007  -5.0933e+003   1.6680e+007    0.2663   -0.0000    0.0000    0.0000    0.1450
                0.4489   4.8472e-003  -6.3041e-004   3.9704e-003   9.3066e+007  -5.2813e+003   1.5683e+007    0.2762   -0.0000    0.0000    0.0000    0.1364
                0.4621   4.8763e-003  -6.3419e-004   3.8931e-003   9.3624e+007  -5.3130e+003   1.5378e+007    0.2778   -0.0000    0.0000    0.0000    0.1337

            panel:  2     
           lam_num    nPlies        tPly      fibAng     matID  matName
               (-)       (-)         (m)       (deg)       (-)  (-)
                 1         1    0.006094      0.0000         2  (blade-shell)
                 2         1    0.004375      0.0000         3  (spar-uni)
                 3         1    0.000047      0.0000         4  (spar-core)
                 4         1    0.004375      0.0000         3  (spar-uni)
                 5         1    0.006094      0.0000         2  (blade-shell)

               lamina:  1     
              matName:  (blade-shell)
                     s           e11           e22           e12           s11           s22           s12   s11_fcT   s11_fcC   s22_fcT   s22_fcC   s12_fcS
                   (m)         (m/m)         (m/m)         (rad)          (Pa)          (Pa)          (Pa)       (-)       (-)       (-)       (-)       (-)
                0.0000   6.5238e-003  -1.0588e-003   4.1816e-003   1.2472e+008  -4.1147e+006   1.6517e+007    0.3701   -0.0000    0.0000    0.0122    0.1436
                0.0322   6.5953e-003  -1.0711e-003   3.6180e-003   1.2609e+008  -4.1732e+006   1.4291e+007    0.3741   -0.0000    0.0000    0.0124    0.1243
                0.0793   6.7037e-003  -1.0896e-003   2.7765e-003   1.2816e+008  -4.2592e+006   1.0967e+007    0.3803   -0.0000    0.0000    0.0126    0.0954
                0.1275   6.7507e-003  -1.0975e-003   1.9002e-003   1.2906e+008  -4.2953e+006   7.5060e+006    0.3830   -0.0000    0.0000    0.0127    0.0653
                0.1772   6.7490e-003  -1.0972e-003   9.9030e-004   1.2902e+008  -4.2936e+006   3.9117e+006    0.3829   -0.0000    0.0000    0.0127    0.0340
                0.2277   6.7453e-003  -1.0966e-003   6.3855e-005   1.2895e+008  -4.2919e+006   2.5223e+005    0.3826   -0.0000    0.0000    0.0127    0.0022
                0.2792   6.6298e-003  -1.0770e-003   8.7430e-004   1.2675e+008  -4.2013e+006   3.4535e+006    0.3761   -0.0000    0.0000    0.0125    0.0300
                0.3317   6.5099e-003  -1.0565e-003   1.8118e-003   1.2446e+008  -4.1046e+006   7.1565e+006    0.3693   -0.0000    0.0000    0.0122    0.0622
                0.3700   6.4021e-003  -1.0380e-003   2.4807e-003   1.2240e+008  -4.0180e+006   9.7988e+006    0.3632   -0.0000    0.0000    0.0119    0.0852

               lamina:  2     
              matName:  (spar-uni)
                     s           e11           e22           e12           s11           s22           s12   s11_fcT   s11_fcC   s22_fcT   s22_fcC   s12_fcS
                   (m)         (m/m)         (m/m)         (rad)          (Pa)          (Pa)          (Pa)       (-)       (-)       (-)       (-)       (-)
                0.0000   5.5139e-003  -9.2159e-004   4.1816e-003   6.8023e+008   6.5010e+006   1.9695e+007    0.3437   -0.0000    0.1085   -0.0000    0.1912
                0.0322   5.5854e-003  -9.3387e-004   3.6180e-003   6.8904e+008   6.5825e+006   1.7041e+007    0.3482   -0.0000    0.1099   -0.0000    0.1654
                0.0793   5.6916e-003  -9.5207e-004   2.7765e-003   7.0214e+008   6.7040e+006   1.3077e+007    0.3548   -0.0000    0.1119   -0.0000    0.1270
                0.1275   5.7366e-003  -9.5976e-004   1.9002e-003   7.0770e+008   6.7558e+006   8.9502e+006    0.3576   -0.0000    0.1128   -0.0000    0.0869
                0.1772   5.7347e-003  -9.5942e-004   9.9030e-004   7.0746e+008   6.7536e+006   4.6643e+006    0.3575   -0.0000    0.1127   -0.0000    0.0453
                0.2277   5.7321e-003  -9.5900e-004   6.3855e-005   7.0714e+008   6.7504e+006   3.0076e+005    0.3573   -0.0000    0.1127   -0.0000    0.0029
                0.2792   5.6198e-003  -9.3978e-004   8.7430e-004   6.9329e+008   6.6217e+006   4.1179e+006    0.3503   -0.0000    0.1105   -0.0000    0.0400
                0.3317   5.5011e-003  -9.1940e-004   1.8118e-003   6.7864e+008   6.4862e+006   8.5334e+006    0.3429   -0.0000    0.1083   -0.0000    0.0828
                0.3700   5.3946e-003  -9.0114e-004   2.4807e-003   6.6551e+008   6.3646e+006   1.1684e+007    0.3363   -0.0000    0.1063   -0.0000    0.1134

               lamina:  3     
              matName:  (spar-core)
                     s           e11           e22           e12           s11           s22           s12   s11_fcT   s11_fcC   s22_fcT   s22_fcC   s12_fcS
                   (m)         (m/m)         (m/m)         (rad)          (Pa)          (Pa)          (Pa)       (-)       (-)       (-)       (-)       (-)
                0.0000   4.7889e-003  -8.2309e-004   4.1816e-003   1.0646e+006   1.7845e+005   4.0980e+005    0.2481   -0.0000    0.0416   -0.0000    0.1389
                0.0322   4.8603e-003  -8.3537e-004   3.6180e-003   1.0804e+006   1.8112e+005   3.5456e+005    0.2519   -0.0000    0.0422   -0.0000    0.1202
                0.0793   4.9649e-003  -8.5335e-004   2.7765e-003   1.1037e+006   1.8501e+005   2.7209e+005    0.2573   -0.0000    0.0431   -0.0000    0.0922
                0.1275   5.0085e-003  -8.6085e-004   1.9002e-003   1.1134e+006   1.8664e+005   1.8622e+005    0.2595   -0.0000    0.0435   -0.0000    0.0631
                0.1772   5.0065e-003  -8.6049e-004   9.9030e-004   1.1129e+006   1.8656e+005   9.7049e+004    0.2594   -0.0000    0.0435   -0.0000    0.0329
                0.2277   5.0047e-003  -8.6018e-004   6.3855e-005   1.1125e+006   1.8649e+005   6.2578e+003    0.2593   -0.0000    0.0435   -0.0000    0.0021
                0.2792   4.8947e-003  -8.4127e-004   8.7430e-004   1.0881e+006   1.8240e+005   8.5681e+004    0.2536   -0.0000    0.0425   -0.0000    0.0290
                0.3317   4.7767e-003  -8.2100e-004   1.8118e-003   1.0619e+006   1.7800e+005   1.7755e+005    0.2475   -0.0000    0.0415   -0.0000    0.0602
                0.3700   4.6713e-003  -8.0287e-004   2.4807e-003   1.0384e+006   1.7407e+005   2.4311e+005    0.2421   -0.0000    0.0406   -0.0000    0.0824

               lamina:  4     
              matName:  (spar-uni)
                     s           e11           e22           e12           s11           s22           s12   s11_fcT   s11_fcC   s22_fcT   s22_fcC   s12_fcS
                   (m)         (m/m)         (m/m)         (rad)          (Pa)          (Pa)          (Pa)       (-)       (-)       (-)       (-)       (-)
                0.0000   4.7811e-003  -8.2203e-004   4.1816e-003   5.8977e+008   5.4478e+006   1.9695e+007    0.2980   -0.0000    0.0909   -0.0000    0.1912
                0.0322   4.8526e-003  -8.3432e-004   3.6180e-003   5.9858e+008   5.5293e+006   1.7041e+007    0.3025   -0.0000    0.0923   -0.0000    0.1654
                0.0793   4.9572e-003  -8.5229e-004   2.7765e-003   6.1148e+008   5.6485e+006   1.3077e+007    0.3090   -0.0000    0.0943   -0.0000    0.1270
                0.1275   5.0007e-003  -8.5979e-004   1.9002e-003   6.1686e+008   5.6981e+006   8.9502e+006    0.3117   -0.0000    0.0951   -0.0000    0.0869
                0.1772   4.9987e-003  -8.5943e-004   9.9030e-004   6.1660e+008   5.6958e+006   4.6643e+006    0.3116   -0.0000    0.0951   -0.0000    0.0453
                0.2277   4.9969e-003  -8.5912e-004   6.3855e-005   6.1638e+008   5.6937e+006   3.0076e+005    0.3115   -0.0000    0.0951   -0.0000    0.0029
                0.2792   4.8869e-003  -8.4021e-004   8.7430e-004   6.0281e+008   5.5684e+006   4.1179e+006    0.3046   -0.0000    0.0930   -0.0000    0.0400
                0.3317   4.7690e-003  -8.1995e-004   1.8118e-003   5.8827e+008   5.4340e+006   8.5334e+006    0.2973   -0.0000    0.0907   -0.0000    0.0828
                0.3700   4.6635e-003  -8.0182e-004   2.4807e-003   5.7526e+008   5.3138e+006   1.1684e+007    0.2907   -0.0000    0.0887   -0.0000    0.1134

               lamina:  5     
              matName:  (blade-shell)
                     s           e11           e22           e12           s11           s22           s12   s11_fcT   s11_fcC   s22_fcT   s22_fcC   s12_fcS
                   (m)         (m/m)         (m/m)         (rad)          (Pa)          (Pa)          (Pa)       (-)       (-)       (-)       (-)       (-)
                0.0000   4.0561e-003  -7.2353e-004   4.1816e-003   7.7378e+007  -3.8326e+006   1.6517e+007    0.2296   -0.0000    0.0000    0.0114    0.1436
                0.0322   4.1275e-003  -7.3582e-004   3.6180e-003   7.8743e+007  -3.8911e+006   1.4291e+007    0.2337   -0.0000    0.0000    0.0115    0.1243
                0.0793   4.2305e-003  -7.5358e-004   2.7765e-003   8.0709e+007  -3.9765e+006   1.0967e+007    0.2395   -0.0000    0.0000    0.0118    0.0954
                0.1275   4.2727e-003  -7.6087e-004   1.9002e-003   8.1513e+007  -4.0120e+006   7.5060e+006    0.2419   -0.0000    0.0000    0.0119    0.0653
                0.1772   4.2705e-003  -7.6050e-004   9.9030e-004   8.1472e+007  -4.0103e+006   3.9117e+006    0.2418   -0.0000    0.0000    0.0119    0.0340
                0.2277   4.2694e-003  -7.6030e-004   6.3855e-005   8.1452e+007  -4.0090e+006   2.5223e+005    0.2417   -0.0000    0.0000    0.0119    0.0022
                0.2792   4.1618e-003  -7.4170e-004   8.7430e-004   7.9396e+007  -3.9192e+006   3.4535e+006    0.2356   -0.0000    0.0000    0.0116    0.0300
                0.3317   4.0447e-003  -7.2155e-004   1.8118e-003   7.7161e+007  -3.8228e+006   7.1565e+006    0.2290   -0.0000    0.0000    0.0113    0.0622
                0.3700   3.9402e-003  -7.0356e-004   2.4807e-003   7.5167e+007  -3.7366e+006   9.7988e+006    0.2230   -0.0000    0.0000    0.0111    0.0852

            panel:  3     
           lam_num    nPlies        tPly      fibAng     matID  matName
               (-)       (-)         (m)       (deg)       (-)  (-)
                 1         1    0.006094      0.0000         2  (blade-shell)
                 2         1    0.004375      0.0000         6  (TEP-core)
                 3         1    0.006094      0.0000         2  (blade-shell)

               lamina:  1     
              matName:  (blade-shell)
                     s           e11           e22           e12           s11           s22           s12   s11_fcT   s11_fcC   s22_fcT   s22_fcC   s12_fcS
                   (m)         (m/m)         (m/m)         (rad)          (Pa)          (Pa)          (Pa)       (-)       (-)       (-)       (-)       (-)
                0.0000   5.1625e-003  -6.7522e-004   2.4875e-004   9.9110e+007  -7.9903e+004   9.8257e+005    0.2941   -0.0000    0.0000    0.0002    0.0085
                0.0145   5.1205e-003  -6.6972e-004   3.3211e-004   9.8304e+007  -7.9230e+004   1.3118e+006    0.2917   -0.0000    0.0000    0.0002    0.0114
                0.0682   4.9134e-003  -6.4262e-004   6.3320e-004   9.4328e+007  -7.5752e+004   2.5011e+006    0.2799   -0.0000    0.0000    0.0002    0.0217
                0.1219   4.7061e-003  -6.1549e-004   9.2163e-004   9.0348e+007  -7.2278e+004   3.6404e+006    0.2681   -0.0000    0.0000    0.0002    0.0317
                0.1755   4.4609e-003  -5.8341e-004   1.1965e-003   8.5641e+007  -6.8175e+004   4.7264e+006    0.2541   -0.0000    0.0000    0.0002    0.0411
                0.2291   4.2007e-003  -5.4936e-004   1.4553e-003   8.0645e+007  -6.3802e+004   5.7484e+006    0.2393   -0.0000    0.0000    0.0002    0.0500
                0.2819   3.9420e-003  -5.1550e-004   1.6952e-003   7.5678e+007  -5.9459e+004   6.6962e+006    0.2246   -0.0000    0.0000    0.0002    0.0582
                0.3342   3.6618e-003  -4.7884e-004   1.9163e-003   7.0300e+007  -5.4755e+004   7.5695e+006    0.2086   -0.0000    0.0000    0.0002    0.0658
                0.3855   3.3879e-003  -4.4299e-004   2.1170e-003   6.5041e+007  -5.0140e+004   8.3620e+006    0.1930   -0.0000    0.0000    0.0001    0.0727
                0.4355   3.1207e-003  -4.0803e-004   2.2971e-003   5.9912e+007  -4.5639e+004   9.0735e+006    0.1778   -0.0000    0.0000    0.0001    0.0789
                0.4841   2.8614e-003  -3.7410e-004   2.4572e-003   5.4934e+007  -4.1271e+004   9.7060e+006    0.1630   -0.0000    0.0000    0.0001    0.0844
                0.5311   2.6113e-003  -3.4137e-004   2.5983e-003   5.0133e+007  -3.7047e+004   1.0263e+007    0.1488   -0.0000    0.0000    0.0001    0.0892
                0.5761   2.3872e-003  -3.1204e-004   2.7212e-003   4.5831e+007  -3.3257e+004   1.0749e+007    0.1360   -0.0000    0.0000    0.0001    0.0935
                0.6190   2.1771e-003  -2.8454e-004   2.8277e-003   4.1796e+007  -2.9710e+004   1.1170e+007    0.1240   -0.0000    0.0000    0.0001    0.0971
                0.6598   1.9827e-003  -2.5910e-004   2.9195e-003   3.8064e+007  -2.6415e+004   1.1532e+007    0.1130   -0.0000    0.0000    0.0001    0.1003
                0.6981   1.8233e-003  -2.3825e-004   2.9977e-003   3.5005e+007  -2.3713e+004   1.1841e+007    0.1039   -0.0000    0.0000    0.0001    0.1030
                0.7339   1.6741e-003  -2.1872e-004   3.0646e-003   3.2141e+007  -2.1189e+004   1.2105e+007    0.0954   -0.0000    0.0000    0.0001    0.1053
                0.7670   1.5516e-003  -2.0268e-004   3.1214e-003   2.9788e+007  -1.9103e+004   1.2329e+007    0.0884   -0.0000    0.0000    0.0001    0.1072
                0.7972   1.4520e-003  -1.8965e-004   3.1694e-003   2.7876e+007  -1.7416e+004   1.2519e+007    0.0827   -0.0000    0.0000    0.0001    0.1089
                0.8246   1.3620e-003  -1.7788e-004   3.2101e-003   2.6149e+007  -1.5886e+004   1.2680e+007    0.0776   -0.0000    0.0000    0.0000    0.1103
                0.8490   1.3005e-003  -1.6982e-004   3.2443e-003   2.4967e+007  -1.4833e+004   1.2815e+007    0.0741   -0.0000    0.0000    0.0000    0.1114
                0.8702   1.2482e-003  -1.6299e-004   3.2727e-003   2.3965e+007  -1.3951e+004   1.2927e+007    0.0711   -0.0000    0.0000    0.0000    0.1124
                0.8883   1.2049e-003  -1.5731e-004   3.2960e-003   2.3132e+007  -1.3217e+004   1.3019e+007    0.0686   -0.0000    0.0000    0.0000    0.1132
                0.9032   1.1720e-003  -1.5301e-004   3.3146e-003   2.2501e+007  -1.2660e+004   1.3093e+007    0.0668   -0.0000    0.0000    0.0000    0.1138
                0.9144   1.1447e-003  -1.4944e-004   3.3282e-003   2.1976e+007  -1.2244e+004   1.3146e+007    0.0652   -0.0000    0.0000    0.0000    0.1143
                0.9221   1.0960e-003  -1.4308e-004   3.3372e-003   2.1042e+007  -1.1569e+004   1.3182e+007    0.0624   -0.0000    0.0000    0.0000    0.1146
                0.9269   1.0556e-003  -1.3779e-004   3.3427e-003   2.0266e+007  -1.0987e+004   1.3204e+007    0.0601   -0.0000    0.0000    0.0000    0.1148
                0.9286   1.0433e-003  -1.3618e-004   3.3446e-003   2.0029e+007  -1.0779e+004   1.3211e+007    0.0594   -0.0000    0.0000    0.0000    0.1149

               lamina:  2     
              matName:  (TEP-core)
                     s           e11           e22           e12           s11           s22           s12   s11_fcT   s11_fcC   s22_fcT   s22_fcC   s12_fcS
                   (m)         (m/m)         (m/m)         (rad)          (Pa)          (Pa)          (Pa)       (-)       (-)       (-)       (-)       (-)
                0.0000   4.8367e-003  -6.3285e-004   2.4875e-004   1.0906e+006   2.2701e+005   2.4378e+004    0.2542   -0.0000    0.0529   -0.0000    0.0083
                0.0145   4.7963e-003  -6.2756e-004   3.3211e-004   1.0815e+006   2.2511e+005   3.2546e+004    0.2521   -0.0000    0.0525   -0.0000    0.0110
                0.0682   4.5897e-003  -6.0053e-004   6.3320e-004   1.0349e+006   2.1542e+005   6.2054e+004    0.2412   -0.0000    0.0502   -0.0000    0.0210
                0.1219   4.3832e-003  -5.7351e-004   9.2163e-004   9.8837e+005   2.0572e+005   9.0320e+004    0.2304   -0.0000    0.0480   -0.0000    0.0306
                0.1755   4.1393e-003  -5.4159e-004   1.1965e-003   9.3338e+005   1.9428e+005   1.1726e+005    0.2176   -0.0000    0.0453   -0.0000    0.0397
                0.2291   3.8796e-003  -5.0760e-004   1.4553e-003   8.7481e+005   1.8209e+005   1.4262e+005    0.2039   -0.0000    0.0424   -0.0000    0.0483
                0.2819   3.6216e-003  -4.7384e-004   1.6952e-003   8.1663e+005   1.6998e+005   1.6613e+005    0.1904   -0.0000    0.0396   -0.0000    0.0563
                0.3342   3.3422e-003  -4.3727e-004   1.9163e-003   7.5362e+005   1.5687e+005   1.8780e+005    0.1757   -0.0000    0.0366   -0.0000    0.0637
                0.3855   3.0682e-003  -4.0142e-004   2.1170e-003   6.9185e+005   1.4401e+005   2.0746e+005    0.1613   -0.0000    0.0336   -0.0000    0.0703
                0.4355   2.8011e-003  -3.6646e-004   2.2971e-003   6.3161e+005   1.3147e+005   2.2511e+005    0.1472   -0.0000    0.0306   -0.0000    0.0763
                0.4841   2.5418e-003  -3.3253e-004   2.4572e-003   5.7314e+005   1.1931e+005   2.4081e+005    0.1336   -0.0000    0.0278   -0.0000    0.0816
                0.5311   2.2912e-003  -2.9973e-004   2.5983e-003   5.1663e+005   1.0755e+005   2.5464e+005    0.1204   -0.0000    0.0251   -0.0000    0.0863
                0.5761   2.0664e-003  -2.7032e-004   2.7212e-003   4.6595e+005   9.6997e+004   2.6668e+005    0.1086   -0.0000    0.0226   -0.0000    0.0904
                0.6190   1.8559e-003  -2.4278e-004   2.8277e-003   4.1850e+005   8.7120e+004   2.7712e+005    0.0976   -0.0000    0.0203   -0.0000    0.0939
                0.6598   1.6606e-003  -2.1722e-004   2.9195e-003   3.7445e+005   7.7954e+004   2.8611e+005    0.0873   -0.0000    0.0182   -0.0000    0.0970
                0.6981   1.5005e-003  -1.9626e-004   2.9977e-003   3.3834e+005   7.0439e+004   2.9378e+005    0.0789   -0.0000    0.0164   -0.0000    0.0996
                0.7339   1.3508e-003  -1.7667e-004   3.0646e-003   3.0458e+005   6.3412e+004   3.0033e+005    0.0710   -0.0000    0.0148   -0.0000    0.1018
                0.7670   1.2272e-003  -1.6050e-004   3.1214e-003   2.7673e+005   5.7615e+004   3.0589e+005    0.0645   -0.0000    0.0134   -0.0000    0.1037
                0.7972   1.1272e-003  -1.4742e-004   3.1694e-003   2.5418e+005   5.2922e+004   3.1060e+005    0.0592   -0.0000    0.0123   -0.0000    0.1053
                0.8246   1.0366e-003  -1.3556e-004   3.2101e-003   2.3374e+005   4.8669e+004   3.1459e+005    0.0545   -0.0000    0.0113   -0.0000    0.1066
                0.8490   9.7431e-004  -1.2741e-004   3.2443e-003   2.1970e+005   4.5746e+004   3.1794e+005    0.0512   -0.0000    0.0107   -0.0000    0.1078
                0.8702   9.2198e-004  -1.2056e-004   3.2727e-003   2.0790e+005   4.3291e+004   3.2072e+005    0.0485   -0.0000    0.0101   -0.0000    0.1087
                0.8883   8.7845e-004  -1.1486e-004   3.2960e-003   1.9809e+005   4.1248e+004   3.2301e+005    0.0462   -0.0000    0.0096   -0.0000    0.1095
                0.9032   8.4544e-004  -1.1054e-004   3.3146e-003   1.9064e+005   3.9699e+004   3.2483e+005    0.0444   -0.0000    0.0093   -0.0000    0.1101
                0.9144   8.2015e-004  -1.0723e-004   3.3282e-003   1.8494e+005   3.8512e+004   3.2616e+005    0.0431   -0.0000    0.0090   -0.0000    0.1106
                0.9221   7.7813e-004  -1.0174e-004   3.3372e-003   1.7547e+005   3.6539e+004   3.2705e+005    0.0409   -0.0000    0.0085   -0.0000    0.1109
                0.9269   7.4230e-004  -9.7047e-005   3.3427e-003   1.6739e+005   3.4857e+004   3.2758e+005    0.0390   -0.0000    0.0081   -0.0000    0.1110
                0.9286   7.2996e-004  -9.5433e-005   3.3446e-003   1.6460e+005   3.4279e+004   3.2777e+005    0.0384   -0.0000    0.0080   -0.0000    0.1111

               lamina:  3     
              matName:  (blade-shell)
                     s           e11           e22           e12           s11           s22           s12   s11_fcT   s11_fcC   s22_fcT   s22_fcC   s12_fcS
                   (m)         (m/m)         (m/m)         (rad)          (Pa)          (Pa)          (Pa)       (-)       (-)       (-)       (-)       (-)
                0.0000   4.6028e-003  -6.0243e-004   2.4875e-004   8.8364e+007  -7.9408e+004   9.8257e+005    0.2622   -0.0000    0.0000    0.0002    0.0085
                0.0145   4.5635e-003  -5.9729e-004   3.3211e-004   8.7610e+007  -7.8737e+004   1.3118e+006    0.2600   -0.0000    0.0000    0.0002    0.0114
                0.0682   4.3573e-003  -5.7031e-004   6.3320e-004   8.3651e+007  -7.5260e+004   2.5011e+006    0.2482   -0.0000    0.0000    0.0002    0.0217
                0.1219   4.1514e-003  -5.4336e-004   9.2163e-004   7.9698e+007  -7.1787e+004   3.6404e+006    0.2365   -0.0000    0.0000    0.0002    0.0317
                0.1755   3.9085e-003  -5.1157e-004   1.1965e-003   7.5034e+007  -6.7687e+004   4.7264e+006    0.2227   -0.0000    0.0000    0.0002    0.0411
                0.2291   3.6491e-003  -4.7762e-004   1.4553e-003   7.0054e+007  -6.3314e+004   5.7484e+006    0.2079   -0.0000    0.0000    0.0002    0.0500
                0.2819   3.3916e-003  -4.4393e-004   1.6952e-003   6.5111e+007  -5.8972e+004   6.6962e+006    0.1932   -0.0000    0.0000    0.0002    0.0582
                0.3342   3.1127e-003  -4.0743e-004   1.9163e-003   5.9756e+007  -5.4269e+004   7.5695e+006    0.1773   -0.0000    0.0000    0.0002    0.0658
                0.3855   2.8387e-003  -3.7158e-004   2.1170e-003   5.4497e+007  -4.9654e+004   8.3620e+006    0.1617   -0.0000    0.0000    0.0001    0.0727
                0.4355   2.5716e-003  -3.3661e-004   2.2971e-003   4.9368e+007  -4.5153e+004   9.0735e+006    0.1465   -0.0000    0.0000    0.0001    0.0789
                0.4841   2.3123e-003  -3.0268e-004   2.4572e-003   4.4390e+007  -4.0785e+004   9.7060e+006    0.1317   -0.0000    0.0000    0.0001    0.0844
                0.5311   2.0613e-003  -2.6984e-004   2.5983e-003   3.9572e+007  -3.6560e+004   1.0263e+007    0.1174   -0.0000    0.0000    0.0001    0.0892
                0.5761   1.8361e-003  -2.4037e-004   2.7212e-003   3.5248e+007  -3.2769e+004   1.0749e+007    0.1046   -0.0000    0.0000    0.0001    0.0935
                0.6190   1.6254e-003  -2.1280e-004   2.8277e-003   3.1204e+007  -2.9222e+004   1.1170e+007    0.0926   -0.0000    0.0000    0.0001    0.0971
                0.6598   1.4294e-003  -1.8715e-004   2.9195e-003   2.7441e+007  -2.5925e+004   1.1532e+007    0.0814   -0.0000    0.0000    0.0001    0.1003
                0.6981   1.2687e-003  -1.6611e-004   2.9977e-003   2.4355e+007  -2.3222e+004   1.1841e+007    0.0723   -0.0000    0.0000    0.0001    0.1030
                0.7339   1.1186e-003  -1.4647e-004   3.0646e-003   2.1474e+007  -2.0697e+004   1.2105e+007    0.0637   -0.0000    0.0000    0.0001    0.1053
                0.7670   9.9435e-004  -1.3022e-004   3.1214e-003   1.9089e+007  -1.8610e+004   1.2329e+007    0.0566   -0.0000    0.0000    0.0001    0.1072
                0.7972   8.9402e-004  -1.1709e-004   3.1694e-003   1.7163e+007  -1.6922e+004   1.2519e+007    0.0509   -0.0000    0.0000    0.0001    0.1089
                0.8246   8.0294e-004  -1.0517e-004   3.2101e-003   1.5414e+007  -1.5391e+004   1.2680e+007    0.0457   -0.0000    0.0000    0.0000    0.1103
                0.8490   7.4015e-004  -9.6953e-005   3.2443e-003   1.4209e+007  -1.4338e+004   1.2815e+007    0.0422   -0.0000    0.0000    0.0000    0.1114
                0.8702   6.8774e-004  -9.0095e-005   3.2727e-003   1.3203e+007  -1.3455e+004   1.2927e+007    0.0392   -0.0000    0.0000    0.0000    0.1124
                0.8883   6.4409e-004  -8.4383e-005   3.2960e-003   1.2365e+007  -1.2721e+004   1.3019e+007    0.0367   -0.0000    0.0000    0.0000    0.1132
                0.9032   6.1098e-004  -8.0051e-005   3.3146e-003   1.1729e+007  -1.2164e+004   1.3093e+007    0.0348   -0.0000    0.0000    0.0000    0.1138
                0.9144   5.8715e-004  -7.6932e-005   3.3282e-003   1.1272e+007  -1.1751e+004   1.3146e+007    0.0334   -0.0000    0.0000    0.0000    0.1143
                0.9221   5.4989e-004  -7.2054e-005   3.3372e-003   1.0557e+007  -1.1085e+004   1.3182e+007    0.0313   -0.0000    0.0000    0.0000    0.1146
                0.9269   5.1736e-004  -6.7796e-005   3.3427e-003   9.9320e+006  -1.0511e+004   1.3204e+007    0.0295   -0.0000    0.0000    0.0000    0.1148
                0.9286   5.0503e-004  -6.6182e-005   3.3446e-003   9.6953e+006  -1.0303e+004   1.3211e+007    0.0288   -0.0000    0.0000    0.0000    0.1149

     Web:  panel  nNode   nLam     xc_St    xc_End         b         t         E_eff         G_eff      nu_eff     density  buckleCrit
            (-)    (-)    (-)       (-)       (-)       (m)       (m)          (Pa)          (Pa)         (-)    (kg/m^3)         (-)
              1     10      3    0.2401    0.2401    0.3985    0.0121   6.5707e+009   1.3870e+009      0.1347    691.8998      0.3968
              2     10      3    0.4599    0.4599    0.3806    0.0121   6.5707e+009   1.3870e+009      0.1347    691.8998      0.4005

            panel:  1     
           lam_num    nPlies        tPly      fibAng     matID  matName
               (-)       (-)         (m)       (deg)       (-)  (-)
                 1         1    0.002023      0.0000         7  (web-shell)
                 2         1    0.008047      0.0000         8  (web-core)
                 3         1    0.002023      0.0000         7  (web-shell)

               lamina:  1     
              matName:  (web-shell)
                     s           e11           e22           e12           s11           s22           s12   s11_fcT   s11_fcC   s22_fcT   s22_fcC   s12_fcS
                   (m)         (m/m)         (m/m)         (rad)          (Pa)          (Pa)          (Pa)       (-)       (-)       (-)       (-)       (-)
                0.0000  -4.7595e-003   6.4105e-004   1.1050e-002  -9.1326e+007   4.3572e+005   4.3646e+007    0.0000    0.1838    0.0013   -0.0000    0.3795
                0.0443  -3.7041e-003   4.9889e-004   1.1277e-002  -7.1074e+007   3.3912e+005   4.4546e+007    0.0000    0.1430    0.0010   -0.0000    0.3874
                0.0886  -2.6486e-003   3.5674e-004   1.1450e-002  -5.0822e+007   2.4252e+005   4.5227e+007    0.0000    0.1023    0.0007   -0.0000    0.3933
                0.1328  -1.5932e-003   2.1458e-004   1.1566e-002  -3.0570e+007   1.4592e+005   4.5687e+007    0.0000    0.0615    0.0004   -0.0000    0.3973
                0.1771  -5.3771e-004   7.2427e-005   1.1627e-002  -1.0318e+007   4.9320e+004   4.5928e+007    0.0000    0.0208    0.0001   -0.0000    0.3994
                0.2214   5.1850e-004  -6.9827e-005   1.1633e-002   9.9491e+006  -4.7294e+004   4.5949e+007    0.0295   -0.0000    0.0000    0.0001    0.3996
                0.2657   1.5740e-003  -2.1198e-004   1.1582e-002   3.0201e+007  -1.4389e+005   4.5750e+007    0.0896   -0.0000    0.0000    0.0004    0.3978
                0.3099   2.6294e-003  -3.5414e-004   1.1476e-002   5.0453e+007  -2.4049e+005   4.5331e+007    0.1497   -0.0000    0.0000    0.0007    0.3942
                0.3542   3.6849e-003  -4.9629e-004   1.1314e-002   7.0706e+007  -3.3709e+005   4.4692e+007    0.2098   -0.0000    0.0000    0.0010    0.3886
                0.3985   4.7403e-003  -6.3845e-004   1.1097e-002   9.0958e+007  -4.3369e+005   4.3833e+007    0.2699   -0.0000    0.0000    0.0013    0.3812

               lamina:  2     
              matName:  (web-core)
                     s           e11           e22           e12           s11           s22           s12   s11_fcT   s11_fcC   s22_fcT   s22_fcC   s12_fcS
                   (m)         (m/m)         (m/m)         (rad)          (Pa)          (Pa)          (Pa)       (-)       (-)       (-)       (-)       (-)
                0.0000  -4.7625e-003   6.4144e-004   1.1050e-002  -1.0725e+006  -2.1921e+005   1.0829e+006    0.0000    0.2500    0.0000    0.0511    0.3671
                0.0443  -3.7071e-003   4.9928e-004   1.1277e-002  -8.3479e+005  -1.7063e+005   1.1052e+006    0.0000    0.1946    0.0000    0.0398    0.3746
                0.0886  -2.6516e-003   3.5713e-004   1.1450e-002  -5.9711e+005  -1.2205e+005   1.1221e+006    0.0000    0.1392    0.0000    0.0284    0.3804
                0.1328  -1.5961e-003   2.1497e-004   1.1566e-002  -3.5944e+005  -7.3469e+004   1.1335e+006    0.0000    0.0838    0.0000    0.0171    0.3842
                0.1771  -5.4069e-004   7.2818e-005   1.1627e-002  -1.2176e+005  -2.4888e+004   1.1395e+006    0.0000    0.0284    0.0000    0.0058    0.3863
                0.2214   5.1775e-004  -6.9728e-005   1.1633e-002   1.1659e+005   2.3832e+004   1.1400e+006    0.0272   -0.0000    0.0056   -0.0000    0.3864
                0.2657   1.5732e-003  -2.1188e-004   1.1582e-002   3.5427e+005   7.2413e+004   1.1351e+006    0.0826   -0.0000    0.0169   -0.0000    0.3848
                0.3099   2.6287e-003  -3.5404e-004   1.1476e-002   5.9195e+005   1.2099e+005   1.1247e+006    0.1380   -0.0000    0.0282   -0.0000    0.3812
                0.3542   3.6841e-003  -4.9619e-004   1.1314e-002   8.2962e+005   1.6958e+005   1.1088e+006    0.1934   -0.0000    0.0395   -0.0000    0.3759
                0.3985   4.7396e-003  -6.3835e-004   1.1097e-002   1.0673e+006   2.1816e+005   1.0875e+006    0.2488   -0.0000    0.0509   -0.0000    0.3686

               lamina:  3     
              matName:  (web-shell)
                     s           e11           e22           e12           s11           s22           s12   s11_fcT   s11_fcC   s22_fcT   s22_fcC   s12_fcS
                   (m)         (m/m)         (m/m)         (rad)          (Pa)          (Pa)          (Pa)       (-)       (-)       (-)       (-)       (-)
                0.0000  -4.7633e-003   6.4154e-004   1.1050e-002  -9.1398e+007   4.3579e+005   4.3646e+007    0.0000    0.1839    0.0013   -0.0000    0.3795
                0.0443  -3.7078e-003   4.9938e-004   1.1277e-002  -7.1146e+007   3.3919e+005   4.4546e+007    0.0000    0.1432    0.0010   -0.0000    0.3874
                0.0886  -2.6523e-003   3.5723e-004   1.1450e-002  -5.0894e+007   2.4259e+005   4.5227e+007    0.0000    0.1024    0.0007   -0.0000    0.3933
                0.1328  -1.5969e-003   2.1507e-004   1.1566e-002  -3.0641e+007   1.4599e+005   4.5687e+007    0.0000    0.0617    0.0004   -0.0000    0.3973
                0.1771  -5.4144e-004   7.2916e-005   1.1627e-002  -1.0389e+007   4.9393e+004   4.5928e+007    0.0000    0.0209    0.0001   -0.0000    0.3994
                0.2214   5.1477e-004  -6.9337e-005   1.1633e-002   9.8774e+006  -4.7220e+004   4.5949e+007    0.0293   -0.0000    0.0000    0.0001    0.3996
                0.2657   1.5702e-003  -2.1149e-004   1.1582e-002   3.0130e+007  -1.4382e+005   4.5750e+007    0.0894   -0.0000    0.0000    0.0004    0.3978
                0.3099   2.6257e-003  -3.5365e-004   1.1476e-002   5.0382e+007  -2.4042e+005   4.5331e+007    0.1495   -0.0000    0.0000    0.0007    0.3942
                0.3542   3.6811e-003  -4.9580e-004   1.1314e-002   7.0634e+007  -3.3702e+005   4.4692e+007    0.2096   -0.0000    0.0000    0.0010    0.3886
                0.3985   4.7366e-003  -6.3796e-004   1.1097e-002   9.0886e+007  -4.3362e+005   4.3833e+007    0.2697   -0.0000    0.0000    0.0013    0.3812

            panel:  2     
           lam_num    nPlies        tPly      fibAng     matID  matName
               (-)       (-)         (m)       (deg)       (-)  (-)
                 1         1    0.002023      0.0000         7  (web-shell)
                 2         1    0.008047      0.0000         8  (web-core)
                 3         1    0.002023      0.0000         7  (web-shell)

               lamina:  1     
              matName:  (web-shell)
                     s           e11           e22           e12           s11           s22           s12   s11_fcT   s11_fcC   s22_fcT   s22_fcC   s12_fcS
                   (m)         (m/m)         (m/m)         (rad)          (Pa)          (Pa)          (Pa)       (-)       (-)       (-)       (-)       (-)
                0.0000  -4.6534e-003   6.2675e-004   1.2451e-002  -8.9290e+007   4.2600e+005   4.9180e+007    0.0000    0.1797    0.0013   -0.0000    0.4277
                0.0423  -3.6452e-003   4.9096e-004   1.2659e-002  -6.9944e+007   3.3372e+005   5.0003e+007    0.0000    0.1407    0.0010   -0.0000    0.4348
                0.0846  -2.6370e-003   3.5517e-004   1.2816e-002  -5.0599e+007   2.4145e+005   5.0624e+007    0.0000    0.1018    0.0007   -0.0000    0.4402
                0.1269  -1.6288e-003   2.1938e-004   1.2923e-002  -3.1253e+007   1.4917e+005   5.1045e+007    0.0000    0.0629    0.0004   -0.0000    0.4439
                0.1692  -6.2060e-004   8.3591e-005   1.2978e-002  -1.1908e+007   5.6901e+004   5.1265e+007    0.0000    0.0240    0.0002   -0.0000    0.4458
                0.2115   3.8831e-004  -5.2292e-005   1.2983e-002   7.4509e+006  -3.5386e+004   5.1284e+007    0.0221   -0.0000    0.0000    0.0001    0.4459
                0.2538   1.3965e-003  -1.8808e-004   1.2937e-002   2.6796e+007  -1.2766e+005   5.1103e+007    0.0795   -0.0000    0.0000    0.0004    0.4444
                0.2960   2.4047e-003  -3.2387e-004   1.2841e-002   4.6142e+007  -2.1993e+005   5.0721e+007    0.1369   -0.0000    0.0000    0.0007    0.4411
                0.3383   3.4129e-003  -4.5966e-004   1.2693e-002   6.5487e+007  -3.1221e+005   5.0139e+007    0.1943   -0.0000    0.0000    0.0009    0.4360
                0.3806   4.4211e-003  -5.9545e-004   1.2495e-002   8.4832e+007  -4.0448e+005   4.9356e+007    0.2517   -0.0000    0.0000    0.0012    0.4292

               lamina:  2     
              matName:  (web-core)
                     s           e11           e22           e12           s11           s22           s12   s11_fcT   s11_fcC   s22_fcT   s22_fcC   s12_fcS
                   (m)         (m/m)         (m/m)         (rad)          (Pa)          (Pa)          (Pa)       (-)       (-)       (-)       (-)       (-)
                0.0000  -4.6562e-003   6.2712e-004   1.2451e-002  -1.0485e+006  -2.1432e+005   1.2202e+006    0.0000    0.2444    0.0000    0.0500    0.4136
                0.0423  -3.6480e-003   4.9133e-004   1.2659e-002  -8.2150e+005  -1.6791e+005   1.2406e+006    0.0000    0.1915    0.0000    0.0391    0.4205
                0.0846  -2.6398e-003   3.5554e-004   1.2816e-002  -5.9446e+005  -1.2151e+005   1.2560e+006    0.0000    0.1386    0.0000    0.0283    0.4258
                0.1269  -1.6316e-003   2.1975e-004   1.2923e-002  -3.6743e+005  -7.5103e+004   1.2664e+006    0.0000    0.0856    0.0000    0.0175    0.4293
                0.1692  -6.2343e-004   8.3963e-005   1.2978e-002  -1.4039e+005  -2.8697e+004   1.2719e+006    0.0000    0.0327    0.0000    0.0067    0.4311
                0.2115   3.8760e-004  -5.2199e-005   1.2983e-002   8.7283e+004   1.7842e+004   1.2724e+006    0.0203   -0.0000    0.0042   -0.0000    0.4313
                0.2538   1.3958e-003  -1.8799e-004   1.2937e-002   3.1432e+005   6.4247e+004   1.2679e+006    0.0733   -0.0000    0.0150   -0.0000    0.4298
                0.2960   2.4040e-003  -3.2378e-004   1.2841e-002   5.4135e+005   1.1065e+005   1.2584e+006    0.1262   -0.0000    0.0258   -0.0000    0.4266
                0.3383   3.4122e-003  -4.5957e-004   1.2693e-002   7.6839e+005   1.5706e+005   1.2439e+006    0.1791   -0.0000    0.0366   -0.0000    0.4217
                0.3806   4.4204e-003  -5.9536e-004   1.2495e-002   9.9542e+005   2.0346e+005   1.2245e+006    0.2320   -0.0000    0.0474   -0.0000    0.4151

               lamina:  3     
              matName:  (web-shell)
                     s           e11           e22           e12           s11           s22           s12   s11_fcT   s11_fcC   s22_fcT   s22_fcC   s12_fcS
                   (m)         (m/m)         (m/m)         (rad)          (Pa)          (Pa)          (Pa)       (-)       (-)       (-)       (-)       (-)
                0.0000  -4.6569e-003   6.2722e-004   1.2451e-002  -8.9358e+007   4.2607e+005   4.9180e+007    0.0000    0.1798    0.0013   -0.0000    0.4277
                0.0423  -3.6487e-003   4.9143e-004   1.2659e-002  -7.0012e+007   3.3379e+005   5.0003e+007    0.0000    0.1409    0.0010   -0.0000    0.4348
                0.0846  -2.6405e-003   3.5564e-004   1.2816e-002  -5.0667e+007   2.4152e+005   5.0624e+007    0.0000    0.1019    0.0007   -0.0000    0.4402
                0.1269  -1.6323e-003   2.1985e-004   1.2923e-002  -3.1322e+007   1.4924e+005   5.1045e+007    0.0000    0.0630    0.0004   -0.0000    0.4439
                0.1692  -6.2415e-004   8.4056e-005   1.2978e-002  -1.1976e+007   5.6971e+004   5.1265e+007    0.0000    0.0241    0.0002   -0.0000    0.4458
                0.2115   3.8476e-004  -5.1827e-005   1.2983e-002   7.3828e+006  -3.5317e+004   5.1284e+007    0.0219   -0.0000    0.0000    0.0001    0.4459
                0.2538   1.3930e-003  -1.8762e-004   1.2937e-002   2.6728e+007  -1.2759e+005   5.1103e+007    0.0793   -0.0000    0.0000    0.0004    0.4444
                0.2960   2.4012e-003  -3.2341e-004   1.2841e-002   4.6074e+007  -2.1986e+005   5.0721e+007    0.1367   -0.0000    0.0000    0.0007    0.4411
                0.3383   3.4094e-003  -4.5920e-004   1.2693e-002   6.5419e+007  -3.1214e+005   5.0139e+007    0.1941   -0.0000    0.0000    0.0009    0.4360
                0.3806   4.4175e-003  -5.9499e-004   1.2495e-002   8.4764e+007  -4.0441e+005   4.9356e+007    0.2515   -0.0000    0.0000    0.0012    0.4292

================================================================================
sec        =  8      
zSec       =  2.0970  (m)
nPanelsTop =  3      
nPanelsBot =  3      
nWebs      =  2      

    Top:  panel  nNode   nLam     xc_St    xc_End         b         t         E_eff         G_eff      nu_eff     density  buckleCrit
            (-)    (-)    (-)       (-)       (-)       (m)       (m)          (Pa)          (Pa)         (-)    (kg/m^3)         (-)
              1     18      3    0.0000    0.2397    0.4638    0.0121   1.8769e+010   3.8625e+009      0.1301   1636.6010      0.2504
              2      9      5    0.2397    0.4603    0.3611    0.0202   6.2152e+010   4.2553e+009      0.1714   1583.9163      0.3285
              3     28      3    0.4603    1.0000    0.9118    0.0160   1.4235e+010   2.9425e+009      0.1309   1285.5052      0.9719

            panel:  1     
           lam_num    nPlies        tPly      fibAng     matID  matName
               (-)       (-)         (m)       (deg)       (-)  (-)
                 1         1    0.005913      0.0000         2  (blade-shell)
                 2         1    0.000275      0.0000         5  (LEP-core)
                 3         1    0.005913      0.0000         2  (blade-shell)

               lamina:  1     
              matName:  (blade-shell)
                     s           e11           e22           e12           s11           s22           s12   s11_fcT   s11_fcC   s22_fcT   s22_fcC   s12_fcS
                   (m)         (m/m)         (m/m)         (rad)          (Pa)          (Pa)          (Pa)       (-)       (-)       (-)       (-)       (-)
                0.0000   5.1366e-004  -6.6805e-005   6.0828e-003   9.8622e+006  -5.6651e+002   2.4027e+007    0.0293   -0.0000    0.0000    0.0000    0.2089
                0.0055   3.6758e-004  -4.7806e-005   6.0845e-003   7.0575e+006  -4.0648e+002   2.4034e+007    0.0209   -0.0000    0.0000    0.0000    0.2090
                0.0215  -2.3651e-004   3.0750e-005   6.0837e-003  -4.5410e+006   6.3612e+001   2.4031e+007    0.0000    0.0091    0.0000   -0.0000    0.2090
                0.0413  -8.2656e-004   1.0748e-004   6.0707e-003  -1.5870e+007   6.2295e+002   2.3979e+007    0.0000    0.0319    0.0000   -0.0000    0.2085
                0.0579  -1.2454e-003   1.6195e-004   6.0506e-003  -2.3911e+007   1.0105e+003   2.3900e+007    0.0000    0.0481    0.0000   -0.0000    0.2078
                0.0799  -1.7459e-003   2.2704e-004   6.0125e-003  -3.3520e+007   1.5262e+003   2.3749e+007    0.0000    0.0674    0.0000   -0.0000    0.2065
                0.1024  -2.1917e-003   2.8502e-004   5.9609e-003  -4.2081e+007   1.9735e+003   2.3545e+007    0.0000    0.0847    0.0000   -0.0000    0.2047
                0.1279  -2.6311e-003   3.4217e-004   5.8888e-003  -5.0517e+007   2.4416e+003   2.3261e+007    0.0000    0.1016    0.0000   -0.0000    0.2023
                0.1564  -3.1223e-003   4.0604e-004   5.7920e-003  -5.9947e+007   2.9534e+003   2.2878e+007    0.0000    0.1206    0.0000   -0.0000    0.1989
                0.1855  -3.5072e-003   4.5611e-004   5.6779e-003  -6.7339e+007   3.3547e+003   2.2428e+007    0.0000    0.1355    0.0000   -0.0000    0.1950
                0.2180  -3.9232e-003   5.1021e-004   5.5348e-003  -7.5325e+007   3.8030e+003   2.1862e+007    0.0000    0.1516    0.0000   -0.0000    0.1901
                0.2521  -4.3143e-003   5.6108e-004   5.3670e-003  -8.2835e+007   4.2178e+003   2.1200e+007    0.0000    0.1667    0.0000   -0.0000    0.1843
                0.2882  -4.6554e-003   6.0544e-004   5.1738e-003  -8.9383e+007   4.5851e+003   2.0436e+007    0.0000    0.1798    0.0000   -0.0000    0.1777
                0.3267  -5.0208e-003   6.5297e-004   4.9508e-003  -9.6400e+007   4.9775e+003   1.9556e+007    0.0000    0.1940    0.0000   -0.0000    0.1701
                0.3664  -5.2972e-003   6.8891e-004   4.7059e-003  -1.0171e+008   5.2725e+003   1.8588e+007    0.0000    0.2046    0.0000   -0.0000    0.1616
                0.4082  -5.5635e-003   7.2354e-004   4.4338e-003  -1.0682e+008   5.5618e+003   1.7513e+007    0.0000    0.2149    0.0000   -0.0000    0.1523
                0.4516  -5.8154e-003   7.5630e-004   4.1370e-003  -1.1165e+008   5.8346e+003   1.6341e+007    0.0000    0.2247    0.0000   -0.0000    0.1421
                0.4638  -5.8622e-003   7.6238e-004   4.0520e-003  -1.1255e+008   5.8805e+003   1.6005e+007    0.0000    0.2265    0.0000   -0.0000    0.1392

               lamina:  2     
              matName:  (LEP-core)
                     s           e11           e22           e12           s11           s22           s12   s11_fcT   s11_fcC   s22_fcT   s22_fcC   s12_fcS
                   (m)         (m/m)         (m/m)         (rad)          (Pa)          (Pa)          (Pa)       (-)       (-)       (-)       (-)       (-)
                0.0000   5.2062e-004  -6.7710e-005   6.0828e-003   1.1743e+005   2.4532e+004   5.9611e+005    0.0274   -0.0000    0.0057   -0.0000    0.2021
                0.0055   3.7454e-004  -4.8711e-005   6.0845e-003   8.4478e+004   1.7648e+004   5.9628e+005    0.0197   -0.0000    0.0041   -0.0000    0.2021
                0.0215  -6.2035e-005   8.0678e-006   6.0837e-003  -1.3992e+004  -2.9231e+003   5.9620e+005    0.0000    0.0033    0.0000    0.0007    0.2021
                0.0413  -5.7439e-004   7.4703e-005   6.0707e-003  -1.2955e+005  -2.7065e+004   5.9493e+005    0.0000    0.0302    0.0000    0.0063    0.2017
                0.0579  -9.2966e-004   1.2091e-004   6.0506e-003  -2.0968e+005  -4.3805e+004   5.9296e+005    0.0000    0.0489    0.0000    0.0102    0.2010
                0.0799  -1.4010e-003   1.8221e-004   6.0125e-003  -3.1600e+005  -6.6015e+004   5.8922e+005    0.0000    0.0737    0.0000    0.0154    0.1997
                0.1024  -1.8102e-003   2.3543e-004   5.9609e-003  -4.0829e+005  -8.5295e+004   5.8417e+005    0.0000    0.0952    0.0000    0.0199    0.1980
                0.1279  -2.2378e-003   2.9104e-004   5.8888e-003  -5.0473e+005  -1.0544e+005   5.7710e+005    0.0000    0.1177    0.0000    0.0246    0.1956
                0.1564  -2.7055e-003   3.5187e-004   5.7920e-003  -6.1022e+005  -1.2748e+005   5.6761e+005    0.0000    0.1422    0.0000    0.0297    0.1924
                0.1855  -3.0723e-003   3.9956e-004   5.6779e-003  -6.9295e+005  -1.4476e+005   5.5643e+005    0.0000    0.1615    0.0000    0.0337    0.1886
                0.2180  -3.4816e-003   4.5281e-004   5.5348e-003  -7.8528e+005  -1.6405e+005   5.4241e+005    0.0000    0.1830    0.0000    0.0382    0.1839
                0.2521  -3.8605e-003   5.0209e-004   5.3670e-003  -8.7074e+005  -1.8191e+005   5.2597e+005    0.0000    0.2030    0.0000    0.0424    0.1783
                0.2882  -4.1960e-003   5.4572e-004   5.1738e-003  -9.4641e+005  -1.9771e+005   5.0703e+005    0.0000    0.2206    0.0000    0.0461    0.1719
                0.3267  -4.5543e-003   5.9232e-004   4.9508e-003  -1.0272e+006  -2.1460e+005   4.8518e+005    0.0000    0.2394    0.0000    0.0500    0.1645
                0.3664  -4.8238e-003   6.2736e-004   4.7059e-003  -1.0880e+006  -2.2729e+005   4.6117e+005    0.0000    0.2536    0.0000    0.0530    0.1563
                0.4082  -5.0880e-003   6.6172e-004   4.4338e-003  -1.1476e+006  -2.3974e+005   4.3451e+005    0.0000    0.2675    0.0000    0.0559    0.1473
                0.4516  -5.3370e-003   6.9411e-004   4.1370e-003  -1.2038e+006  -2.5148e+005   4.0543e+005    0.0000    0.2806    0.0000    0.0586    0.1374
                0.4638  -5.3790e-003   6.9958e-004   4.0520e-003  -1.2132e+006  -2.5346e+005   3.9710e+005    0.0000    0.2828    0.0000    0.0591    0.1346

               lamina:  3     
              matName:  (blade-shell)
                     s           e11           e22           e12           s11           s22           s12   s11_fcT   s11_fcC   s22_fcT   s22_fcC   s12_fcS
                   (m)         (m/m)         (m/m)         (rad)          (Pa)          (Pa)          (Pa)       (-)       (-)       (-)       (-)       (-)
                0.0000   6.7038e-004  -8.7179e-005   6.0828e-003   1.2871e+007  -5.6659e+002   2.4027e+007    0.0382   -0.0000    0.0000    0.0000    0.2089
                0.0055   5.2430e-004  -6.8180e-005   6.0845e-003   1.0067e+007  -4.0657e+002   2.4034e+007    0.0299   -0.0000    0.0000    0.0000    0.2090
                0.0215   1.2055e-004  -1.5669e-005   6.0837e-003   2.3147e+006   6.3511e+001   2.4031e+007    0.0069   -0.0000    0.0000   -0.0000    0.2090
                0.0413  -5.6267e-004   7.3178e-005   6.0707e-003  -1.0803e+007   6.2280e+002   2.3979e+007    0.0000    0.0217    0.0000   -0.0000    0.2085
                0.0579  -9.1498e-004   1.1900e-004   6.0506e-003  -1.7567e+007   1.0104e+003   2.3900e+007    0.0000    0.0353    0.0000   -0.0000    0.2078
                0.0799  -1.3850e-003   1.8013e-004   6.0125e-003  -2.6591e+007   1.5260e+003   2.3749e+007    0.0000    0.0535    0.0000   -0.0000    0.2065
                0.1024  -1.7924e-003   2.3312e-004   5.9609e-003  -3.4415e+007   1.9733e+003   2.3545e+007    0.0000    0.0692    0.0000   -0.0000    0.2047
                0.1279  -2.2195e-003   2.8866e-004   5.8888e-003  -4.2614e+007   2.4414e+003   2.3261e+007    0.0000    0.0857    0.0000   -0.0000    0.2023
                0.1564  -2.6861e-003   3.4935e-004   5.7920e-003  -5.1573e+007   2.9532e+003   2.2878e+007    0.0000    0.1038    0.0000   -0.0000    0.1989
                0.1855  -3.0520e-003   3.9694e-004   5.6779e-003  -5.8598e+007   3.3545e+003   2.2428e+007    0.0000    0.1179    0.0000   -0.0000    0.1950
                0.2180  -3.4611e-003   4.5014e-004   5.5348e-003  -6.6453e+007   3.8028e+003   2.1862e+007    0.0000    0.1337    0.0000   -0.0000    0.1901
                0.2521  -3.8394e-003   4.9934e-004   5.3670e-003  -7.3717e+007   4.2175e+003   2.1200e+007    0.0000    0.1483    0.0000   -0.0000    0.1843
                0.2882  -4.1746e-003   5.4294e-004   5.1738e-003  -8.0153e+007   4.5849e+003   2.0436e+007    0.0000    0.1613    0.0000   -0.0000    0.1777
                0.3267  -4.5327e-003   5.8950e-004   4.9508e-003  -8.7026e+007   4.9772e+003   1.9556e+007    0.0000    0.1751    0.0000   -0.0000    0.1701
                0.3664  -4.8018e-003   6.2450e-004   4.7059e-003  -9.2193e+007   5.2722e+003   1.8588e+007    0.0000    0.1855    0.0000   -0.0000    0.1616
                0.4082  -5.0658e-003   6.5885e-004   4.4338e-003  -9.7264e+007   5.5616e+003   1.7513e+007    0.0000    0.1957    0.0000   -0.0000    0.1523
                0.4516  -5.3148e-003   6.9122e-004   4.1370e-003  -1.0204e+008   5.8343e+003   1.6341e+007    0.0000    0.2053    0.0000   -0.0000    0.1421
                0.4638  -5.3566e-003   6.9666e-004   4.0520e-003  -1.0285e+008   5.8802e+003   1.6005e+007    0.0000    0.2069    0.0000   -0.0000    0.1392

            panel:  2     
           lam_num    nPlies        tPly      fibAng     matID  matName
               (-)       (-)         (m)       (deg)       (-)  (-)
                 1         1    0.005913      0.0000         2  (blade-shell)
                 2         1    0.004183      0.0000         3  (spar-uni)
                 3         1    0.000047      0.0000         4  (spar-core)
                 4         1    0.004183      0.0000         3  (spar-uni)
                 5         1    0.005913      0.0000         2  (blade-shell)

               lamina:  1     
              matName:  (blade-shell)
                     s           e11           e22           e12           s11           s22           s12   s11_fcT   s11_fcC   s22_fcT   s22_fcC   s12_fcS
                   (m)         (m/m)         (m/m)         (rad)          (Pa)          (Pa)          (Pa)       (-)       (-)       (-)       (-)       (-)
                0.0000  -7.2252e-003   1.1682e-003   4.5630e-003  -1.3814e+008   4.4715e+006   1.8024e+007    0.0000    0.2780    0.0133   -0.0000    0.1567
                0.0323  -7.3374e-003   1.1875e-003   3.8896e-003  -1.4028e+008   4.5623e+006   1.5364e+007    0.0000    0.2823    0.0135   -0.0000    0.1336
                0.0783  -7.5046e-003   1.2159e-003   2.9064e-003  -1.4348e+008   4.6928e+006   1.1480e+007    0.0000    0.2887    0.0139   -0.0000    0.0998
                0.1252  -7.5909e-003   1.2304e-003   1.8858e-003  -1.4513e+008   4.7578e+006   7.4490e+006    0.0000    0.2920    0.0141   -0.0000    0.0648
                0.1734  -7.6112e-003   1.2339e-003   8.2794e-004  -1.4551e+008   4.7734e+006   3.2704e+006    0.0000    0.2928    0.0142   -0.0000    0.0284
                0.2224  -7.6300e-003   1.2371e-003   2.4680e-004  -1.4587e+008   4.7893e+006   9.7487e+005    0.0000    0.2935    0.0142   -0.0000    0.0085
                0.2724  -7.5035e-003   1.2157e-003   1.3289e-003  -1.4346e+008   4.6915e+006   5.2493e+006    0.0000    0.2886    0.0139   -0.0000    0.0456
                0.3233  -7.3710e-003   1.1930e-003   2.4056e-003  -1.4093e+008   4.5860e+006   9.5022e+006    0.0000    0.2836    0.0136   -0.0000    0.0826
                0.3611  -7.2438e-003   1.1714e-003   3.1848e-003  -1.3850e+008   4.4854e+006   1.2580e+007    0.0000    0.2787    0.0133   -0.0000    0.1094

               lamina:  2     
              matName:  (spar-uni)
                     s           e11           e22           e12           s11           s22           s12   s11_fcT   s11_fcC   s22_fcT   s22_fcC   s12_fcS
                   (m)         (m/m)         (m/m)         (rad)          (Pa)          (Pa)          (Pa)       (-)       (-)       (-)       (-)       (-)
                0.0000  -6.0737e-003   1.0120e-003   4.5630e-003  -7.4929e+008  -7.1872e+006   2.1492e+007    0.0000    0.7493    0.0000    0.1200    0.2087
                0.0323  -6.1859e-003   1.0312e-003   3.8896e-003  -7.6313e+008  -7.3155e+006   1.8320e+007    0.0000    0.7631    0.0000    0.1221    0.1779
                0.0783  -6.3490e-003   1.0591e-003   2.9064e-003  -7.8326e+008  -7.5029e+006   1.3689e+007    0.0000    0.7833    0.0000    0.1253    0.1329
                0.1252  -6.4313e-003   1.0731e-003   1.8858e-003  -7.9341e+008  -7.5979e+006   8.8822e+006    0.0000    0.7934    0.0000    0.1268    0.0862
                0.1734  -6.4509e-003   1.0764e-003   8.2794e-004  -7.9583e+008  -7.6204e+006   3.8996e+006    0.0000    0.7958    0.0000    0.1272    0.0379
                0.2224  -6.4703e-003   1.0798e-003   2.4680e-004  -7.9822e+008  -7.6425e+006   1.1624e+006    0.0000    0.7982    0.0000    0.1276    0.0113
                0.2724  -6.3476e-003   1.0588e-003   1.3289e-003  -7.8308e+008  -7.5014e+006   6.2593e+006    0.0000    0.7831    0.0000    0.1252    0.0608
                0.3233  -6.2166e-003   1.0364e-003   2.4056e-003  -7.6692e+008  -7.3512e+006   1.1330e+007    0.0000    0.7669    0.0000    0.1227    0.1100
                0.3611  -6.0913e-003   1.0150e-003   3.1848e-003  -7.5147e+008  -7.2076e+006   1.5001e+007    0.0000    0.7515    0.0000    0.1203    0.1456

               lamina:  3     
              matName:  (spar-core)
                     s           e11           e22           e12           s11           s22           s12   s11_fcT   s11_fcC   s22_fcT   s22_fcC   s12_fcS
                   (m)         (m/m)         (m/m)         (rad)          (Pa)          (Pa)          (Pa)       (-)       (-)       (-)       (-)       (-)
                0.0000  -5.2590e-003   9.0142e-004   4.5630e-003  -1.1693e+006  -1.9656e+005   4.4717e+005    0.0000    0.2726    0.0000    0.0458    0.1516
                0.0323  -5.3712e-003   9.2065e-004   3.8896e-003  -1.1942e+006  -2.0075e+005   3.8118e+005    0.0000    0.2784    0.0000    0.0468    0.1292
                0.0783  -5.5315e-003   9.4813e-004   2.9064e-003  -1.2298e+006  -2.0674e+005   2.8483e+005    0.0000    0.2867    0.0000    0.0482    0.0966
                0.1252  -5.6108e-003   9.6173e-004   1.8858e-003  -1.2475e+006  -2.0970e+005   1.8481e+005    0.0000    0.2908    0.0000    0.0489    0.0626
                0.1734  -5.6300e-003   9.6501e-004   8.2794e-004  -1.2517e+006  -2.1042e+005   8.1138e+004    0.0000    0.2918    0.0000    0.0490    0.0275
                0.2224  -5.6498e-003   9.6842e-004   2.4680e-004  -1.2561e+006  -2.1116e+005   2.4187e+004    0.0000    0.2928    0.0000    0.0492    0.0082
                0.2724  -5.5298e-003   9.4784e-004   1.3289e-003  -1.2295e+006  -2.0667e+005   1.3024e+005    0.0000    0.2866    0.0000    0.0482    0.0441
                0.3233  -5.3998e-003   9.2556e-004   2.4056e-003  -1.2006e+006  -2.0182e+005   2.3575e+005    0.0000    0.2799    0.0000    0.0470    0.0799
                0.3611  -5.2759e-003   9.0432e-004   3.1848e-003  -1.1730e+006  -1.9719e+005   3.1211e+005    0.0000    0.2734    0.0000    0.0460    0.1058

               lamina:  4     
              matName:  (spar-uni)
                     s           e11           e22           e12           s11           s22           s12   s11_fcT   s11_fcC   s22_fcT   s22_fcC   s12_fcS
                   (m)         (m/m)         (m/m)         (rad)          (Pa)          (Pa)          (Pa)       (-)       (-)       (-)       (-)       (-)
                0.0000  -5.2499e-003   9.0018e-004   4.5630e-003  -6.4759e+008  -6.0022e+006   2.1492e+007    0.0000    0.6476    0.0000    0.1002    0.2087
                0.0323  -5.3621e-003   9.1941e-004   3.8896e-003  -6.6144e+008  -6.1305e+006   1.8320e+007    0.0000    0.6614    0.0000    0.1023    0.1779
                0.0783  -5.5223e-003   9.4689e-004   2.9064e-003  -6.8120e+008  -6.3137e+006   1.3689e+007    0.0000    0.6812    0.0000    0.1054    0.1329
                0.1252  -5.6017e-003   9.6049e-004   1.8858e-003  -6.9099e+008  -6.4044e+006   8.8822e+006    0.0000    0.6910    0.0000    0.1069    0.0862
                0.1734  -5.6208e-003   9.6377e-004   8.2794e-004  -6.9335e+008  -6.4263e+006   3.8996e+006    0.0000    0.6933    0.0000    0.1073    0.0379
                0.2224  -5.6406e-003   9.6717e-004   2.4680e-004  -6.9580e+008  -6.4490e+006   1.1624e+006    0.0000    0.6958    0.0000    0.1077    0.0113
                0.2724  -5.5206e-003   9.4659e-004   1.3289e-003  -6.8099e+008  -6.3118e+006   6.2593e+006    0.0000    0.6810    0.0000    0.1054    0.0608
                0.3233  -5.3907e-003   9.2432e-004   2.4056e-003  -6.6497e+008  -6.1632e+006   1.1330e+007    0.0000    0.6650    0.0000    0.1029    0.1100
                0.3611  -5.2668e-003   9.0308e-004   3.1848e-003  -6.4968e+008  -6.0215e+006   1.5001e+007    0.0000    0.6497    0.0000    0.1005    0.1456

               lamina:  5     
              matName:  (blade-shell)
                     s           e11           e22           e12           s11           s22           s12   s11_fcT   s11_fcC   s22_fcT   s22_fcC   s12_fcS
                   (m)         (m/m)         (m/m)         (rad)          (Pa)          (Pa)          (Pa)       (-)       (-)       (-)       (-)       (-)
                0.0000  -4.4352e-003   7.8962e-004   4.5630e-003  -8.4615e+007   4.1609e+006   1.8024e+007    0.0000    0.1703    0.0123   -0.0000    0.1567
                0.0323  -4.5474e-003   8.0886e-004   3.8896e-003  -8.6757e+007   4.2517e+006   1.5364e+007    0.0000    0.1746    0.0126   -0.0000    0.1336
                0.0783  -4.7048e-003   8.3595e-004   2.9064e-003  -8.9762e+007   4.3811e+006   1.1480e+007    0.0000    0.1806    0.0130   -0.0000    0.0998
                0.1252  -4.7812e-003   8.4915e-004   1.8858e-003  -9.1221e+007   4.4449e+006   7.4490e+006    0.0000    0.1835    0.0132   -0.0000    0.0648
                0.1734  -4.7998e-003   8.5236e-004   8.2794e-004  -9.1577e+007   4.4604e+006   3.2704e+006    0.0000    0.1843    0.0132   -0.0000    0.0284
                0.2224  -4.8202e-003   8.5583e-004   2.4680e-004  -9.1965e+007   4.4765e+006   9.7487e+005    0.0000    0.1850    0.0133   -0.0000    0.0085
                0.2724  -4.7028e-003   8.3561e-004   1.3289e-003  -8.9724e+007   4.3796e+006   5.2493e+006    0.0000    0.1805    0.0130   -0.0000    0.0456
                0.3233  -4.5739e-003   8.1349e-004   2.4056e-003  -8.7264e+007   4.2746e+006   9.5022e+006    0.0000    0.1756    0.0127   -0.0000    0.0826
                0.3611  -4.4514e-003   7.9242e-004   3.1848e-003  -8.4924e+007   4.1745e+006   1.2580e+007    0.0000    0.1709    0.0124   -0.0000    0.1094

            panel:  3     
           lam_num    nPlies        tPly      fibAng     matID  matName
               (-)       (-)         (m)       (deg)       (-)  (-)
                 1         1    0.005913      0.0000         2  (blade-shell)
                 2         1    0.004189      0.0000         6  (TEP-core)
                 3         1    0.005913      0.0000         2  (blade-shell)

               lamina:  1     
              matName:  (blade-shell)
                     s           e11           e22           e12           s11           s22           s12   s11_fcT   s11_fcC   s22_fcT   s22_fcC   s12_fcS
                   (m)         (m/m)         (m/m)         (rad)          (Pa)          (Pa)          (Pa)       (-)       (-)       (-)       (-)       (-)
                0.0000  -5.8359e-003   7.6322e-004   9.0125e-004  -1.1204e+008   8.9043e+004   3.5599e+006    0.0000    0.2254    0.0003   -0.0000    0.0310
                0.0133  -5.7895e-003   7.5716e-004   9.9124e-004  -1.1115e+008   8.8322e+004   3.9154e+006    0.0000    0.2236    0.0003   -0.0000    0.0340
                0.0654  -5.5376e-003   7.2420e-004   1.3341e-003  -1.0631e+008   8.4150e+004   5.2697e+006    0.0000    0.2139    0.0002   -0.0000    0.0458
                0.1174  -5.2852e-003   6.9118e-004   1.6588e-003  -1.0147e+008   7.9984e+004   6.5521e+006    0.0000    0.2042    0.0002   -0.0000    0.0570
                0.1695  -4.9723e-003   6.5023e-004   1.9644e-003  -9.5458e+007   7.4830e+004   7.7592e+006    0.0000    0.1921    0.0002   -0.0000    0.0675
                0.2216  -4.6349e-003   6.0608e-004   2.2471e-003  -8.8981e+007   6.9241e+004   8.8760e+006    0.0000    0.1790    0.0002   -0.0000    0.0772
                0.2730  -4.2978e-003   5.6197e-004   2.5031e-003  -8.2509e+007   6.3674e+004   9.8872e+006    0.0000    0.1660    0.0002   -0.0000    0.0860
                0.3241  -3.9104e-003   5.1129e-004   2.7328e-003  -7.5072e+007   5.7274e+004   1.0795e+007    0.0000    0.1511    0.0002   -0.0000    0.0939
                0.3742  -3.5319e-003   4.6176e-004   2.9330e-003  -6.7807e+007   5.0992e+004   1.1585e+007    0.0000    0.1364    0.0002   -0.0000    0.1007
                0.4232  -3.1505e-003   4.1185e-004   3.1039e-003  -6.0484e+007   4.4673e+004   1.2260e+007    0.0000    0.1217    0.0001   -0.0000    0.1066
                0.4709  -2.7645e-003   3.6134e-004   3.2461e-003  -5.3073e+007   3.8269e+004   1.2822e+007    0.0000    0.1068    0.0001   -0.0000    0.1115
                0.5171  -2.3920e-003   3.1260e-004   3.3604e-003  -4.5922e+007   3.2079e+004   1.3274e+007    0.0000    0.0924    0.0001   -0.0000    0.1154
                0.5615  -2.0313e-003   2.6540e-004   3.4487e-003  -3.8997e+007   2.6086e+004   1.3623e+007    0.0000    0.0785    0.0001   -0.0000    0.1185
                0.6039  -1.6862e-003   2.2024e-004   3.5133e-003  -3.2372e+007   2.0348e+004   1.3878e+007    0.0000    0.0651    0.0001   -0.0000    0.1207
                0.6441  -1.3604e-003   1.7762e-004   3.5567e-003  -2.6118e+007   1.4923e+004   1.4049e+007    0.0000    0.0526    0.0000   -0.0000    0.1222
                0.6820  -1.0615e-003   1.3850e-004   3.5818e-003  -2.0379e+007   9.9444e+003   1.4148e+007    0.0000    0.0410    0.0000   -0.0000    0.1230
                0.7175  -7.8184e-004   1.0191e-004   3.5916e-003  -1.5011e+007   5.2889e+003   1.4187e+007    0.0000    0.0302    0.0000   -0.0000    0.1234
                0.7503  -5.2937e-004   6.8874e-005   3.5890e-003  -1.0164e+007   1.0776e+003   1.4177e+007    0.0000    0.0205    0.0000   -0.0000    0.1233
                0.7803  -3.0314e-004   3.9271e-005   3.5771e-003  -5.8207e+006  -3.0013e+003   1.4130e+007    0.0000    0.0117    0.0000    0.0000    0.1229
                0.8074   2.6413e-004  -3.4665e-005   3.5585e-003   5.0704e+006  -6.4147e+003   1.4056e+007    0.0150   -0.0000    0.0000    0.0000    0.1222
                0.8317   4.4160e-004  -5.7887e-005   3.5358e-003   8.4775e+006  -9.3675e+003   1.3966e+007    0.0252   -0.0000    0.0000    0.0000    0.1214
                0.8528   5.9611e-004  -7.8105e-005   3.5113e-003   1.1444e+007  -1.1935e+004   1.3870e+007    0.0340   -0.0000    0.0000    0.0000    0.1206
                0.8708   7.2984e-004  -9.5604e-005   3.4870e-003   1.4011e+007  -1.4154e+004   1.3774e+007    0.0416   -0.0000    0.0000    0.0000    0.1198
                0.8856   8.4529e-004  -1.1071e-004   3.4644e-003   1.6227e+007  -1.6069e+004   1.3685e+007    0.0482   -0.0000    0.0000    0.0000    0.1190
                0.8970   9.3463e-004  -1.2240e-004   3.4457e-003   1.7943e+007  -1.7530e+004   1.3611e+007    0.0532   -0.0000    0.0000    0.0001    0.1184
                0.9050   1.0202e-003  -1.3360e-004   3.4316e-003   1.9586e+007  -1.8896e+004   1.3555e+007    0.0581   -0.0000    0.0000    0.0001    0.1179
                0.9100   1.0817e-003  -1.4164e-004   3.4223e-003   2.0766e+007  -1.9886e+004   1.3518e+007    0.0616   -0.0000    0.0000    0.0001    0.1175
                0.9118   1.1027e-003  -1.4438e-004   3.4189e-003   2.1168e+007  -2.0234e+004   1.3505e+007    0.0628   -0.0000    0.0000    0.0001    0.1174

               lamina:  2     
              matName:  (TEP-core)
                     s           e11           e22           e12           s11           s22           s12   s11_fcT   s11_fcC   s22_fcT   s22_fcC   s12_fcS
                   (m)         (m/m)         (m/m)         (rad)          (Pa)          (Pa)          (Pa)       (-)       (-)       (-)       (-)       (-)
                0.0000  -5.4625e-003   7.1467e-004   9.0125e-004  -1.2317e+006  -2.5639e+005   8.8322e+004    0.0000    0.2871    0.0000    0.0598    0.0299
                0.0133  -5.4185e-003   7.0891e-004   9.9124e-004  -1.2218e+006  -2.5432e+005   9.7141e+004    0.0000    0.2848    0.0000    0.0593    0.0329
                0.0654  -5.1673e-003   6.7604e-004   1.3341e-003  -1.1652e+006  -2.4254e+005   1.3074e+005    0.0000    0.2716    0.0000    0.0565    0.0443
                0.1174  -4.9163e-003   6.4320e-004   1.6588e-003  -1.1086e+006  -2.3076e+005   1.6256e+005    0.0000    0.2584    0.0000    0.0538    0.0551
                0.1695  -4.6056e-003   6.0255e-004   1.9644e-003  -1.0385e+006  -2.1618e+005   1.9251e+005    0.0000    0.2421    0.0000    0.0504    0.0653
                0.2216  -4.2692e-003   5.5852e-004   2.2471e-003  -9.6265e+005  -2.0039e+005   2.2022e+005    0.0000    0.2244    0.0000    0.0467    0.0746
                0.2730  -3.9338e-003   5.1464e-004   2.5031e-003  -8.8703e+005  -1.8465e+005   2.4530e+005    0.0000    0.2068    0.0000    0.0430    0.0832
                0.3241  -3.5483e-003   4.6419e-004   2.7328e-003  -8.0010e+005  -1.6655e+005   2.6782e+005    0.0000    0.1865    0.0000    0.0388    0.0908
                0.3742  -3.1702e-003   4.1472e-004   2.9330e-003  -7.1485e+005  -1.4881e+005   2.8744e+005    0.0000    0.1666    0.0000    0.0347    0.0974
                0.4232  -2.7898e-003   3.6495e-004   3.1039e-003  -6.2908e+005  -1.3096e+005   3.0418e+005    0.0000    0.1466    0.0000    0.0305    0.1031
                0.4709  -2.4044e-003   3.1452e-004   3.2461e-003  -5.4218e+005  -1.1287e+005   3.1812e+005    0.0000    0.1264    0.0000    0.0263    0.1078
                0.5171  -2.0320e-003   2.6579e-004   3.3604e-003  -4.5820e+005  -9.5391e+004   3.2932e+005    0.0000    0.1068    0.0000    0.0222    0.1116
                0.5615  -1.6715e-003   2.1861e-004   3.4487e-003  -3.7691e+005  -7.8471e+004   3.3798e+005    0.0000    0.0879    0.0000    0.0183    0.1146
                0.6039  -1.3263e-003   1.7345e-004   3.5133e-003  -2.9907e+005  -6.2271e+004   3.4430e+005    0.0000    0.0697    0.0000    0.0145    0.1167
                0.6441  -1.0001e-003   1.3076e-004   3.5567e-003  -2.2552e+005  -4.6961e+004   3.4856e+005    0.0000    0.0526    0.0000    0.0109    0.1182
                0.6820  -7.0074e-004   9.1590e-005   3.5818e-003  -1.5802e+005  -3.2912e+004   3.5101e+005    0.0000    0.0368    0.0000    0.0077    0.1190
                0.7175  -4.2079e-004   5.4957e-005   3.5916e-003  -9.4890e+004  -1.9773e+004   3.5197e+005    0.0000    0.0221    0.0000    0.0046    0.1193
                0.7503  -1.6765e-004   2.1833e-005   3.5890e-003  -3.7811e+004  -7.8924e+003   3.5173e+005    0.0000    0.0088    0.0000    0.0018    0.1192
                0.7803   3.1541e-004  -4.1169e-005   3.5771e-003   7.1130e+004   1.4827e+004   3.5056e+005    0.0166   -0.0000    0.0035   -0.0000    0.1188
                0.8074   5.2089e-004  -6.8055e-005   3.5585e-003   1.1746e+005   2.4471e+004   3.4874e+005    0.0274   -0.0000    0.0057   -0.0000    0.1182
                0.8317   6.9868e-004  -9.1320e-005   3.5358e-003   1.5755e+005   3.2815e+004   3.4651e+005    0.0367   -0.0000    0.0076   -0.0000    0.1175
                0.8528   8.5310e-004  -1.1153e-004   3.5113e-003   1.9237e+005   4.0062e+004   3.4411e+005    0.0448   -0.0000    0.0093   -0.0000    0.1166
                0.8708   9.8628e-004  -1.2895e-004   3.4870e-003   2.2240e+005   4.6313e+004   3.4172e+005    0.0518   -0.0000    0.0108   -0.0000    0.1158
                0.8856   1.1012e-003  -1.4400e-004   3.4644e-003   2.4833e+005   5.1708e+004   3.3952e+005    0.0579   -0.0000    0.0121   -0.0000    0.1151
                0.8970   1.1875e-003  -1.5528e-004   3.4457e-003   2.6777e+005   5.5755e+004   3.3768e+005    0.0624   -0.0000    0.0130   -0.0000    0.1145
                0.9050   1.2659e-003  -1.6555e-004   3.4316e-003   2.8545e+005   5.9435e+004   3.3630e+005    0.0665   -0.0000    0.0139   -0.0000    0.1140
                0.9100   1.3232e-003  -1.7305e-004   3.4223e-003   2.9838e+005   6.2125e+004   3.3538e+005    0.0696   -0.0000    0.0145   -0.0000    0.1137
                0.9118   1.3442e-003  -1.7579e-004   3.4189e-003   3.0311e+005   6.3110e+004   3.3505e+005    0.0707   -0.0000    0.0147   -0.0000    0.1136

               lamina:  3     
              matName:  (blade-shell)
                     s           e11           e22           e12           s11           s22           s12   s11_fcT   s11_fcC   s22_fcT   s22_fcC   s12_fcS
                   (m)         (m/m)         (m/m)         (rad)          (Pa)          (Pa)          (Pa)       (-)       (-)       (-)       (-)       (-)
                0.0000  -5.1980e-003   6.8027e-004   9.0125e-004  -9.9790e+007   8.8495e+004   3.5599e+006    0.0000    0.2008    0.0003   -0.0000    0.0310
                0.0133  -5.1556e-003   6.7472e-004   9.9124e-004  -9.8976e+007   8.7777e+004   3.9154e+006    0.0000    0.1991    0.0003   -0.0000    0.0340
                0.0654  -4.9049e-003   6.4192e-004   1.3341e-003  -9.4164e+007   8.3606e+004   5.2697e+006    0.0000    0.1895    0.0002   -0.0000    0.0458
                0.1174  -4.6549e-003   6.0921e-004   1.6588e-003  -8.9364e+007   7.9442e+004   6.5521e+006    0.0000    0.1798    0.0002   -0.0000    0.0570
                0.1695  -4.3459e-003   5.6877e-004   1.9644e-003  -8.3432e+007   7.4293e+004   7.7592e+006    0.0000    0.1679    0.0002   -0.0000    0.0675
                0.2216  -4.0100e-003   5.2482e-004   2.2471e-003  -7.6984e+007   6.8704e+004   8.8760e+006    0.0000    0.1549    0.0002   -0.0000    0.0772
                0.2730  -3.6759e-003   4.8111e-004   2.5031e-003  -7.0570e+007   6.3141e+004   9.8872e+006    0.0000    0.1420    0.0002   -0.0000    0.0860
                0.3241  -3.2917e-003   4.3083e-004   2.7328e-003  -6.3194e+007   5.6743e+004   1.0795e+007    0.0000    0.1272    0.0002   -0.0000    0.0939
                0.3742  -2.9140e-003   3.8140e-004   2.9330e-003  -5.5942e+007   5.0461e+004   1.1585e+007    0.0000    0.1126    0.0001   -0.0000    0.1007
                0.4232  -2.5343e-003   3.3172e-004   3.1039e-003  -4.8653e+007   4.4144e+004   1.2260e+007    0.0000    0.0979    0.0001   -0.0000    0.1066
                0.4709  -2.1494e-003   2.8135e-004   3.2461e-003  -4.1263e+007   3.7741e+004   1.2822e+007    0.0000    0.0830    0.0001   -0.0000    0.1115
                0.5171  -1.7770e-003   2.3263e-004   3.3604e-003  -3.4115e+007   3.1551e+004   1.3274e+007    0.0000    0.0686    0.0001   -0.0000    0.1154
                0.5615  -1.4166e-003   1.8547e-004   3.4487e-003  -2.7195e+007   2.5558e+004   1.3623e+007    0.0000    0.0547    0.0001   -0.0000    0.1185
                0.6039  -1.0714e-003   1.4029e-004   3.5133e-003  -2.0568e+007   1.9820e+004   1.3878e+007    0.0000    0.0414    0.0001   -0.0000    0.1207
                0.6441  -7.4484e-004   9.7567e-005   3.5567e-003  -1.4299e+007   1.4394e+004   1.4049e+007    0.0000    0.0288    0.0000   -0.0000    0.1222
                0.6820  -4.4521e-004   5.8359e-005   3.5818e-003  -8.5467e+006   9.4153e+003   1.4148e+007    0.0000    0.0172    0.0000   -0.0000    0.1230
                0.7175   1.9604e-004  -2.5258e-005   3.5916e-003   3.7646e+006   4.7593e+003   1.4187e+007    0.0112   -0.0000    0.0000   -0.0000    0.1234
                0.7503   4.5033e-004  -5.8531e-005   3.5890e-003   8.6464e+006   5.4698e+002   1.4177e+007    0.0257   -0.0000    0.0000   -0.0000    0.1233
                0.7803   6.7748e-004  -8.8253e-005   3.5771e-003   1.3007e+007  -3.5324e+003   1.4130e+007    0.0386   -0.0000    0.0000    0.0000    0.1229
                0.8074   8.8332e-004  -1.1519e-004   3.5585e-003   1.6959e+007  -6.9463e+003   1.4056e+007    0.0503   -0.0000    0.0000    0.0000    0.1222
                0.8317   1.0616e-003  -1.3851e-004   3.5358e-003   2.0381e+007  -9.8998e+003   1.3966e+007    0.0605   -0.0000    0.0000    0.0000    0.1214
                0.8528   1.2159e-003  -1.5870e-004   3.5113e-003   2.3343e+007  -1.2467e+004   1.3870e+007    0.0693   -0.0000    0.0000    0.0000    0.1206
                0.8708   1.3483e-003  -1.7603e-004   3.4870e-003   2.5885e+007  -1.4685e+004   1.3774e+007    0.0768   -0.0000    0.0000    0.0000    0.1198
                0.8856   1.4626e-003  -1.9098e-004   3.4644e-003   2.8079e+007  -1.6599e+004   1.3685e+007    0.0833   -0.0000    0.0000    0.0000    0.1190
                0.8970   1.5444e-003  -2.0170e-004   3.4457e-003   2.9651e+007  -1.8054e+004   1.3611e+007    0.0880   -0.0000    0.0000    0.0001    0.1184
                0.9050   1.6127e-003  -2.1064e-004   3.4316e-003   3.0961e+007  -1.9405e+004   1.3555e+007    0.0919   -0.0000    0.0000    0.0001    0.1179
                0.9100   1.6642e-003  -2.1739e-004   3.4223e-003   3.1950e+007  -2.0386e+004   1.3518e+007    0.0948   -0.0000    0.0000    0.0001    0.1175
                0.9118   1.6852e-003  -2.2014e-004   3.4189e-003   3.2353e+007  -2.0735e+004   1.3505e+007    0.0960   -0.0000    0.0000    0.0001    0.1174

  Bottom:  panel  nNode   nLam     xc_St    xc_End         b         t         E_eff         G_eff      nu_eff     density  buckleCrit
            (-)    (-)    (-)       (-)       (-)       (m)       (m)          (Pa)          (Pa)         (-)    (kg/m^3)         (-)
              1     18      3    0.0000    0.2397    0.4431    0.0121   1.8769e+010   3.8625e+009      0.1301   1636.6010      0.0732
              2      9      5    0.2397    0.4603    0.3612    0.0202   6.2152e+010   4.2553e+009      0.1714   1583.9163      0.0009
              3     28      3    0.4603    1.0000    0.9021    0.0160   1.4235e+010   2.9425e+009      0.1309   1285.5052      0.1349

            panel:  1     
           lam_num    nPlies        tPly      fibAng     matID  matName
               (-)       (-)         (m)       (deg)       (-)  (-)
                 1         1    0.005913      0.0000         2  (blade-shell)
                 2         1    0.000275      0.0000         5  (LEP-core)
                 3         1    0.005913      0.0000         2  (blade-shell)

               lamina:  1     
              matName:  (blade-shell)
                     s           e11           e22           e12           s11           s22           s12   s11_fcT   s11_fcC   s22_fcT   s22_fcC   s12_fcS
                   (m)         (m/m)         (m/m)         (rad)          (Pa)          (Pa)          (Pa)       (-)       (-)       (-)       (-)       (-)
                0.0000   5.6819e-004  -7.3888e-005   6.0828e-003   1.0909e+007  -4.5080e+002   2.4027e+007    0.0324   -0.0000    0.0000    0.0000    0.2089
                0.0050   7.0054e-004  -9.1101e-005   6.0810e-003   1.3450e+007  -5.9578e+002   2.4020e+007    0.0399   -0.0000    0.0000    0.0000    0.2089
                0.0195   1.1155e-003  -1.4507e-004   6.0709e-003   2.1418e+007  -1.0197e+003   2.3980e+007    0.0636   -0.0000    0.0000    0.0000    0.2085
                0.0373   1.6577e-003  -2.1558e-004   6.0488e-003   3.1828e+007  -1.5186e+003   2.3893e+007    0.0944   -0.0000    0.0000    0.0000    0.2078
                0.0525   2.0364e-003  -2.6482e-004   6.0224e-003   3.9098e+007  -1.8582e+003   2.3789e+007    0.1160   -0.0000    0.0000    0.0000    0.2069
                0.0727   2.4843e-003  -3.2308e-004   5.9778e-003   4.7699e+007  -2.3131e+003   2.3612e+007    0.1415   -0.0000    0.0000    0.0000    0.2053
                0.0934   2.8676e-003  -3.7292e-004   5.9218e-003   5.5057e+007  -2.6893e+003   2.3391e+007    0.1634   -0.0000    0.0000    0.0000    0.2034
                0.1171   3.2324e-003  -4.2038e-004   5.8470e-003   6.2063e+007  -3.0760e+003   2.3095e+007    0.1842   -0.0000    0.0000    0.0000    0.2008
                0.1437   3.6387e-003  -4.7321e-004   5.7501e-003   6.9863e+007  -3.4982e+003   2.2713e+007    0.2073   -0.0000    0.0000    0.0000    0.1975
                0.1714   3.9495e-003  -5.1363e-004   5.6365e-003   7.5830e+007  -3.8218e+003   2.2264e+007    0.2250   -0.0000    0.0000    0.0000    0.1936
                0.2024   4.2850e-003  -5.5726e-004   5.4969e-003   8.2271e+007  -4.1835e+003   2.1713e+007    0.2441   -0.0000    0.0000    0.0000    0.1888
                0.2354   4.5966e-003  -5.9779e-004   5.3348e-003   8.8254e+007  -4.5144e+003   2.1073e+007    0.2619   -0.0000    0.0000    0.0000    0.1832
                0.2704   4.8636e-003  -6.3251e-004   5.1490e-003   9.3381e+007  -4.8022e+003   2.0339e+007    0.2771   -0.0000    0.0000    0.0000    0.1769
                0.3079   5.1494e-003  -6.6968e-004   4.9370e-003   9.8868e+007  -5.1098e+003   1.9501e+007    0.2934   -0.0000    0.0000    0.0000    0.1696
                0.3469   5.3612e-003  -6.9722e-004   4.7034e-003   1.0293e+008  -5.3366e+003   1.8578e+007    0.3054   -0.0000    0.0000    0.0000    0.1616
                0.3881   5.5644e-003  -7.2366e-004   4.4453e-003   1.0684e+008  -5.5576e+003   1.7559e+007    0.3170   -0.0000    0.0000    0.0000    0.1527
                0.4310   5.7545e-003  -7.4838e-004   4.1648e-003   1.1049e+008  -5.7638e+003   1.6451e+007    0.3278   -0.0000    0.0000    0.0000    0.1431
                0.4431   5.7870e-003  -7.5260e-004   4.0837e-003   1.1111e+008  -5.7960e+003   1.6131e+007    0.3297   -0.0000    0.0000    0.0000    0.1403

               lamina:  2     
              matName:  (LEP-core)
                     s           e11           e22           e12           s11           s22           s12   s11_fcT   s11_fcC   s22_fcT   s22_fcC   s12_fcS
                   (m)         (m/m)         (m/m)         (rad)          (Pa)          (Pa)          (Pa)       (-)       (-)       (-)       (-)       (-)
                0.0000   4.1500e-004  -5.3973e-005   6.0828e-003   9.3602e+004   1.9554e+004   5.9611e+005    0.0218   -0.0000    0.0046   -0.0000    0.2021
                0.0050   5.4734e-004  -7.1185e-005   6.0810e-003   1.2345e+005   2.5791e+004   5.9594e+005    0.0288   -0.0000    0.0060   -0.0000    0.2020
                0.0195   9.3495e-004  -1.2160e-004   6.0709e-003   2.1088e+005   4.4055e+004   5.9495e+005    0.0492   -0.0000    0.0103   -0.0000    0.2017
                0.0373   1.3923e-003  -1.8107e-004   6.0488e-003   3.1403e+005   6.5603e+004   5.9279e+005    0.0732   -0.0000    0.0153   -0.0000    0.2009
                0.0525   1.7038e-003  -2.2159e-004   6.0224e-003   3.8430e+005   8.0284e+004   5.9020e+005    0.0896   -0.0000    0.0187   -0.0000    0.2001
                0.0727   2.1198e-003  -2.7570e-004   5.9778e-003   4.7813e+005   9.9886e+004   5.8582e+005    0.1115   -0.0000    0.0233   -0.0000    0.1986
                0.0934   2.4642e-003  -3.2048e-004   5.9218e-003   5.5579e+005   1.1611e+005   5.8034e+005    0.1296   -0.0000    0.0271   -0.0000    0.1967
                0.1171   2.8173e-003  -3.6641e-004   5.8470e-003   6.3545e+005   1.3275e+005   5.7300e+005    0.1481   -0.0000    0.0309   -0.0000    0.1942
                0.1437   3.2033e-003  -4.1661e-004   5.7501e-003   7.2250e+005   1.5094e+005   5.6351e+005    0.1684   -0.0000    0.0352   -0.0000    0.1910
                0.1714   3.4990e-003  -4.5507e-004   5.6365e-003   7.8920e+005   1.6487e+005   5.5238e+005    0.1840   -0.0000    0.0384   -0.0000    0.1872
                0.2024   3.8293e-003  -4.9802e-004   5.4969e-003   8.6370e+005   1.8044e+005   5.3870e+005    0.2013   -0.0000    0.0421   -0.0000    0.1826
                0.2354   4.1316e-003  -5.3733e-004   5.3348e-003   9.3187e+005   1.9468e+005   5.2282e+005    0.2172   -0.0000    0.0454   -0.0000    0.1772
                0.2704   4.3944e-003  -5.7152e-004   5.1490e-003   9.9115e+005   2.0706e+005   5.0461e+005    0.2310   -0.0000    0.0483   -0.0000    0.1711
                0.3079   4.6753e-003  -6.0805e-004   4.9370e-003   1.0545e+006   2.2030e+005   4.8383e+005    0.2458   -0.0000    0.0514   -0.0000    0.1640
                0.3469   4.8824e-003  -6.3498e-004   4.7034e-003   1.1012e+006   2.3006e+005   4.6093e+005    0.2567   -0.0000    0.0536   -0.0000    0.1562
                0.3881   5.0842e-003  -6.6123e-004   4.4453e-003   1.1467e+006   2.3957e+005   4.3564e+005    0.2673   -0.0000    0.0558   -0.0000    0.1477
                0.4310   5.2724e-003  -6.8571e-004   4.1648e-003   1.1892e+006   2.4844e+005   4.0815e+005    0.2772   -0.0000    0.0579   -0.0000    0.1384
                0.4431   5.3019e-003  -6.8955e-004   4.0837e-003   1.1958e+006   2.4983e+005   4.0020e+005    0.2788   -0.0000    0.0582   -0.0000    0.1357

               lamina:  3     
              matName:  (blade-shell)
                     s           e11           e22           e12           s11           s22           s12   s11_fcT   s11_fcC   s22_fcT   s22_fcC   s12_fcS
                   (m)         (m/m)         (m/m)         (rad)          (Pa)          (Pa)          (Pa)       (-)       (-)       (-)       (-)       (-)
                0.0000   4.0787e-004  -5.3047e-005   6.0828e-003   7.8311e+006  -4.5071e+002   2.4027e+007    0.0232   -0.0000    0.0000    0.0000    0.2089
                0.0050   5.4022e-004  -7.0259e-005   6.0810e-003   1.0372e+007  -5.9569e+002   2.4020e+007    0.0308   -0.0000    0.0000    0.0000    0.2089
                0.0195   9.2656e-004  -1.2050e-004   6.0709e-003   1.7790e+007  -1.0196e+003   2.3980e+007    0.0528   -0.0000    0.0000    0.0000    0.2085
                0.0373   1.3799e-003  -1.7947e-004   6.0488e-003   2.6494e+007  -1.5184e+003   2.3893e+007    0.0786   -0.0000    0.0000    0.0000    0.2078
                0.0525   1.6884e-003  -2.1958e-004   6.0224e-003   3.2417e+007  -1.8580e+003   2.3789e+007    0.0962   -0.0000    0.0000    0.0000    0.2069
                0.0727   2.1029e-003  -2.7349e-004   5.9778e-003   4.0375e+007  -2.3129e+003   2.3612e+007    0.1198   -0.0000    0.0000    0.0000    0.2053
                0.0934   2.4454e-003  -3.1804e-004   5.9218e-003   4.6951e+007  -2.6891e+003   2.3391e+007    0.1393   -0.0000    0.0000    0.0000    0.2034
                0.1171   2.7980e-003  -3.6390e-004   5.8470e-003   5.3722e+007  -3.0757e+003   2.3095e+007    0.1594   -0.0000    0.0000    0.0000    0.2008
                0.1437   3.1830e-003  -4.1397e-004   5.7501e-003   6.1114e+007  -3.4980e+003   2.2713e+007    0.1813   -0.0000    0.0000    0.0000    0.1975
                0.1714   3.4781e-003  -4.5235e-004   5.6365e-003   6.6779e+007  -3.8216e+003   2.2264e+007    0.1982   -0.0000    0.0000    0.0000    0.1936
                0.2024   3.8081e-003  -4.9527e-004   5.4969e-003   7.3115e+007  -4.1833e+003   2.1713e+007    0.2170   -0.0000    0.0000    0.0000    0.1888
                0.2354   4.1099e-003  -5.3452e-004   5.3348e-003   7.8910e+007  -4.5141e+003   2.1073e+007    0.2342   -0.0000    0.0000    0.0000    0.1832
                0.2704   4.3726e-003  -5.6868e-004   5.1490e-003   8.3953e+007  -4.8019e+003   2.0339e+007    0.2491   -0.0000    0.0000    0.0000    0.1769
                0.3079   4.6532e-003  -6.0518e-004   4.9370e-003   8.9341e+007  -5.1095e+003   1.9501e+007    0.2651   -0.0000    0.0000    0.0000    0.1696
                0.3469   4.8601e-003  -6.3209e-004   4.7034e-003   9.3314e+007  -5.3363e+003   1.8578e+007    0.2769   -0.0000    0.0000    0.0000    0.1616
                0.3881   5.0619e-003  -6.5833e-004   4.4453e-003   9.7188e+007  -5.5573e+003   1.7559e+007    0.2884   -0.0000    0.0000    0.0000    0.1527
                0.4310   5.2500e-003  -6.8280e-004   4.1648e-003   1.0080e+008  -5.7635e+003   1.6451e+007    0.2991   -0.0000    0.0000    0.0000    0.1431
                0.4431   5.2794e-003  -6.8662e-004   4.0837e-003   1.0136e+008  -5.7957e+003   1.6131e+007    0.3008   -0.0000    0.0000    0.0000    0.1403

            panel:  2     
           lam_num    nPlies        tPly      fibAng     matID  matName
               (-)       (-)         (m)       (deg)       (-)  (-)
                 1         1    0.005913      0.0000         2  (blade-shell)
                 2         1    0.004183      0.0000         3  (spar-uni)
                 3         1    0.000047      0.0000         4  (spar-core)
                 4         1    0.004183      0.0000         3  (spar-uni)
                 5         1    0.005913      0.0000         2  (blade-shell)

               lamina:  1     
              matName:  (blade-shell)
                     s           e11           e22           e12           s11           s22           s12   s11_fcT   s11_fcC   s22_fcT   s22_fcC   s12_fcS
                   (m)         (m/m)         (m/m)         (rad)          (Pa)          (Pa)          (Pa)       (-)       (-)       (-)       (-)       (-)
                0.0000   7.1553e-003  -1.1560e-003   4.5913e-003   1.3681e+008  -4.4096e+006   1.8136e+007    0.4060   -0.0000    0.0000    0.0131    0.1577
                0.0320   7.2337e-003  -1.1694e-003   3.9541e-003   1.3831e+008  -4.4731e+006   1.5619e+007    0.4104   -0.0000    0.0000    0.0133    0.1358
                0.0778   7.3499e-003  -1.1892e-003   3.0247e-003   1.4052e+008  -4.5643e+006   1.1948e+007    0.4170   -0.0000    0.0000    0.0135    0.1039
                0.1247   7.3970e-003  -1.1971e-003   2.0572e-003   1.4142e+008  -4.6000e+006   8.1259e+006    0.4197   -0.0000    0.0000    0.0136    0.0707
                0.1730   7.3895e-003  -1.1958e-003   1.0534e-003   1.4128e+008  -4.5938e+006   4.1611e+006    0.4192   -0.0000    0.0000    0.0136    0.0362
                0.2220   7.3796e-003  -1.1942e-003   3.2750e-005   1.4109e+008  -4.5875e+006   1.2936e+005    0.4187   -0.0000    0.0000    0.0136    0.0011
                0.2722   7.2441e-003  -1.1712e-003   9.9941e-004   1.3850e+008  -4.4823e+006   3.9477e+006    0.4110   -0.0000    0.0000    0.0133    0.0343
                0.3233   7.1036e-003  -1.1472e-003   2.0281e-003   1.3582e+008  -4.3702e+006   8.0111e+006    0.4030   -0.0000    0.0000    0.0130    0.0697
                0.3612   6.9761e-003  -1.1255e-003   2.7750e-003   1.3339e+008  -4.2689e+006   1.0961e+007    0.3958   -0.0000    0.0000    0.0127    0.0953

               lamina:  2     
              matName:  (spar-uni)
                     s           e11           e22           e12           s11           s22           s12   s11_fcT   s11_fcC   s22_fcT   s22_fcC   s12_fcS
                   (m)         (m/m)         (m/m)         (rad)          (Pa)          (Pa)          (Pa)       (-)       (-)       (-)       (-)       (-)
                0.0000   5.9993e-003  -9.9911e-004   4.5913e-003   7.4012e+008   7.1031e+006   2.1625e+007    0.3740   -0.0000    0.1186   -0.0000    0.2100
                0.0320   6.0777e-003  -1.0126e-003   3.9541e-003   7.4979e+008   7.1928e+006   1.8624e+007    0.3789   -0.0000    0.1201   -0.0000    0.1808
                0.0778   6.1916e-003  -1.0320e-003   3.0247e-003   7.6383e+008   7.3234e+006   1.4247e+007    0.3860   -0.0000    0.1223   -0.0000    0.1383
                0.1247   6.2367e-003  -1.0397e-003   2.0572e-003   7.6940e+008   7.3754e+006   9.6893e+006    0.3888   -0.0000    0.1231   -0.0000    0.0941
                0.1730   6.2291e-003  -1.0384e-003   1.0534e-003   7.6846e+008   7.3668e+006   4.9617e+006    0.3883   -0.0000    0.1230   -0.0000    0.0482
                0.2220   6.2206e-003  -1.0370e-003   3.2750e-005   7.6742e+008   7.3568e+006   1.5425e+005    0.3878   -0.0000    0.1228   -0.0000    0.0015
                0.2722   6.0888e-003  -1.0145e-003   9.9941e-004   7.5115e+008   7.2053e+006   4.7072e+006    0.3796   -0.0000    0.1203   -0.0000    0.0457
                0.3233   5.9497e-003  -9.9065e-004   2.0281e-003   7.3399e+008   7.0459e+006   9.5525e+006    0.3709   -0.0000    0.1176   -0.0000    0.0927
                0.3612   5.8237e-003  -9.6909e-004   2.7750e-003   7.1846e+008   6.9015e+006   1.3070e+007    0.3630   -0.0000    0.1152   -0.0000    0.1269

               lamina:  3     
              matName:  (spar-core)
                     s           e11           e22           e12           s11           s22           s12   s11_fcT   s11_fcC   s22_fcT   s22_fcC   s12_fcS
                   (m)         (m/m)         (m/m)         (rad)          (Pa)          (Pa)          (Pa)       (-)       (-)       (-)       (-)       (-)
                0.0000   5.1814e-003  -8.8812e-004   4.5913e-003   1.1520e+006   1.9366e+005   4.4995e+005    0.2685   -0.0000    0.0451   -0.0000    0.1525
                0.0320   5.2599e-003  -9.0156e-004   3.9541e-003   1.1694e+006   1.9659e+005   3.8750e+005    0.2726   -0.0000    0.0458   -0.0000    0.1314
                0.0778   5.3720e-003  -9.2079e-004   3.0247e-003   1.1944e+006   2.0078e+005   2.9643e+005    0.2784   -0.0000    0.0468   -0.0000    0.1005
                0.1247   5.4157e-003  -9.2828e-004   2.0572e-003   1.2041e+006   2.0241e+005   2.0160e+005    0.2807   -0.0000    0.0472   -0.0000    0.0683
                0.1730   5.4081e-003  -9.2697e-004   1.0534e-003   1.2024e+006   2.0213e+005   1.0324e+005    0.2803   -0.0000    0.0471   -0.0000    0.0350
                0.2220   5.4006e-003  -9.2569e-004   3.2750e-005   1.2007e+006   2.0185e+005   3.2095e+003    0.2799   -0.0000    0.0471   -0.0000    0.0011
                0.2722   5.2714e-003  -9.0354e-004   9.9941e-004   1.1720e+006   1.9702e+005   9.7942e+004    0.2732   -0.0000    0.0459   -0.0000    0.0332
                0.3233   5.1332e-003  -8.7985e-004   2.0281e-003   1.1413e+006   1.9186e+005   1.9876e+005    0.2660   -0.0000    0.0447   -0.0000    0.0674
                0.3612   5.0083e-003  -8.5844e-004   2.7750e-003   1.1135e+006   1.8719e+005   2.7195e+005    0.2596   -0.0000    0.0436   -0.0000    0.0922

               lamina:  4     
              matName:  (spar-uni)
                     s           e11           e22           e12           s11           s22           s12   s11_fcT   s11_fcC   s22_fcT   s22_fcC   s12_fcS
                   (m)         (m/m)         (m/m)         (rad)          (Pa)          (Pa)          (Pa)       (-)       (-)       (-)       (-)       (-)
                0.0000   5.1723e-003  -8.8687e-004   4.5913e-003   6.3802e+008   5.9134e+006   2.1625e+007    0.3224   -0.0000    0.0987   -0.0000    0.2100
                0.0320   5.2507e-003  -9.0032e-004   3.9541e-003   6.4770e+008   6.0031e+006   1.8624e+007    0.3273   -0.0000    0.1002   -0.0000    0.1808
                0.0778   5.3628e-003  -9.1955e-004   3.0247e-003   6.6153e+008   6.1313e+006   1.4247e+007    0.3343   -0.0000    0.1024   -0.0000    0.1383
                0.1247   5.4065e-003  -9.2703e-004   2.0572e-003   6.6692e+008   6.1813e+006   9.6893e+006    0.3370   -0.0000    0.1032   -0.0000    0.0941
                0.1730   5.3989e-003  -9.2572e-004   1.0534e-003   6.6597e+008   6.1725e+006   4.9617e+006    0.3365   -0.0000    0.1030   -0.0000    0.0482
                0.2220   5.3914e-003  -9.2445e-004   3.2750e-005   6.6506e+008   6.1640e+006   1.5425e+005    0.3361   -0.0000    0.1029   -0.0000    0.0015
                0.2722   5.2622e-003  -9.0230e-004   9.9941e-004   6.4912e+008   6.0163e+006   4.7072e+006    0.3280   -0.0000    0.1004   -0.0000    0.0457
                0.3233   5.1241e-003  -8.7861e-004   2.0281e-003   6.3207e+008   5.8583e+006   9.5525e+006    0.3194   -0.0000    0.0978   -0.0000    0.0927
                0.3612   4.9992e-003  -8.5720e-004   2.7750e-003   6.1667e+008   5.7155e+006   1.3070e+007    0.3116   -0.0000    0.0954   -0.0000    0.1269

               lamina:  5     
              matName:  (blade-shell)
                     s           e11           e22           e12           s11           s22           s12   s11_fcT   s11_fcC   s22_fcT   s22_fcC   s12_fcS
                   (m)         (m/m)         (m/m)         (rad)          (Pa)          (Pa)          (Pa)       (-)       (-)       (-)       (-)       (-)
                0.0000   4.3544e-003  -7.7588e-004   4.5913e-003   8.3071e+007  -4.0977e+006   1.8136e+007    0.2465   -0.0000    0.0000    0.0122    0.1577
                0.0320   4.4328e-003  -7.8933e-004   3.9541e-003   8.4569e+007  -4.1612e+006   1.5619e+007    0.2509   -0.0000    0.0000    0.0123    0.1358
                0.0778   4.5433e-003  -8.0833e-004   3.0247e-003   8.6679e+007  -4.2518e+006   1.1948e+007    0.2572   -0.0000    0.0000    0.0126    0.1039
                0.1247   4.5856e-003  -8.1563e-004   2.0572e-003   8.7486e+007  -4.2870e+006   8.1259e+006    0.2596   -0.0000    0.0000    0.0127    0.0707
                0.1730   4.5779e-003  -8.1431e-004   1.0534e-003   8.7338e+007  -4.2808e+006   4.1611e+006    0.2592   -0.0000    0.0000    0.0127    0.0362
                0.2220   4.5714e-003  -8.1317e-004   3.2750e-005   8.7215e+007  -4.2749e+006   1.2936e+005    0.2588   -0.0000    0.0000    0.0127    0.0011
                0.2722   4.4448e-003  -7.9138e-004   9.9941e-004   8.4799e+007  -4.1706e+006   3.9477e+006    0.2516   -0.0000    0.0000    0.0124    0.0343
                0.3233   4.3076e-003  -7.6781e-004   2.0281e-003   8.2178e+007  -4.0589e+006   8.0111e+006    0.2439   -0.0000    0.0000    0.0120    0.0697
                0.3612   4.1838e-003  -7.4656e-004   2.7750e-003   7.9815e+007  -3.9580e+006   1.0961e+007    0.2368   -0.0000    0.0000    0.0117    0.0953

            panel:  3     
           lam_num    nPlies        tPly      fibAng     matID  matName
               (-)       (-)         (m)       (deg)       (-)  (-)
                 1         1    0.005913      0.0000         2  (blade-shell)
                 2         1    0.004189      0.0000         6  (TEP-core)
                 3         1    0.005913      0.0000         2  (blade-shell)

               lamina:  1     
              matName:  (blade-shell)
                     s           e11           e22           e12           s11           s22           s12   s11_fcT   s11_fcC   s22_fcT   s22_fcC   s12_fcS
                   (m)         (m/m)         (m/m)         (rad)          (Pa)          (Pa)          (Pa)       (-)       (-)       (-)       (-)       (-)
                0.0000   5.5682e-003  -7.2820e-004   1.3455e-004   1.0690e+008  -8.4595e+004   5.3148e+005    0.3172   -0.0000    0.0000    0.0003    0.0046
                0.0134   5.5220e-003  -7.2215e-004   2.2141e-004   1.0601e+008  -8.3864e+004   8.7458e+005    0.3146   -0.0000    0.0000    0.0002    0.0076
                0.0656   5.2845e-003  -6.9107e-004   5.5183e-004   1.0145e+008  -7.9927e+004   2.1797e+006    0.3010   -0.0000    0.0000    0.0002    0.0190
                0.1178   5.0467e-003  -6.5996e-004   8.6717e-004   9.6887e+007  -7.5993e+004   3.4253e+006    0.2875   -0.0000    0.0000    0.0002    0.0298
                0.1700   4.7680e-003  -6.2350e-004   1.1664e-003   9.1537e+007  -7.1391e+004   4.6074e+006    0.2716   -0.0000    0.0000    0.0002    0.0401
                0.2221   4.4732e-003  -5.8492e-004   1.4467e-003   8.5877e+007  -6.6501e+004   5.7143e+006    0.2548   -0.0000    0.0000    0.0002    0.0497
                0.2735   4.1803e-003  -5.4660e-004   1.7052e-003   8.0254e+007  -6.1647e+004   6.7354e+006    0.2381   -0.0000    0.0000    0.0002    0.0586
                0.3243   3.8669e-003  -5.0559e-004   1.9418e-003   7.4237e+007  -5.6452e+004   7.6700e+006    0.2203   -0.0000    0.0000    0.0002    0.0667
                0.3742   3.5604e-003  -4.6548e-004   2.1551e-003   6.8353e+007  -5.1355e+004   8.5126e+006    0.2028   -0.0000    0.0000    0.0002    0.0740
                0.4228   3.2638e-003  -4.2667e-004   2.3452e-003   6.2659e+007  -4.6421e+004   9.2634e+006    0.1859   -0.0000    0.0000    0.0001    0.0806
                0.4699   2.9788e-003  -3.8938e-004   2.5128e-003   5.7187e+007  -4.1681e+004   9.9255e+006    0.1697   -0.0000    0.0000    0.0001    0.0863
                0.5156   2.7040e-003  -3.5342e-004   2.6593e-003   5.1911e+007  -3.7097e+004   1.0504e+007    0.1540   -0.0000    0.0000    0.0001    0.0913
                0.5593   2.4633e-003  -3.2192e-004   2.7858e-003   4.7291e+007  -3.3077e+004   1.1004e+007    0.1403   -0.0000    0.0000    0.0001    0.0957
                0.6009   2.2390e-003  -2.9258e-004   2.8946e-003   4.2985e+007  -2.9341e+004   1.1434e+007    0.1276   -0.0000    0.0000    0.0001    0.0994
                0.6405   2.0332e-003  -2.6564e-004   2.9876e-003   3.9034e+007  -2.5893e+004   1.1801e+007    0.1158   -0.0000    0.0000    0.0001    0.1026
                0.6776   1.8724e-003  -2.4459e-004   3.0665e-003   3.5946e+007  -2.3198e+004   1.2113e+007    0.1067   -0.0000    0.0000    0.0001    0.1053
                0.7123   1.7217e-003  -2.2488e-004   3.1337e-003   3.3054e+007  -2.0680e+004   1.2378e+007    0.0981   -0.0000    0.0000    0.0001    0.1076
                0.7444   1.6045e-003  -2.0954e-004   3.1907e-003   3.0804e+007  -1.8706e+004   1.2603e+007    0.0914   -0.0000    0.0000    0.0001    0.1096
                0.7737   1.5155e-003  -1.9789e-004   3.2392e-003   2.9094e+007  -1.7215e+004   1.2795e+007    0.0863   -0.0000    0.0000    0.0001    0.1113
                0.8003   1.4351e-003  -1.8737e-004   3.2806e-003   2.7551e+007  -1.5862e+004   1.2958e+007    0.0818   -0.0000    0.0000    0.0000    0.1127
                0.8240   1.3938e-003  -1.8197e-004   3.3157e-003   2.6759e+007  -1.5159e+004   1.3097e+007    0.0794   -0.0000    0.0000    0.0000    0.1139
                0.8445   1.3607e-003  -1.7763e-004   3.3455e-003   2.6123e+007  -1.4605e+004   1.3215e+007    0.0775   -0.0000    0.0000    0.0000    0.1149
                0.8622   1.3378e-003  -1.7465e-004   3.3705e-003   2.5685e+007  -1.4218e+004   1.3313e+007    0.0762   -0.0000    0.0000    0.0000    0.1158
                0.8767   1.3324e-003  -1.7393e-004   3.3909e-003   2.5580e+007  -1.4124e+004   1.3394e+007    0.0759   -0.0000    0.0000    0.0000    0.1165
                0.8879   1.3279e-003  -1.7335e-004   3.4065e-003   2.5495e+007  -1.4053e+004   1.3456e+007    0.0757   -0.0000    0.0000    0.0000    0.1170
                0.8957   1.3166e-003  -1.7187e-004   3.4174e-003   2.5277e+007  -1.3874e+004   1.3499e+007    0.0750   -0.0000    0.0000    0.0000    0.1174
                0.9004   1.3063e-003  -1.7053e-004   3.4240e-003   2.5080e+007  -1.3712e+004   1.3525e+007    0.0744   -0.0000    0.0000    0.0000    0.1176
                0.9021   1.3030e-003  -1.7009e-004   3.4262e-003   2.5016e+007  -1.3657e+004   1.3534e+007    0.0742   -0.0000    0.0000    0.0000    0.1177

               lamina:  2     
              matName:  (TEP-core)
                     s           e11           e22           e12           s11           s22           s12   s11_fcT   s11_fcC   s22_fcT   s22_fcC   s12_fcS
                   (m)         (m/m)         (m/m)         (rad)          (Pa)          (Pa)          (Pa)       (-)       (-)       (-)       (-)       (-)
                0.0000   5.1949e-003  -6.7965e-004   1.3455e-004   1.1714e+006   2.4383e+005   1.3186e+004    0.2731   -0.0000    0.0568   -0.0000    0.0045
                0.0134   5.1504e-003  -6.7383e-004   2.2141e-004   1.1614e+006   2.4175e+005   2.1699e+004    0.2707   -0.0000    0.0564   -0.0000    0.0074
                0.0656   4.9135e-003  -6.4283e-004   5.5183e-004   1.1079e+006   2.3062e+005   5.4079e+004    0.2583   -0.0000    0.0538   -0.0000    0.0183
                0.1178   4.6766e-003  -6.1183e-004   8.6717e-004   1.0545e+006   2.1951e+005   8.4982e+004    0.2458   -0.0000    0.0512   -0.0000    0.0288
                0.1700   4.3993e-003  -5.7555e-004   1.1664e-003   9.9200e+005   2.0649e+005   1.1431e+005    0.2312   -0.0000    0.0481   -0.0000    0.0387
                0.2221   4.1050e-003  -5.3704e-004   1.4467e-003   9.2564e+005   1.9268e+005   1.4177e+005    0.2158   -0.0000    0.0449   -0.0000    0.0481
                0.2735   3.8128e-003  -4.9881e-004   1.7052e-003   8.5975e+005   1.7897e+005   1.6711e+005    0.2004   -0.0000    0.0417   -0.0000    0.0566
                0.3243   3.5001e-003  -4.5789e-004   1.9418e-003   7.8924e+005   1.6429e+005   1.9029e+005    0.1840   -0.0000    0.0383   -0.0000    0.0645
                0.3742   3.1936e-003  -4.1778e-004   2.1551e-003   7.2012e+005   1.4991e+005   2.1120e+005    0.1679   -0.0000    0.0349   -0.0000    0.0716
                0.4228   2.8968e-003  -3.7894e-004   2.3452e-003   6.5319e+005   1.3598e+005   2.2983e+005    0.1523   -0.0000    0.0317   -0.0000    0.0779
                0.4699   2.6117e-003  -3.4164e-004   2.5128e-003   5.8891e+005   1.2260e+005   2.4625e+005    0.1373   -0.0000    0.0286   -0.0000    0.0835
                0.5156   2.3361e-003  -3.0558e-004   2.6593e-003   5.2678e+005   1.0967e+005   2.6061e+005    0.1228   -0.0000    0.0256   -0.0000    0.0883
                0.5593   2.0946e-003  -2.7397e-004   2.7858e-003   4.7230e+005   9.8327e+004   2.7301e+005    0.1101   -0.0000    0.0229   -0.0000    0.0925
                0.6009   1.8699e-003  -2.4458e-004   2.8946e-003   4.2165e+005   8.7784e+004   2.8367e+005    0.0983   -0.0000    0.0205   -0.0000    0.0962
                0.6405   1.6629e-003  -2.1748e-004   2.9876e-003   3.7497e+005   7.8068e+004   2.9278e+005    0.0874   -0.0000    0.0182   -0.0000    0.0992
                0.6776   1.5010e-003  -1.9630e-004   3.0665e-003   3.3847e+005   7.0471e+004   3.0051e+005    0.0789   -0.0000    0.0164   -0.0000    0.1019
                0.7123   1.3497e-003  -1.7651e-004   3.1337e-003   3.0435e+005   6.3370e+004   3.0710e+005    0.0709   -0.0000    0.0148   -0.0000    0.1041
                0.7444   1.2313e-003  -1.6101e-004   3.1907e-003   2.7766e+005   5.7814e+004   3.1269e+005    0.0647   -0.0000    0.0135   -0.0000    0.1060
                0.7737   1.1418e-003  -1.4930e-004   3.2392e-003   2.5747e+005   5.3611e+004   3.1744e+005    0.0600   -0.0000    0.0125   -0.0000    0.1076
                0.8003   1.0606e-003  -1.3867e-004   3.2806e-003   2.3916e+005   4.9801e+004   3.2150e+005    0.0557   -0.0000    0.0116   -0.0000    0.1090
                0.8240   1.0186e-003  -1.3317e-004   3.3157e-003   2.2968e+005   4.7829e+004   3.2494e+005    0.0535   -0.0000    0.0111   -0.0000    0.1102
                0.8445   9.8526e-004  -1.2881e-004   3.3455e-003   2.2217e+005   4.6265e+004   3.2786e+005    0.0518   -0.0000    0.0108   -0.0000    0.1111
                0.8622   9.6211e-004  -1.2579e-004   3.3705e-003   2.1695e+005   4.5179e+004   3.3031e+005    0.0506   -0.0000    0.0105   -0.0000    0.1120
                0.8767   9.5650e-004  -1.2505e-004   3.3909e-003   2.1569e+005   4.4916e+004   3.3231e+005    0.0503   -0.0000    0.0105   -0.0000    0.1126
                0.8879   9.5216e-004  -1.2448e-004   3.4065e-003   2.1471e+005   4.4712e+004   3.3384e+005    0.0500   -0.0000    0.0104   -0.0000    0.1132
                0.8957   9.4129e-004  -1.2306e-004   3.4174e-003   2.1226e+005   4.4202e+004   3.3491e+005    0.0495   -0.0000    0.0103   -0.0000    0.1135
                0.9004   9.3141e-004  -1.2177e-004   3.4240e-003   2.1003e+005   4.3739e+004   3.3555e+005    0.0490   -0.0000    0.0102   -0.0000    0.1137
                0.9021   9.2809e-004  -1.2133e-004   3.4262e-003   2.0928e+005   4.3582e+004   3.3577e+005    0.0488   -0.0000    0.0102   -0.0000    0.1138

               lamina:  3     
              matName:  (blade-shell)
                     s           e11           e22           e12           s11           s22           s12   s11_fcT   s11_fcC   s22_fcT   s22_fcC   s12_fcS
                   (m)         (m/m)         (m/m)         (rad)          (Pa)          (Pa)          (Pa)       (-)       (-)       (-)       (-)       (-)
                0.0000   4.9304e-003  -6.4526e-004   1.3455e-004   9.4653e+007  -8.4047e+004   5.3148e+005    0.2809   -0.0000    0.0000    0.0002    0.0046
                0.0134   4.8872e-003  -6.3961e-004   2.2141e-004   9.3824e+007  -8.3319e+004   8.7458e+005    0.2784   -0.0000    0.0000    0.0002    0.0076
                0.0656   4.6506e-003  -6.0865e-004   5.5183e-004   8.9282e+007  -7.9383e+004   2.1797e+006    0.2649   -0.0000    0.0000    0.0002    0.0190
                0.1178   4.4144e-003  -5.7773e-004   8.6717e-004   8.4746e+007  -7.5450e+004   3.4253e+006    0.2515   -0.0000    0.0000    0.0002    0.0298
                0.1700   4.1381e-003  -5.4158e-004   1.1664e-003   7.9443e+007  -7.0850e+004   4.6074e+006    0.2357   -0.0000    0.0000    0.0002    0.0401
                0.2221   3.8442e-003  -5.0312e-004   1.4467e-003   7.3799e+007  -6.5961e+004   5.7143e+006    0.2190   -0.0000    0.0000    0.0002    0.0497
                0.2735   3.5525e-003  -4.6495e-004   1.7052e-003   6.8200e+007  -6.1108e+004   6.7354e+006    0.2024   -0.0000    0.0000    0.0002    0.0586
                0.3243   3.2403e-003  -4.2410e-004   1.9418e-003   6.2206e+007  -5.5914e+004   7.6700e+006    0.1846   -0.0000    0.0000    0.0002    0.0667
                0.3742   2.9337e-003  -3.8398e-004   2.1551e-003   5.6320e+007  -5.0817e+004   8.5126e+006    0.1671   -0.0000    0.0000    0.0002    0.0740
                0.4228   2.6368e-003  -3.4513e-004   2.3452e-003   5.0620e+007  -4.5882e+004   9.2634e+006    0.1502   -0.0000    0.0000    0.0001    0.0806
                0.4699   2.3516e-003  -3.0782e-004   2.5128e-003   4.5146e+007  -4.1143e+004   9.9255e+006    0.1340   -0.0000    0.0000    0.0001    0.0863
                0.5156   2.0756e-003  -2.7170e-004   2.6593e-003   3.9846e+007  -3.6558e+004   1.0504e+007    0.1182   -0.0000    0.0000    0.0001    0.0913
                0.5593   1.8333e-003  -2.4000e-004   2.7858e-003   3.5196e+007  -3.2536e+004   1.1004e+007    0.1044   -0.0000    0.0000    0.0001    0.0957
                0.6009   1.6084e-003  -2.1057e-004   2.8946e-003   3.0878e+007  -2.8799e+004   1.1434e+007    0.0916   -0.0000    0.0000    0.0001    0.0994
                0.6405   1.4005e-003  -1.8337e-004   2.9876e-003   2.6887e+007  -2.5350e+004   1.1801e+007    0.0798   -0.0000    0.0000    0.0001    0.1026
                0.6776   1.2380e-003  -1.6209e-004   3.0665e-003   2.3766e+007  -2.2653e+004   1.2113e+007    0.0705   -0.0000    0.0000    0.0001    0.1053
                0.7123   1.0862e-003  -1.4224e-004   3.1337e-003   2.0852e+007  -2.0134e+004   1.2378e+007    0.0619   -0.0000    0.0000    0.0001    0.1076
                0.7444   9.6697e-004  -1.2664e-004   3.1907e-003   1.8564e+007  -1.8159e+004   1.2603e+007    0.0551   -0.0000    0.0000    0.0001    0.1096
                0.7737   8.7706e-004  -1.1487e-004   3.2392e-003   1.6837e+007  -1.6667e+004   1.2795e+007    0.0500   -0.0000    0.0000    0.0000    0.1113
                0.8003   7.9531e-004  -1.0417e-004   3.2806e-003   1.5268e+007  -1.5312e+004   1.2958e+007    0.0453   -0.0000    0.0000    0.0000    0.1127
                0.8240   7.5276e-004  -9.8607e-005   3.3157e-003   1.4451e+007  -1.4609e+004   1.3097e+007    0.0429   -0.0000    0.0000    0.0000    0.1139
                0.8445   7.1932e-004  -9.4231e-005   3.3455e-003   1.3809e+007  -1.4054e+004   1.3215e+007    0.0410   -0.0000    0.0000    0.0000    0.1149
                0.8622   6.9594e-004  -9.1172e-005   3.3705e-003   1.3360e+007  -1.3667e+004   1.3313e+007    0.0396   -0.0000    0.0000    0.0000    0.1158
                0.8767   6.9021e-004  -9.0423e-005   3.3909e-003   1.3250e+007  -1.3573e+004   1.3394e+007    0.0393   -0.0000    0.0000    0.0000    0.1165
                0.8879   6.8596e-004  -8.9866e-005   3.4065e-003   1.3169e+007  -1.3502e+004   1.3456e+007    0.0391   -0.0000    0.0000    0.0000    0.1170
                0.8957   6.7542e-004  -8.8487e-005   3.4174e-003   1.2966e+007  -1.3324e+004   1.3499e+007    0.0385   -0.0000    0.0000    0.0000    0.1174
                0.9004   6.6581e-004  -8.7230e-005   3.4240e-003   1.2782e+007  -1.3162e+004   1.3525e+007    0.0379   -0.0000    0.0000    0.0000    0.1176
                0.9021   6.6249e-004  -8.6794e-005   3.4262e-003   1.2718e+007  -1.3107e+004   1.3534e+007    0.0377   -0.0000    0.0000    0.0000    0.1177

     Web:  panel  nNode   nLam     xc_St    xc_End         b         t         E_eff         G_eff      nu_eff     density  buckleCrit
            (-)    (-)    (-)       (-)       (-)       (m)       (m)          (Pa)          (Pa)         (-)    (kg/m^3)         (-)
              1     10      3    0.2397    0.2397    0.3676    0.0121   6.5707e+009   1.3870e+009      0.1347    691.8998      0.3457
              2     10      3    0.4603    0.4603    0.3459    0.0121   6.5707e+009   1.3870e+009      0.1347    691.8998      0.3327

            panel:  1     
           lam_num    nPlies        tPly      fibAng     matID  matName
               (-)       (-)         (m)       (deg)       (-)  (-)
                 1         1    0.002023      0.0000         7  (web-shell)
                 2         1    0.008047      0.0000         8  (web-core)
                 3         1    0.002023      0.0000         7  (web-shell)

               lamina:  1     
              matName:  (web-shell)
                     s           e11           e22           e12           s11           s22           s12   s11_fcT   s11_fcC   s22_fcT   s22_fcC   s12_fcS
                   (m)         (m/m)         (m/m)         (rad)          (Pa)          (Pa)          (Pa)       (-)       (-)       (-)       (-)       (-)
                0.0000  -5.1970e-003   6.9997e-004   1.2137e-002  -9.9720e+007   4.7581e+005   4.7943e+007    0.0000    0.2006    0.0014   -0.0000    0.4169
                0.0408  -4.0502e-003   5.4552e-004   1.2379e-002  -7.7716e+007   3.7085e+005   4.8898e+007    0.0000    0.1564    0.0011   -0.0000    0.4252
                0.0817  -2.9035e-003   3.9107e-004   1.2562e-002  -5.5712e+007   2.6590e+005   4.9620e+007    0.0000    0.1121    0.0008   -0.0000    0.4315
                0.1225  -1.7567e-003   2.3662e-004   1.2686e-002  -3.3708e+007   1.6095e+005   5.0110e+007    0.0000    0.0678    0.0005   -0.0000    0.4357
                0.1634  -6.0998e-004   8.2165e-005   1.2751e-002  -1.1704e+007   5.5993e+004   5.0367e+007    0.0000    0.0236    0.0002   -0.0000    0.4380
                0.2042   5.3792e-004  -7.2437e-005   1.2758e-002   1.0322e+007  -4.8984e+004   5.0393e+007    0.0306   -0.0000    0.0000    0.0001    0.4382
                0.2451   1.6847e-003  -2.2689e-004   1.2705e-002   3.2325e+007  -1.5394e+005   5.0185e+007    0.0959   -0.0000    0.0000    0.0005    0.4364
                0.2859   2.8314e-003  -3.8134e-004   1.2594e-002   5.4329e+007  -2.5889e+005   4.9746e+007    0.1612   -0.0000    0.0000    0.0008    0.4326
                0.3268   3.9781e-003  -5.3579e-004   1.2424e-002   7.6333e+007  -3.6384e+005   4.9074e+007    0.2265   -0.0000    0.0000    0.0011    0.4267
                0.3676   5.1249e-003  -6.9024e-004   1.2195e-002   9.8337e+007  -4.6880e+005   4.8169e+007    0.2918   -0.0000    0.0000    0.0014    0.4189

               lamina:  2     
              matName:  (web-core)
                     s           e11           e22           e12           s11           s22           s12   s11_fcT   s11_fcC   s22_fcT   s22_fcC   s12_fcS
                   (m)         (m/m)         (m/m)         (rad)          (Pa)          (Pa)          (Pa)       (-)       (-)       (-)       (-)       (-)
                0.0000  -5.2015e-003   7.0057e-004   1.2137e-002  -1.1713e+006  -2.3942e+005   1.1895e+006    0.0000    0.2730    0.0000    0.0558    0.4032
                0.0408  -4.0548e-003   5.4612e-004   1.2379e-002  -9.1310e+005  -1.8664e+005   1.2132e+006    0.0000    0.2128    0.0000    0.0435    0.4112
                0.0817  -2.9081e-003   3.9167e-004   1.2562e-002  -6.5486e+005  -1.3386e+005   1.2311e+006    0.0000    0.1526    0.0000    0.0312    0.4173
                0.1225  -1.7613e-003   2.3722e-004   1.2686e-002  -3.9663e+005  -8.1073e+004   1.2432e+006    0.0000    0.0925    0.0000    0.0189    0.4214
                0.1634  -6.1457e-004   8.2766e-005   1.2751e-002  -1.3840e+005  -2.8290e+004   1.2496e+006    0.0000    0.0323    0.0000    0.0066    0.4236
                0.2042   5.3676e-004  -7.2286e-005   1.2758e-002   1.2087e+005   2.4708e+004   1.2502e+006    0.0282   -0.0000    0.0058   -0.0000    0.4238
                0.2451   1.6835e-003  -2.2674e-004   1.2705e-002   3.7911e+005   7.7491e+004   1.2451e+006    0.0884   -0.0000    0.0181   -0.0000    0.4221
                0.2859   2.8302e-003  -3.8119e-004   1.2594e-002   6.3734e+005   1.3027e+005   1.2342e+006    0.1486   -0.0000    0.0304   -0.0000    0.4184
                0.3268   3.9770e-003  -5.3564e-004   1.2424e-002   8.9558e+005   1.8306e+005   1.2175e+006    0.2088   -0.0000    0.0427   -0.0000    0.4127
                0.3676   5.1237e-003  -6.9009e-004   1.2195e-002   1.1538e+006   2.3584e+005   1.1951e+006    0.2690   -0.0000    0.0550   -0.0000    0.4051

               lamina:  3     
              matName:  (web-shell)
                     s           e11           e22           e12           s11           s22           s12   s11_fcT   s11_fcC   s22_fcT   s22_fcC   s12_fcS
                   (m)         (m/m)         (m/m)         (rad)          (Pa)          (Pa)          (Pa)       (-)       (-)       (-)       (-)       (-)
                0.0000  -5.2027e-003   7.0072e-004   1.2137e-002  -9.9830e+007   4.7592e+005   4.7943e+007    0.0000    0.2009    0.0014   -0.0000    0.4169
                0.0408  -4.0560e-003   5.4627e-004   1.2379e-002  -7.7826e+007   3.7097e+005   4.8898e+007    0.0000    0.1566    0.0011   -0.0000    0.4252
                0.0817  -2.9092e-003   3.9182e-004   1.2562e-002  -5.5822e+007   2.6601e+005   4.9620e+007    0.0000    0.1123    0.0008   -0.0000    0.4315
                0.1225  -1.7625e-003   2.3737e-004   1.2686e-002  -3.3819e+007   1.6106e+005   5.0110e+007    0.0000    0.0680    0.0005   -0.0000    0.4357
                0.1634  -6.1573e-004   8.2918e-005   1.2751e-002  -1.1815e+007   5.6105e+004   5.0367e+007    0.0000    0.0238    0.0002   -0.0000    0.4380
                0.2042   5.3217e-004  -7.1684e-005   1.2758e-002   1.0211e+007  -4.8871e+004   5.0393e+007    0.0303   -0.0000    0.0000    0.0001    0.4382
                0.2451   1.6789e-003  -2.2613e-004   1.2705e-002   3.2215e+007  -1.5382e+005   5.0185e+007    0.0956   -0.0000    0.0000    0.0005    0.4364
                0.2859   2.8257e-003  -3.8059e-004   1.2594e-002   5.4219e+007  -2.5878e+005   4.9746e+007    0.1609   -0.0000    0.0000    0.0008    0.4326
                0.3268   3.9724e-003  -5.3504e-004   1.2424e-002   7.6223e+007  -3.6373e+005   4.9074e+007    0.2262   -0.0000    0.0000    0.0011    0.4267
                0.3676   5.1191e-003  -6.8949e-004   1.2195e-002   9.8226e+007  -4.6869e+005   4.8169e+007    0.2915   -0.0000    0.0000    0.0014    0.4189

            panel:  2     
           lam_num    nPlies        tPly      fibAng     matID  matName
               (-)       (-)         (m)       (deg)       (-)  (-)
                 1         1    0.002023      0.0000         7  (web-shell)
                 2         1    0.008047      0.0000         8  (web-core)
                 3         1    0.002023      0.0000         7  (web-shell)

               lamina:  1     
              matName:  (web-shell)
                     s           e11           e22           e12           s11           s22           s12   s11_fcT   s11_fcC   s22_fcT   s22_fcC   s12_fcS
                   (m)         (m/m)         (m/m)         (rad)          (Pa)          (Pa)          (Pa)       (-)       (-)       (-)       (-)       (-)
                0.0000  -4.9870e-003   6.7168e-004   1.3820e-002  -9.5690e+007   4.5658e+005   5.4589e+007    0.0000    0.1925    0.0014   -0.0000    0.4747
                0.0384  -3.9080e-003   5.2636e-004   1.4034e-002  -7.4987e+007   3.5783e+005   5.5434e+007    0.0000    0.1509    0.0011   -0.0000    0.4820
                0.0769  -2.8290e-003   3.8104e-004   1.4196e-002  -5.4283e+007   2.5908e+005   5.6073e+007    0.0000    0.1092    0.0008   -0.0000    0.4876
                0.1153  -1.7500e-003   2.3571e-004   1.4305e-002  -3.3580e+007   1.6033e+005   5.6506e+007    0.0000    0.0676    0.0005   -0.0000    0.4914
                0.1537  -6.7107e-004   9.0392e-005   1.4363e-002  -1.2876e+007   6.1577e+004   5.6734e+007    0.0000    0.0259    0.0002   -0.0000    0.4933
                0.1922   4.0901e-004  -5.5076e-005   1.4369e-002   7.8482e+006  -3.7196e+004   5.6756e+007    0.0233   -0.0000    0.0000    0.0001    0.4935
                0.2306   1.4880e-003  -2.0040e-004   1.4322e-002   2.8552e+007  -1.3595e+005   5.6572e+007    0.0847   -0.0000    0.0000    0.0004    0.4919
                0.2690   2.5670e-003  -3.4572e-004   1.4223e-002   4.9255e+007  -2.3470e+005   5.6182e+007    0.1462   -0.0000    0.0000    0.0007    0.4885
                0.3074   3.6459e-003  -4.9104e-004   1.4073e-002   6.9958e+007  -3.3345e+005   5.5587e+007    0.2076   -0.0000    0.0000    0.0010    0.4834
                0.3459   4.7249e-003  -6.3637e-004   1.3870e-002   9.0662e+007  -4.3220e+005   5.4786e+007    0.2690   -0.0000    0.0000    0.0013    0.4764

               lamina:  2     
              matName:  (web-core)
                     s           e11           e22           e12           s11           s22           s12   s11_fcT   s11_fcC   s22_fcT   s22_fcC   s12_fcS
                   (m)         (m/m)         (m/m)         (rad)          (Pa)          (Pa)          (Pa)       (-)       (-)       (-)       (-)       (-)
                0.0000  -4.9914e-003   6.7226e-004   1.3820e-002  -1.1240e+006  -2.2975e+005   1.3544e+006    0.0000    0.2620    0.0000    0.0536    0.4591
                0.0384  -3.9124e-003   5.2694e-004   1.4034e-002  -8.8103e+005  -1.8008e+005   1.3753e+006    0.0000    0.2054    0.0000    0.0420    0.4662
                0.0769  -2.8334e-003   3.8161e-004   1.4196e-002  -6.3806e+005  -1.3042e+005   1.3912e+006    0.0000    0.1487    0.0000    0.0304    0.4716
                0.1153  -1.7544e-003   2.3629e-004   1.4305e-002  -3.9508e+005  -8.0756e+004   1.4019e+006    0.0000    0.0921    0.0000    0.0188    0.4752
                0.1537  -6.7547e-004   9.0969e-005   1.4363e-002  -1.5211e+005  -3.1093e+004   1.4076e+006    0.0000    0.0355    0.0000    0.0072    0.4771
                0.1922   4.0790e-004  -5.4931e-005   1.4369e-002   9.1856e+004   1.8777e+004   1.4081e+006    0.0214   -0.0000    0.0044   -0.0000    0.4773
                0.2306   1.4869e-003  -2.0025e-004   1.4322e-002   3.3483e+005   6.8440e+004   1.4036e+006    0.0780   -0.0000    0.0160   -0.0000    0.4758
                0.2690   2.5658e-003  -3.4558e-004   1.4223e-002   5.7780e+005   1.1810e+005   1.3939e+006    0.1347   -0.0000    0.0275   -0.0000    0.4725
                0.3074   3.6448e-003  -4.9090e-004   1.4073e-002   8.2077e+005   1.6777e+005   1.3791e+006    0.1913   -0.0000    0.0391   -0.0000    0.4675
                0.3459   4.7238e-003  -6.3622e-004   1.3870e-002   1.0637e+006   2.1743e+005   1.3592e+006    0.2480   -0.0000    0.0507   -0.0000    0.4608

               lamina:  3     
              matName:  (web-shell)
                     s           e11           e22           e12           s11           s22           s12   s11_fcT   s11_fcC   s22_fcT   s22_fcC   s12_fcS
                   (m)         (m/m)         (m/m)         (rad)          (Pa)          (Pa)          (Pa)       (-)       (-)       (-)       (-)       (-)
                0.0000  -4.9925e-003   6.7240e-004   1.3820e-002  -9.5796e+007   4.5669e+005   5.4589e+007    0.0000    0.1927    0.0014   -0.0000    0.4747
                0.0384  -3.9135e-003   5.2708e-004   1.4034e-002  -7.5093e+007   3.5794e+005   5.5434e+007    0.0000    0.1511    0.0011   -0.0000    0.4820
                0.0769  -2.8345e-003   3.8176e-004   1.4196e-002  -5.4389e+007   2.5919e+005   5.6073e+007    0.0000    0.1094    0.0008   -0.0000    0.4876
                0.1153  -1.7556e-003   2.3644e-004   1.4305e-002  -3.3686e+007   1.6044e+005   5.6506e+007    0.0000    0.0678    0.0005   -0.0000    0.4914
                0.1537  -6.7658e-004   9.1114e-005   1.4363e-002  -1.2982e+007   6.1685e+004   5.6734e+007    0.0000    0.0261    0.0002   -0.0000    0.4933
                0.1922   4.0350e-004  -5.4354e-005   1.4369e-002   7.7423e+006  -3.7088e+004   5.6756e+007    0.0230   -0.0000    0.0000    0.0001    0.4935
                0.2306   1.4825e-003  -1.9968e-004   1.4322e-002   2.8446e+007  -1.3584e+005   5.6572e+007    0.0844   -0.0000    0.0000    0.0004    0.4919
                0.2690   2.5614e-003  -3.4500e-004   1.4223e-002   4.9149e+007  -2.3459e+005   5.6182e+007    0.1458   -0.0000    0.0000    0.0007    0.4885
                0.3074   3.6404e-003  -4.9032e-004   1.4073e-002   6.9853e+007  -3.3334e+005   5.5587e+007    0.2073   -0.0000    0.0000    0.0010    0.4834
                0.3459   4.7194e-003  -6.3564e-004   1.3870e-002   9.0556e+007  -4.3209e+005   5.4786e+007    0.2687   -0.0000    0.0000    0.0013    0.4764

================================================================================
sec        =  9      
zSec       =  2.4030  (m)
nPanelsTop =  3      
nPanelsBot =  3      
nWebs      =  2      

    Top:  panel  nNode   nLam     xc_St    xc_End         b         t         E_eff         G_eff      nu_eff     density  buckleCrit
            (-)    (-)    (-)       (-)       (-)       (m)       (m)          (Pa)          (Pa)         (-)    (kg/m^3)         (-)
              1     18      3    0.0000    0.2395    0.4481    0.0117   1.8765e+010   3.8618e+009      0.1301   1636.3366      0.2688
              2      9      5    0.2395    0.4605    0.3520    0.0195   6.1737e+010   4.2519e+009      0.1709   1584.5772      0.3555
              3     28      3    0.4605    1.0000    0.8867    0.0154   1.4290e+010   2.9535e+009      0.1308   1289.7110      0.9167

            panel:  1     
           lam_num    nPlies        tPly      fibAng     matID  matName
               (-)       (-)         (m)       (deg)       (-)  (-)
                 1         1    0.005726      0.0000         2  (blade-shell)
                 2         1    0.000268      0.0000         5  (LEP-core)
                 3         1    0.005726      0.0000         2  (blade-shell)

               lamina:  1     
              matName:  (blade-shell)
                     s           e11           e22           e12           s11           s22           s12   s11_fcT   s11_fcC   s22_fcT   s22_fcC   s12_fcS
                   (m)         (m/m)         (m/m)         (rad)          (Pa)          (Pa)          (Pa)       (-)       (-)       (-)       (-)       (-)
                0.0000   5.3725e-004  -6.9873e-005   6.3657e-003   1.0315e+007  -5.9767e+002   2.5145e+007    0.0306   -0.0000    0.0000    0.0000    0.2186
                0.0052   3.8304e-004  -4.9817e-005   6.3677e-003   7.3543e+006  -4.2737e+002   2.5152e+007    0.0218   -0.0000    0.0000    0.0000    0.2187
                0.0203  -2.6626e-004   3.4617e-005   6.3671e-003  -5.1121e+006   7.2406e+001   2.5150e+007    0.0000    0.0103    0.0000   -0.0000    0.2187
                0.0390  -8.9188e-004   1.1598e-004   6.3539e-003  -1.7124e+007   6.6708e+002   2.5098e+007    0.0000    0.0345    0.0000   -0.0000    0.2182
                0.0549  -1.3369e-003   1.7386e-004   6.3328e-003  -2.5669e+007   1.0812e+003   2.5015e+007    0.0000    0.0516    0.0000   -0.0000    0.2175
                0.0759  -1.8681e-003   2.4293e-004   6.2924e-003  -3.5867e+007   1.6327e+003   2.4855e+007    0.0000    0.0722    0.0000   -0.0000    0.2161
                0.0976  -2.3418e-003   3.0455e-004   6.2372e-003  -4.4963e+007   2.1121e+003   2.4637e+007    0.0000    0.0905    0.0000   -0.0000    0.2142
                0.1222  -2.8093e-003   3.6534e-004   6.1598e-003  -5.3937e+007   2.6142e+003   2.4331e+007    0.0000    0.1085    0.0000   -0.0000    0.2116
                0.1497  -3.3317e-003   4.3328e-004   6.0555e-003  -6.3967e+007   3.1632e+003   2.3919e+007    0.0000    0.1287    0.0000   -0.0000    0.2080
                0.1779  -3.7408e-003   4.8648e-004   5.9319e-003  -7.1822e+007   3.5934e+003   2.3431e+007    0.0000    0.1445    0.0000   -0.0000    0.2037
                0.2093  -4.1829e-003   5.4398e-004   5.7768e-003  -8.0311e+007   4.0739e+003   2.2818e+007    0.0000    0.1616    0.0000   -0.0000    0.1984
                0.2425  -4.5982e-003   5.9800e-004   5.5947e-003  -8.8285e+007   4.5181e+003   2.2099e+007    0.0000    0.1776    0.0000   -0.0000    0.1922
                0.2775  -4.9600e-003   6.4505e-004   5.3845e-003  -9.5231e+007   4.9110e+003   2.1269e+007    0.0000    0.1916    0.0000   -0.0000    0.1849
                0.3149  -5.3475e-003   6.9545e-004   5.1419e-003  -1.0267e+008   5.3307e+003   2.0310e+007    0.0000    0.2066    0.0000   -0.0000    0.1766
                0.3535  -5.6393e-003   7.3340e-004   4.8749e-003  -1.0827e+008   5.6448e+003   1.9256e+007    0.0000    0.2179    0.0000   -0.0000    0.1674
                0.3941  -5.9202e-003   7.6993e-004   4.5784e-003  -1.1367e+008   5.9525e+003   1.8085e+007    0.0000    0.2287    0.0000   -0.0000    0.1573
                0.4364  -6.1851e-003   8.0439e-004   4.2549e-003  -1.1875e+008   6.2418e+003   1.6807e+007    0.0000    0.2389    0.0000   -0.0000    0.1461
                0.4481  -6.2329e-003   8.1060e-004   4.1636e-003  -1.1967e+008   6.2891e+003   1.6446e+007    0.0000    0.2408    0.0000   -0.0000    0.1430

               lamina:  2     
              matName:  (LEP-core)
                     s           e11           e22           e12           s11           s22           s12   s11_fcT   s11_fcC   s22_fcT   s22_fcC   s12_fcS
                   (m)         (m/m)         (m/m)         (rad)          (Pa)          (Pa)          (Pa)       (-)       (-)       (-)       (-)       (-)
                0.0000   5.4516e-004  -7.0902e-005   6.3657e-003   1.2296e+005   2.5688e+004   6.2384e+005    0.0287   -0.0000    0.0060   -0.0000    0.2115
                0.0052   3.9095e-004  -5.0846e-005   6.3677e-003   8.8179e+004   1.8422e+004   6.2403e+005    0.0206   -0.0000    0.0043   -0.0000    0.2115
                0.0203  -7.0061e-005   9.1116e-006   6.3671e-003  -1.5802e+004  -3.3013e+003   6.2398e+005    0.0000    0.0037    0.0000    0.0008    0.2115
                0.0390  -6.1050e-004   7.9400e-005   6.3539e-003  -1.3770e+005  -2.8767e+004   6.2268e+005    0.0000    0.0321    0.0000    0.0067    0.2111
                0.0549  -9.8711e-004   1.2838e-004   6.3328e-003  -2.2264e+005  -4.6512e+004   6.2062e+005    0.0000    0.0519    0.0000    0.0108    0.2104
                0.0759  -1.4872e-003   1.9341e-004   6.2924e-003  -3.3543e+005  -7.0074e+004   6.1666e+005    0.0000    0.0782    0.0000    0.0163    0.2090
                0.0976  -1.9222e-003   2.4999e-004   6.2372e-003  -4.3354e+005  -9.0571e+004   6.1125e+005    0.0000    0.1011    0.0000    0.0211    0.2072
                0.1222  -2.3772e-003   3.0916e-004   6.1598e-003  -5.3617e+005  -1.1201e+005   6.0366e+005    0.0000    0.1250    0.0000    0.0261    0.2046
                0.1497  -2.8748e-003   3.7389e-004   6.0555e-003  -6.4841e+005  -1.3546e+005   5.9343e+005    0.0000    0.1511    0.0000    0.0316    0.2012
                0.1779  -3.2648e-003   4.2461e-004   5.9319e-003  -7.3637e+005  -1.5384e+005   5.8133e+005    0.0000    0.1716    0.0000    0.0359    0.1971
                0.2093  -3.7000e-003   4.8121e-004   5.7768e-003  -8.3454e+005  -1.7434e+005   5.6613e+005    0.0000    0.1945    0.0000    0.0406    0.1919
                0.2425  -4.1026e-003   5.3357e-004   5.5947e-003  -9.2534e+005  -1.9331e+005   5.4828e+005    0.0000    0.2157    0.0000    0.0451    0.1859
                0.2775  -4.4585e-003   5.7986e-004   5.3845e-003  -1.0056e+006  -2.1008e+005   5.2768e+005    0.0000    0.2344    0.0000    0.0490    0.1789
                0.3149  -4.8387e-003   6.2931e-004   5.1419e-003  -1.0914e+006  -2.2800e+005   5.0391e+005    0.0000    0.2544    0.0000    0.0531    0.1708
                0.3535  -5.1233e-003   6.6632e-004   4.8749e-003  -1.1556e+006  -2.4141e+005   4.7774e+005    0.0000    0.2694    0.0000    0.0563    0.1619
                0.3941  -5.4020e-003   7.0256e-004   4.5784e-003  -1.2184e+006  -2.5454e+005   4.4868e+005    0.0000    0.2840    0.0000    0.0593    0.1521
                0.4364  -5.6641e-003   7.3665e-004   4.2549e-003  -1.2775e+006  -2.6689e+005   4.1698e+005    0.0000    0.2978    0.0000    0.0622    0.1414
                0.4481  -5.7069e-003   7.4222e-004   4.1636e-003  -1.2872e+006  -2.6891e+005   4.0803e+005    0.0000    0.3000    0.0000    0.0627    0.1383

               lamina:  3     
              matName:  (blade-shell)
                     s           e11           e22           e12           s11           s22           s12   s11_fcT   s11_fcC   s22_fcT   s22_fcC   s12_fcS
                   (m)         (m/m)         (m/m)         (rad)          (Pa)          (Pa)          (Pa)       (-)       (-)       (-)       (-)       (-)
                0.0000   7.1396e-004  -9.2845e-005   6.3657e-003   1.3708e+007  -5.9777e+002   2.5145e+007    0.0407   -0.0000    0.0000    0.0000    0.2186
                0.0052   5.5975e-004  -7.2789e-005   6.3677e-003   1.0747e+007  -4.2747e+002   2.5152e+007    0.0319   -0.0000    0.0000    0.0000    0.2187
                0.0203   1.3533e-004  -1.7589e-005   6.3671e-003   2.5984e+006   7.2290e+001   2.5150e+007    0.0077   -0.0000    0.0000   -0.0000    0.2187
                0.0390  -5.9732e-004   7.7685e-005   6.3539e-003  -1.1468e+007   6.6692e+002   2.5098e+007    0.0000    0.0231    0.0000   -0.0000    0.2182
                0.0549  -9.7071e-004   1.2625e-004   6.3328e-003  -1.8638e+007   1.0810e+003   2.5015e+007    0.0000    0.0375    0.0000   -0.0000    0.2175
                0.0759  -1.4693e-003   1.9109e-004   6.2924e-003  -2.8210e+007   1.6325e+003   2.4855e+007    0.0000    0.0568    0.0000   -0.0000    0.2161
                0.0976  -1.9025e-003   2.4743e-004   6.2372e-003  -3.6527e+007   2.1118e+003   2.4637e+007    0.0000    0.0735    0.0000   -0.0000    0.2142
                0.1222  -2.3569e-003   3.0653e-004   6.1598e-003  -4.5252e+007   2.6140e+003   2.4331e+007    0.0000    0.0911    0.0000   -0.0000    0.2116
                0.1497  -2.8534e-003   3.7110e-004   6.0555e-003  -5.4785e+007   3.1629e+003   2.3919e+007    0.0000    0.1102    0.0000   -0.0000    0.2080
                0.1779  -3.2425e-003   4.2171e-004   5.9319e-003  -6.2255e+007   3.5931e+003   2.3431e+007    0.0000    0.1253    0.0000   -0.0000    0.2037
                0.2093  -3.6774e-003   4.7827e-004   5.7768e-003  -7.0606e+007   4.0736e+003   2.2818e+007    0.0000    0.1421    0.0000   -0.0000    0.1984
                0.2425  -4.0794e-003   5.3055e-004   5.5947e-003  -7.8323e+007   4.5178e+003   2.2099e+007    0.0000    0.1576    0.0000   -0.0000    0.1922
                0.2775  -4.4350e-003   5.7680e-004   5.3845e-003  -8.5152e+007   4.9107e+003   2.1269e+007    0.0000    0.1713    0.0000   -0.0000    0.1849
                0.3149  -4.8149e-003   6.2621e-004   5.1419e-003  -9.2445e+007   5.3304e+003   2.0310e+007    0.0000    0.1860    0.0000   -0.0000    0.1766
                0.3535  -5.0991e-003   6.6317e-004   4.8749e-003  -9.7902e+007   5.6445e+003   1.9256e+007    0.0000    0.1970    0.0000   -0.0000    0.1674
                0.3941  -5.3777e-003   6.9940e-004   4.5784e-003  -1.0325e+008   5.9522e+003   1.8085e+007    0.0000    0.2077    0.0000   -0.0000    0.1573
                0.4364  -5.6396e-003   7.3347e-004   4.2549e-003  -1.0828e+008   6.2415e+003   1.6807e+007    0.0000    0.2179    0.0000   -0.0000    0.1461
                0.4481  -5.6823e-003   7.3902e-004   4.1636e-003  -1.0910e+008   6.2887e+003   1.6446e+007    0.0000    0.2195    0.0000   -0.0000    0.1430

            panel:  2     
           lam_num    nPlies        tPly      fibAng     matID  matName
               (-)       (-)         (m)       (deg)       (-)  (-)
                 1         1    0.005726      0.0000         2  (blade-shell)
                 2         1    0.003986      0.0000         3  (spar-uni)
                 3         1    0.000047      0.0000         4  (spar-core)
                 4         1    0.003986      0.0000         3  (spar-uni)
                 5         1    0.005726      0.0000         2  (blade-shell)

               lamina:  1     
              matName:  (blade-shell)
                     s           e11           e22           e12           s11           s22           s12   s11_fcT   s11_fcC   s22_fcT   s22_fcC   s12_fcS
                   (m)         (m/m)         (m/m)         (rad)          (Pa)          (Pa)          (Pa)       (-)       (-)       (-)       (-)       (-)
                0.0000  -7.7074e-003   1.2418e-003   4.8956e-003  -1.4737e+008   4.6845e+006   1.9338e+007    0.0000    0.2965    0.0139   -0.0000    0.1682
                0.0316  -7.8243e-003   1.2618e-003   4.1616e-003  -1.4960e+008   4.7779e+006   1.6438e+007    0.0000    0.3010    0.0142   -0.0000    0.1429
                0.0764  -7.9972e-003   1.2911e-003   3.0962e-003  -1.5291e+008   4.9113e+006   1.2230e+007    0.0000    0.3077    0.0146   -0.0000    0.1063
                0.1220  -8.0822e-003   1.3054e-003   1.9904e-003  -1.5453e+008   4.9745e+006   7.8621e+006    0.0000    0.3109    0.0148   -0.0000    0.0684
                0.1690  -8.0958e-003   1.3077e-003   8.4510e-004  -1.5479e+008   4.9847e+006   3.3381e+006    0.0000    0.3115    0.0148   -0.0000    0.0290
                0.2168  -8.1073e-003   1.3097e-003   3.1741e-004  -1.5501e+008   4.9951e+006   1.2538e+006    0.0000    0.3119    0.0148   -0.0000    0.0109
                0.2654  -7.9613e-003   1.2850e-003   1.4867e-003  -1.5222e+008   4.8836e+006   5.8725e+006    0.0000    0.3063    0.0145   -0.0000    0.0511
                0.3150  -7.8089e-003   1.2591e-003   2.6478e-003  -1.4931e+008   4.7638e+006   1.0459e+007    0.0000    0.3004    0.0141   -0.0000    0.0909
                0.3520  -7.6640e-003   1.2344e-003   3.4907e-003  -1.4654e+008   4.6505e+006   1.3788e+007    0.0000    0.2949    0.0138   -0.0000    0.1199

               lamina:  2     
              matName:  (spar-uni)
                     s           e11           e22           e12           s11           s22           s12   s11_fcT   s11_fcC   s22_fcT   s22_fcC   s12_fcS
                   (m)         (m/m)         (m/m)         (rad)          (Pa)          (Pa)          (Pa)       (-)       (-)       (-)       (-)       (-)
                0.0000  -6.4521e-003   1.0717e-003   4.8956e-003  -7.9598e+008  -7.6625e+006   2.3058e+007    0.0000    0.7960    0.0000    0.1279    0.2239
                0.0316  -6.5690e-003   1.0917e-003   4.1616e-003  -8.1040e+008  -7.7967e+006   1.9601e+007    0.0000    0.8104    0.0000    0.1302    0.1903
                0.0764  -6.7379e-003   1.1204e-003   3.0962e-003  -8.3123e+008  -7.9913e+006   1.4583e+007    0.0000    0.8312    0.0000    0.1334    0.1416
                0.1220  -6.8188e-003   1.1342e-003   1.9904e-003  -8.4122e+008  -8.0851e+006   9.3748e+006    0.0000    0.8412    0.0000    0.1350    0.0910
                0.1690  -6.8318e-003   1.1364e-003   8.4510e-004  -8.4283e+008  -8.1001e+006   3.9804e+006    0.0000    0.8428    0.0000    0.1352    0.0386
                0.2168  -6.8444e-003   1.1385e-003   3.1741e-004  -8.4437e+008  -8.1143e+006   1.4950e+006    0.0000    0.8444    0.0000    0.1355    0.0145
                0.2654  -6.7027e-003   1.1144e-003   1.4867e-003  -8.2690e+008  -7.9508e+006   7.0024e+006    0.0000    0.8269    0.0000    0.1327    0.0680
                0.3150  -6.5521e-003   1.0887e-003   2.6478e-003  -8.0831e+008  -7.7776e+006   1.2471e+007    0.0000    0.8083    0.0000    0.1298    0.1211
                0.3520  -6.4093e-003   1.0644e-003   3.4907e-003  -7.9070e+008  -7.6132e+006   1.6441e+007    0.0000    0.7907    0.0000    0.1271    0.1596

               lamina:  3     
              matName:  (spar-core)
                     s           e11           e22           e12           s11           s22           s12   s11_fcT   s11_fcC   s22_fcT   s22_fcC   s12_fcS
                   (m)         (m/m)         (m/m)         (rad)          (Pa)          (Pa)          (Pa)       (-)       (-)       (-)       (-)       (-)
                0.0000  -5.5783e-003   9.5326e-004   4.8956e-003  -1.2405e+006  -2.0917e+005   4.7977e+005    0.0000    0.2892    0.0000    0.0488    0.1626
                0.0316  -5.6952e-003   9.7323e-004   4.1616e-003  -1.2665e+006  -2.1355e+005   4.0784e+005    0.0000    0.2952    0.0000    0.0498    0.1382
                0.0764  -5.8612e-003   1.0016e-003   3.0962e-003  -1.3034e+006  -2.1978e+005   3.0343e+005    0.0000    0.3038    0.0000    0.0512    0.1029
                0.1220  -5.9394e-003   1.0150e-003   1.9904e-003  -1.3208e+006  -2.2271e+005   1.9506e+005    0.0000    0.3079    0.0000    0.0519    0.0661
                0.1690  -5.9520e-003   1.0171e-003   8.4510e-004  -1.3236e+006  -2.2318e+005   8.2820e+004    0.0000    0.3085    0.0000    0.0520    0.0281
                0.2168  -5.9653e-003   1.0194e-003   3.1741e-004  -1.3265e+006  -2.2368e+005   3.1106e+004    0.0000    0.3092    0.0000    0.0521    0.0105
                0.2654  -5.8267e-003   9.9570e-004   1.4867e-003  -1.2957e+006  -2.1848e+005   1.4570e+005    0.0000    0.3020    0.0000    0.0509    0.0494
                0.3150  -5.6772e-003   9.7015e-004   2.6478e-003  -1.2625e+006  -2.1288e+005   2.5948e+005    0.0000    0.2943    0.0000    0.0496    0.0880
                0.3520  -5.5359e-003   9.4600e-004   3.4907e-003  -1.2310e+006  -2.0758e+005   3.4209e+005    0.0000    0.2870    0.0000    0.0484    0.1160

               lamina:  4     
              matName:  (spar-uni)
                     s           e11           e22           e12           s11           s22           s12   s11_fcT   s11_fcC   s22_fcT   s22_fcC   s12_fcS
                   (m)         (m/m)         (m/m)         (rad)          (Pa)          (Pa)          (Pa)       (-)       (-)       (-)       (-)       (-)
                0.0000  -5.5681e-003   9.5186e-004   4.8956e-003  -6.8685e+008  -6.3896e+006   2.3058e+007    0.0000    0.6869    0.0000    0.1067    0.2239
                0.0316  -5.6849e-003   9.7184e-004   4.1616e-003  -7.0127e+008  -6.5238e+006   1.9601e+007    0.0000    0.7013    0.0000    0.1089    0.1903
                0.0764  -5.8509e-003   1.0002e-003   3.0962e-003  -7.2174e+008  -6.7143e+006   1.4583e+007    0.0000    0.7217    0.0000    0.1121    0.1416
                0.1220  -5.9290e-003   1.0136e-003   1.9904e-003  -7.3138e+008  -6.8039e+006   9.3748e+006    0.0000    0.7314    0.0000    0.1136    0.0910
                0.1690  -5.9416e-003   1.0157e-003   8.4510e-004  -7.3294e+008  -6.8184e+006   3.9804e+006    0.0000    0.7329    0.0000    0.1138    0.0386
                0.2168  -5.9549e-003   1.0180e-003   3.1741e-004  -7.3458e+008  -6.8337e+006   1.4950e+006    0.0000    0.7346    0.0000    0.1141    0.0145
                0.2654  -5.8164e-003   9.9431e-004   1.4867e-003  -7.1748e+008  -6.6746e+006   7.0024e+006    0.0000    0.7175    0.0000    0.1114    0.0680
                0.3150  -5.6669e-003   9.6876e-004   2.6478e-003  -6.9904e+008  -6.5031e+006   1.2471e+007    0.0000    0.6990    0.0000    0.1086    0.1211
                0.3520  -5.5256e-003   9.4461e-004   3.4907e-003  -6.8161e+008  -6.3409e+006   1.6441e+007    0.0000    0.6816    0.0000    0.1059    0.1596

               lamina:  5     
              matName:  (blade-shell)
                     s           e11           e22           e12           s11           s22           s12   s11_fcT   s11_fcC   s22_fcT   s22_fcC   s12_fcS
                   (m)         (m/m)         (m/m)         (rad)          (Pa)          (Pa)          (Pa)       (-)       (-)       (-)       (-)       (-)
                0.0000  -4.6943e-003   8.3344e-004   4.8956e-003  -8.9563e+007   4.3587e+006   1.9338e+007    0.0000    0.1802    0.0129   -0.0000    0.1682
                0.0316  -4.8111e-003   8.5341e-004   4.1616e-003  -9.1795e+007   4.4521e+006   1.6438e+007    0.0000    0.1847    0.0132   -0.0000    0.1429
                0.0764  -4.9743e-003   8.8139e-004   3.0962e-003  -9.4910e+007   4.5845e+006   1.2230e+007    0.0000    0.1910    0.0136   -0.0000    0.1063
                0.1220  -5.0496e-003   8.9437e-004   1.9904e-003  -9.6348e+007   4.6466e+006   7.8621e+006    0.0000    0.1939    0.0138   -0.0000    0.0684
                0.1690  -5.0618e-003   8.9647e-004   8.4510e-004  -9.6582e+007   4.6567e+006   3.3381e+006    0.0000    0.1943    0.0138   -0.0000    0.0290
                0.2168  -5.0758e-003   8.9884e-004   3.1741e-004  -9.6849e+007   4.6674e+006   1.2538e+006    0.0000    0.1949    0.0138   -0.0000    0.0109
                0.2654  -4.9403e-003   8.7557e-004   1.4867e-003  -9.4261e+007   4.5569e+006   5.8725e+006    0.0000    0.1897    0.0135   -0.0000    0.0511
                0.3150  -4.7920e-003   8.5018e-004   2.6478e-003  -9.1430e+007   4.4376e+006   1.0459e+007    0.0000    0.1840    0.0132   -0.0000    0.0909
                0.3520  -4.6522e-003   8.2623e-004   3.4907e-003  -8.8760e+007   4.3248e+006   1.3788e+007    0.0000    0.1786    0.0128   -0.0000    0.1199

            panel:  3     
           lam_num    nPlies        tPly      fibAng     matID  matName
               (-)       (-)         (m)       (deg)       (-)  (-)
                 1         1    0.005726      0.0000         2  (blade-shell)
                 2         1    0.003997      0.0000         6  (TEP-core)
                 3         1    0.005726      0.0000         2  (blade-shell)

               lamina:  1     
              matName:  (blade-shell)
                     s           e11           e22           e12           s11           s22           s12   s11_fcT   s11_fcC   s22_fcT   s22_fcC   s12_fcS
                   (m)         (m/m)         (m/m)         (rad)          (Pa)          (Pa)          (Pa)       (-)       (-)       (-)       (-)       (-)
                0.0000  -6.1432e-003   8.0333e-004   8.9133e-004  -1.1794e+008   9.2078e+004   3.5207e+006    0.0000    0.2373    0.0003   -0.0000    0.0306
                0.0127  -6.0913e-003   7.9655e-004   9.8735e-004  -1.1694e+008   9.1282e+004   3.9000e+006    0.0000    0.2353    0.0003   -0.0000    0.0339
                0.0635  -5.8100e-003   7.5974e-004   1.3577e-003  -1.1154e+008   8.6690e+004   5.3628e+006    0.0000    0.2244    0.0003   -0.0000    0.0466
                0.1142  -5.5281e-003   7.2285e-004   1.7073e-003  -1.0613e+008   8.2104e+004   6.7436e+006    0.0000    0.2135    0.0002   -0.0000    0.0586
                0.1650  -5.1814e-003   6.7749e-004   2.0351e-003  -9.9472e+007   7.6478e+004   8.0387e+006    0.0000    0.2001    0.0002   -0.0000    0.0699
                0.2157  -4.8086e-003   6.2873e-004   2.3370e-003  -9.2317e+007   7.0393e+004   9.2312e+006    0.0000    0.1857    0.0002   -0.0000    0.0803
                0.2658  -4.4364e-003   5.8002e-004   2.6089e-003  -8.5170e+007   6.4335e+004   1.0305e+007    0.0000    0.1714    0.0002   -0.0000    0.0896
                0.3155  -4.0117e-003   5.2445e-004   2.8512e-003  -7.7016e+007   5.7419e+004   1.1262e+007    0.0000    0.1550    0.0002   -0.0000    0.0979
                0.3643  -3.5967e-003   4.7016e-004   3.0606e-003  -6.9049e+007   5.0630e+004   1.2089e+007    0.0000    0.1389    0.0002   -0.0000    0.1051
                0.4120  -3.1798e-003   4.1562e-004   3.2373e-003  -6.1047e+007   4.3824e+004   1.2787e+007    0.0000    0.1228    0.0001   -0.0000    0.1112
                0.4585  -2.7598e-003   3.6067e-004   3.3824e-003  -5.2984e+007   3.6957e+004   1.3360e+007    0.0000    0.1066    0.0001   -0.0000    0.1162
                0.5034  -2.3545e-003   3.0764e-004   3.4968e-003  -4.5202e+007   3.0318e+004   1.3812e+007    0.0000    0.0910    0.0001   -0.0000    0.1201
                0.5465  -1.9651e-003   2.5668e-004   3.5827e-003  -3.7726e+007   2.3939e+004   1.4152e+007    0.0000    0.0759    0.0001   -0.0000    0.1231
                0.5878  -1.5931e-003   2.0802e-004   3.6429e-003  -3.0586e+007   1.7845e+004   1.4389e+007    0.0000    0.0615    0.0001   -0.0000    0.1251
                0.6269  -1.2430e-003   1.6220e-004   3.6802e-003  -2.3863e+007   1.2094e+004   1.4537e+007    0.0000    0.0480    0.0000   -0.0000    0.1264
                0.6637  -9.2557e-004   1.2068e-004   3.6980e-003  -1.7770e+007   6.8826e+003   1.4607e+007    0.0000    0.0358    0.0000   -0.0000    0.1270
                0.6981  -6.2868e-004   8.1831e-005   3.6999e-003  -1.2070e+007   2.0090e+003   1.4615e+007    0.0000    0.0243    0.0000   -0.0000    0.1271
                0.7300  -3.6380e-004   4.7173e-005   3.6890e-003  -6.9852e+006  -2.6796e+003   1.4572e+007    0.0000    0.0141    0.0000    0.0000    0.1267
                0.7591   2.6760e-004  -3.5122e-005   3.6689e-003   5.1370e+006  -6.5354e+003   1.4492e+007    0.0152   -0.0000    0.0000    0.0000    0.1260
                0.7855   4.8072e-004  -6.3008e-005   3.6423e-003   9.2286e+006  -1.0031e+004   1.4387e+007    0.0274   -0.0000    0.0000    0.0000    0.1251
                0.8090   6.5869e-004  -8.6293e-005   3.6122e-003   1.2645e+007  -1.2951e+004   1.4268e+007    0.0375   -0.0000    0.0000    0.0000    0.1241
                0.8295   8.1288e-004  -1.0647e-004   3.5811e-003   1.5605e+007  -1.5477e+004   1.4146e+007    0.0463   -0.0000    0.0000    0.0000    0.1230
                0.8469   9.4397e-004  -1.2362e-004   3.5512e-003   1.8122e+007  -1.7625e+004   1.4027e+007    0.0538   -0.0000    0.0000    0.0001    0.1220
                0.8613   1.0509e-003  -1.3761e-004   3.5241e-003   2.0174e+007  -1.9377e+004   1.3920e+007    0.0599   -0.0000    0.0000    0.0001    0.1210
                0.8724   1.1340e-003  -1.4848e-004   3.5017e-003   2.1770e+007  -2.0729e+004   1.3832e+007    0.0646   -0.0000    0.0000    0.0001    0.1203
                0.8803   1.2039e-003  -1.5763e-004   3.4850e-003   2.3112e+007  -2.1853e+004   1.3766e+007    0.0686   -0.0000    0.0000    0.0001    0.1197
                0.8851   1.2507e-003  -1.6374e-004   3.4744e-003   2.4010e+007  -2.2607e+004   1.3724e+007    0.0712   -0.0000    0.0000    0.0001    0.1193
                0.8867   1.2664e-003  -1.6581e-004   3.4707e-003   2.4312e+007  -2.2865e+004   1.3709e+007    0.0721   -0.0000    0.0000    0.0001    0.1192

               lamina:  2     
              matName:  (TEP-core)
                     s           e11           e22           e12           s11           s22           s12   s11_fcT   s11_fcC   s22_fcT   s22_fcC   s12_fcS
                   (m)         (m/m)         (m/m)         (rad)          (Pa)          (Pa)          (Pa)       (-)       (-)       (-)       (-)       (-)
                0.0000  -5.7358e-003   7.5036e-004   8.9133e-004  -1.2934e+006  -2.6924e+005   8.7350e+004    0.0000    0.3015    0.0000    0.0628    0.0296
                0.0127  -5.6865e-003   7.4391e-004   9.8735e-004  -1.2823e+006  -2.6693e+005   9.6761e+004    0.0000    0.2989    0.0000    0.0622    0.0328
                0.0635  -5.4060e-003   7.0720e-004   1.3577e-003  -1.2190e+006  -2.5376e+005   1.3305e+005    0.0000    0.2841    0.0000    0.0592    0.0451
                0.1142  -5.1256e-003   6.7051e-004   1.7073e-003  -1.1558e+006  -2.4060e+005   1.6731e+005    0.0000    0.2694    0.0000    0.0561    0.0567
                0.1650  -4.7814e-003   6.2548e-004   2.0351e-003  -1.0782e+006  -2.2444e+005   1.9944e+005    0.0000    0.2513    0.0000    0.0523    0.0676
                0.2157  -4.4096e-003   5.7683e-004   2.3370e-003  -9.9432e+005  -2.0699e+005   2.2903e+005    0.0000    0.2318    0.0000    0.0482    0.0776
                0.2658  -4.0392e-003   5.2837e-004   2.6089e-003  -9.1080e+005  -1.8961e+005   2.5567e+005    0.0000    0.2123    0.0000    0.0442    0.0867
                0.3155  -3.6164e-003   4.7306e-004   2.8512e-003  -8.1547e+005  -1.6976e+005   2.7942e+005    0.0000    0.1901    0.0000    0.0396    0.0947
                0.3643  -3.2019e-003   4.1882e-004   3.0606e-003  -7.2199e+005  -1.5031e+005   2.9994e+005    0.0000    0.1683    0.0000    0.0350    0.1017
                0.4120  -2.7860e-003   3.6441e-004   3.2373e-003  -6.2823e+005  -1.3079e+005   3.1726e+005    0.0000    0.1464    0.0000    0.0305    0.1075
                0.4585  -2.3666e-003   3.0954e-004   3.3824e-003  -5.3365e+005  -1.1110e+005   3.3148e+005    0.0000    0.1244    0.0000    0.0259    0.1124
                0.5034  -1.9613e-003   2.5650e-004   3.4968e-003  -4.4226e+005  -9.2079e+004   3.4268e+005    0.0000    0.1031    0.0000    0.0215    0.1162
                0.5465  -1.5719e-003   2.0555e-004   3.5827e-003  -3.5445e+005  -7.3802e+004   3.5110e+005    0.0000    0.0826    0.0000    0.0172    0.1190
                0.5878  -1.1998e-003   1.5687e-004   3.6429e-003  -2.7055e+005  -5.6340e+004   3.5700e+005    0.0000    0.0631    0.0000    0.0131    0.1210
                0.6269  -8.4895e-004   1.1097e-004   3.6802e-003  -1.9144e+005  -3.9871e+004   3.6066e+005    0.0000    0.0446    0.0000    0.0093    0.1223
                0.6637  -5.3093e-004   6.9357e-005   3.6980e-003  -1.1973e+005  -2.4945e+004   3.6241e+005    0.0000    0.0279    0.0000    0.0058    0.1229
                0.6981  -2.3353e-004   3.0445e-005   3.6999e-003  -5.2668e+004  -1.0987e+004   3.6259e+005    0.0000    0.0123    0.0000    0.0026    0.1229
                0.7300   3.0885e-004  -4.0299e-005   3.6890e-003   6.9650e+004   1.4522e+004   3.6153e+005    0.0162   -0.0000    0.0034   -0.0000    0.1226
                0.7591   5.4444e-004  -7.1124e-005   3.6689e-003   1.2277e+005   2.5579e+004   3.5955e+005    0.0286   -0.0000    0.0060   -0.0000    0.1219
                0.7855   7.5811e-004  -9.9080e-005   3.6423e-003   1.7095e+005   3.5608e+004   3.5694e+005    0.0398   -0.0000    0.0083   -0.0000    0.1210
                0.8090   9.3674e-004  -1.2245e-004   3.6122e-003   2.1123e+005   4.3992e+004   3.5399e+005    0.0492   -0.0000    0.0103   -0.0000    0.1200
                0.8295   1.0910e-003  -1.4264e-004   3.5811e-003   2.4602e+005   5.1233e+004   3.5095e+005    0.0573   -0.0000    0.0119   -0.0000    0.1190
                0.8469   1.2222e-003  -1.5980e-004   3.5512e-003   2.7560e+005   5.7391e+004   3.4801e+005    0.0642   -0.0000    0.0134   -0.0000    0.1180
                0.8613   1.3292e-003  -1.7380e-004   3.5241e-003   2.9973e+005   6.2412e+004   3.4536e+005    0.0699   -0.0000    0.0145   -0.0000    0.1171
                0.8724   1.4111e-003  -1.8452e-004   3.5017e-003   3.1820e+005   6.6257e+004   3.4316e+005    0.0742   -0.0000    0.0154   -0.0000    0.1163
                0.8803   1.4783e-003  -1.9331e-004   3.4850e-003   3.3335e+005   6.9411e+004   3.4153e+005    0.0777   -0.0000    0.0162   -0.0000    0.1158
                0.8851   1.5235e-003  -1.9923e-004   3.4744e-003   3.4355e+005   7.1533e+004   3.4049e+005    0.0801   -0.0000    0.0167   -0.0000    0.1154
                0.8867   1.5393e-003  -2.0129e-004   3.4707e-003   3.4711e+005   7.2274e+004   3.4013e+005    0.0809   -0.0000    0.0168   -0.0000    0.1153

               lamina:  3     
              matName:  (blade-shell)
                     s           e11           e22           e12           s11           s22           s12   s11_fcT   s11_fcC   s22_fcT   s22_fcC   s12_fcS
                   (m)         (m/m)         (m/m)         (rad)          (Pa)          (Pa)          (Pa)       (-)       (-)       (-)       (-)       (-)
                0.0000  -5.4515e-003   7.1339e-004   8.9133e-004  -1.0466e+008   9.1504e+004   3.5207e+006    0.0000    0.2106    0.0003   -0.0000    0.0306
                0.0127  -5.4040e-003   7.0717e-004   9.8735e-004  -1.0375e+008   9.0712e+004   3.9000e+006    0.0000    0.2087    0.0003   -0.0000    0.0339
                0.0635  -5.1240e-003   6.7053e-004   1.3577e-003  -9.8369e+007   8.6121e+004   5.3628e+006    0.0000    0.1979    0.0003   -0.0000    0.0466
                0.1142  -4.8447e-003   6.3398e-004   1.7073e-003  -9.3007e+007   8.1537e+004   6.7436e+006    0.0000    0.1871    0.0002   -0.0000    0.0586
                0.1650  -4.5022e-003   5.8917e-004   2.0351e-003  -8.6432e+007   7.5914e+004   8.0387e+006    0.0000    0.1739    0.0002   -0.0000    0.0699
                0.2157  -4.1311e-003   5.4062e-004   2.3370e-003  -7.9308e+007   6.9830e+004   9.2312e+006    0.0000    0.1596    0.0002   -0.0000    0.0803
                0.2658  -3.7620e-003   4.9233e-004   2.6089e-003  -7.2222e+007   6.3775e+004   1.0305e+007    0.0000    0.1453    0.0002   -0.0000    0.0896
                0.3155  -3.3406e-003   4.3719e-004   2.8512e-003  -6.4132e+007   5.6862e+004   1.1262e+007    0.0000    0.1290    0.0002   -0.0000    0.0979
                0.3643  -2.9263e-003   3.8298e-004   3.0606e-003  -5.6178e+007   5.0074e+004   1.2089e+007    0.0000    0.1130    0.0001   -0.0000    0.1051
                0.4120  -2.5112e-003   3.2867e-004   3.2373e-003  -4.8209e+007   4.3269e+004   1.2787e+007    0.0000    0.0970    0.0001   -0.0000    0.1112
                0.4585  -2.0922e-003   2.7385e-004   3.3824e-003  -4.0165e+007   3.6402e+004   1.3360e+007    0.0000    0.0808    0.0001   -0.0000    0.1162
                0.5034  -1.6869e-003   2.2081e-004   3.4968e-003  -3.2384e+007   2.9763e+004   1.3812e+007    0.0000    0.0652    0.0001   -0.0000    0.1201
                0.5465  -1.2974e-003   1.6986e-004   3.5827e-003  -2.4908e+007   2.3385e+004   1.4152e+007    0.0000    0.0501    0.0001   -0.0000    0.1231
                0.5878  -9.2531e-004   1.2118e-004   3.6429e-003  -1.7764e+007   1.7290e+004   1.4389e+007    0.0000    0.0357    0.0001   -0.0000    0.1251
                0.6269  -5.7394e-004   7.5203e-005   3.6802e-003  -1.1018e+007   1.1539e+004   1.4537e+007    0.0000    0.0222    0.0000   -0.0000    0.1264
                0.6637  -2.5549e-004   3.3538e-005   3.6980e-003  -4.9046e+006   6.3263e+003   1.4607e+007    0.0000    0.0099    0.0000   -0.0000    0.1270
                0.6981   4.3741e-004  -5.6805e-005   3.6999e-003   8.3984e+006   1.4520e+003   1.4615e+007    0.0249   -0.0000    0.0000   -0.0000    0.1271
                0.7300   7.0500e-004  -9.1815e-005   3.6890e-003   1.3536e+007  -3.2380e+003   1.4572e+007    0.0402   -0.0000    0.0000    0.0000    0.1267
                0.7591   9.4108e-004  -1.2270e-004   3.6689e-003   1.8068e+007  -7.0946e+003   1.4492e+007    0.0536   -0.0000    0.0000    0.0000    0.1260
                0.7855   1.1555e-003  -1.5076e-004   3.6423e-003   2.2185e+007  -1.0591e+004   1.4387e+007    0.0658   -0.0000    0.0000    0.0000    0.1251
                0.8090   1.3351e-003  -1.7426e-004   3.6122e-003   2.5632e+007  -1.3512e+004   1.4268e+007    0.0761   -0.0000    0.0000    0.0000    0.1241
                0.8295   1.4895e-003  -1.9446e-004   3.5811e-003   2.8597e+007  -1.6039e+004   1.4146e+007    0.0849   -0.0000    0.0000    0.0000    0.1230
                0.8469   1.6209e-003  -2.1164e-004   3.5512e-003   3.1118e+007  -1.8187e+004   1.4027e+007    0.0923   -0.0000    0.0000    0.0001    0.1220
                0.8613   1.7280e-003  -2.2566e-004   3.5241e-003   3.3174e+007  -1.9939e+004   1.3920e+007    0.0984   -0.0000    0.0000    0.0001    0.1210
                0.8724   1.8081e-003  -2.3615e-004   3.5017e-003   3.4714e+007  -2.1289e+004   1.3832e+007    0.1030   -0.0000    0.0000    0.0001    0.1203
                0.8803   1.8715e-003  -2.4444e-004   3.4850e-003   3.5930e+007  -2.2407e+004   1.3766e+007    0.1066   -0.0000    0.0000    0.0001    0.1197
                0.8851   1.9145e-003  -2.5008e-004   3.4744e-003   3.6756e+007  -2.3158e+004   1.3724e+007    0.1091   -0.0000    0.0000    0.0001    0.1193
                0.8867   1.9303e-003  -2.5214e-004   3.4707e-003   3.7059e+007  -2.3416e+004   1.3709e+007    0.1100   -0.0000    0.0000    0.0001    0.1192

  Bottom:  panel  nNode   nLam     xc_St    xc_End         b         t         E_eff         G_eff      nu_eff     density  buckleCrit
            (-)    (-)    (-)       (-)       (-)       (m)       (m)          (Pa)          (Pa)         (-)    (kg/m^3)         (-)
              1     18      3    0.0000    0.2395    0.4281    0.0117   1.8765e+010   3.8618e+009      0.1301   1636.3366      0.0784
              2      9      5    0.2395    0.4605    0.3522    0.0195   6.1737e+010   4.2519e+009      0.1709   1584.5772      0.0010
              3     28      3    0.4605    1.0000    0.8788    0.0154   1.4290e+010   2.9535e+009      0.1308   1289.7110      0.1326

            panel:  1     
           lam_num    nPlies        tPly      fibAng     matID  matName
               (-)       (-)         (m)       (deg)       (-)  (-)
                 1         1    0.005726      0.0000         2  (blade-shell)
                 2         1    0.000268      0.0000         5  (LEP-core)
                 3         1    0.005726      0.0000         2  (blade-shell)

               lamina:  1     
              matName:  (blade-shell)
                     s           e11           e22           e12           s11           s22           s12   s11_fcT   s11_fcC   s22_fcT   s22_fcC   s12_fcS
                   (m)         (m/m)         (m/m)         (rad)          (Pa)          (Pa)          (Pa)       (-)       (-)       (-)       (-)       (-)
                0.0000   5.9843e-004  -7.7820e-005   6.3657e-003   1.1490e+007  -4.6633e+002   2.5145e+007    0.0341   -0.0000    0.0000    0.0000    0.2186
                0.0047   7.3758e-004  -9.5917e-005   6.3638e-003   1.4161e+007  -6.1999e+002   2.5137e+007    0.0420   -0.0000    0.0000    0.0000    0.2186
                0.0183   1.1750e-003  -1.5280e-004   6.3531e-003   2.2560e+007  -1.0687e+003   2.5095e+007    0.0669   -0.0000    0.0000    0.0000    0.2182
                0.0350   1.7484e-003  -2.2737e-004   6.3298e-003   3.3569e+007  -1.5966e+003   2.5003e+007    0.0996   -0.0000    0.0000    0.0000    0.2174
                0.0495   2.1497e-003  -2.7957e-004   6.3015e-003   4.1275e+007  -1.9584e+003   2.4891e+007    0.1225   -0.0000    0.0000    0.0000    0.2164
                0.0689   2.6239e-003  -3.4124e-004   6.2537e-003   5.0379e+007  -2.4435e+003   2.4702e+007    0.1495   -0.0000    0.0000    0.0000    0.2148
                0.0888   3.0298e-003  -3.9401e-004   6.1935e-003   5.8171e+007  -2.8454e+003   2.4464e+007    0.1726   -0.0000    0.0000    0.0000    0.2127
                0.1116   3.4164e-003  -4.4431e-004   6.1126e-003   6.5595e+007  -3.2586e+003   2.4145e+007    0.1946   -0.0000    0.0000    0.0000    0.2100
                0.1373   3.8469e-003  -5.0028e-004   6.0079e-003   7.3860e+007  -3.7099e+003   2.3731e+007    0.2192   -0.0000    0.0000    0.0000    0.2064
                0.1642   4.1762e-003  -5.4311e-004   5.8847e-003   8.0182e+007  -4.0559e+003   2.3244e+007    0.2379   -0.0000    0.0000    0.0000    0.2021
                0.1943   4.5318e-003  -5.8936e-004   5.7333e-003   8.7009e+007  -4.4425e+003   2.2646e+007    0.2582   -0.0000    0.0000    0.0000    0.1969
                0.2262   4.8619e-003  -6.3230e-004   5.5572e-003   9.3349e+007  -4.7962e+003   2.1951e+007    0.2770   -0.0000    0.0000    0.0000    0.1909
                0.2603   5.1448e-003  -6.6908e-004   5.3552e-003   9.8779e+007  -5.1037e+003   2.1153e+007    0.2931   -0.0000    0.0000    0.0000    0.1839
                0.2967   5.4475e-003  -7.0845e-004   5.1248e-003   1.0459e+008  -5.4323e+003   2.0243e+007    0.3104   -0.0000    0.0000    0.0000    0.1760
                0.3346   5.6713e-003  -7.3756e-004   4.8706e-003   1.0889e+008  -5.6740e+003   1.9239e+007    0.3231   -0.0000    0.0000    0.0000    0.1673
                0.3747   5.8860e-003  -7.6548e-004   4.5898e-003   1.1301e+008  -5.9095e+003   1.8130e+007    0.3353   -0.0000    0.0000    0.0000    0.1576
                0.4165   6.0864e-003  -7.9155e-004   4.2846e-003   1.1686e+008  -6.1287e+003   1.6924e+007    0.3468   -0.0000    0.0000    0.0000    0.1472
                0.4281   6.1197e-003  -7.9588e-004   4.1978e-003   1.1750e+008  -6.1620e+003   1.6581e+007    0.3487   -0.0000    0.0000    0.0000    0.1442

               lamina:  2     
              matName:  (LEP-core)
                     s           e11           e22           e12           s11           s22           s12   s11_fcT   s11_fcC   s22_fcT   s22_fcC   s12_fcS
                   (m)         (m/m)         (m/m)         (rad)          (Pa)          (Pa)          (Pa)       (-)       (-)       (-)       (-)       (-)
                0.0000   4.2622e-004  -5.5432e-005   6.3657e-003   9.6133e+004   2.0083e+004   6.2384e+005    0.0224   -0.0000    0.0047   -0.0000    0.2115
                0.0047   5.6536e-004  -7.3529e-005   6.3638e-003   1.2752e+005   2.6640e+004   6.2365e+005    0.0297   -0.0000    0.0062   -0.0000    0.2114
                0.0183   9.7233e-004  -1.2646e-004   6.3531e-003   2.1931e+005   4.5816e+004   6.2260e+005    0.0511   -0.0000    0.0107   -0.0000    0.2111
                0.0350   1.4525e-003  -1.8891e-004   6.3298e-003   3.2762e+005   6.8442e+004   6.2032e+005    0.0764   -0.0000    0.0160   -0.0000    0.2103
                0.0495   1.7818e-003  -2.3174e-004   6.3015e-003   4.0189e+005   8.3959e+004   6.1755e+005    0.0937   -0.0000    0.0196   -0.0000    0.2093
                0.0689   2.2219e-003  -2.8897e-004   6.2537e-003   5.0115e+005   1.0469e+005   6.1287e+005    0.1168   -0.0000    0.0244   -0.0000    0.2078
                0.0888   2.5867e-003  -3.3642e-004   6.1935e-003   5.8343e+005   1.2188e+005   6.0696e+005    0.1360   -0.0000    0.0284   -0.0000    0.2057
                0.1116   2.9611e-003  -3.8511e-004   6.1126e-003   6.6788e+005   1.3953e+005   5.9904e+005    0.1557   -0.0000    0.0325   -0.0000    0.2031
                0.1373   3.3703e-003  -4.3833e-004   6.0079e-003   7.6018e+005   1.5881e+005   5.8878e+005    0.1772   -0.0000    0.0370   -0.0000    0.1996
                0.1642   3.6840e-003  -4.7913e-004   5.8847e-003   8.3092e+005   1.7359e+005   5.7670e+005    0.1937   -0.0000    0.0405   -0.0000    0.1955
                0.1943   4.0342e-003  -5.2467e-004   5.7333e-003   9.0991e+005   1.9009e+005   5.6186e+005    0.2121   -0.0000    0.0443   -0.0000    0.1905
                0.2262   4.3547e-003  -5.6635e-004   5.5572e-003   9.8220e+005   2.0519e+005   5.4461e+005    0.2290   -0.0000    0.0478   -0.0000    0.1846
                0.2603   4.6332e-003  -6.0258e-004   5.3552e-003   1.0450e+006   2.1831e+005   5.2481e+005    0.2436   -0.0000    0.0509   -0.0000    0.1779
                0.2967   4.9309e-003  -6.4129e-004   5.1248e-003   1.1122e+006   2.3234e+005   5.0223e+005    0.2592   -0.0000    0.0542   -0.0000    0.1702
                0.3346   5.1499e-003  -6.6977e-004   4.8706e-003   1.1616e+006   2.4266e+005   4.7731e+005    0.2708   -0.0000    0.0566   -0.0000    0.1618
                0.3747   5.3631e-003  -6.9751e-004   4.5898e-003   1.2096e+006   2.5271e+005   4.4980e+005    0.2820   -0.0000    0.0589   -0.0000    0.1525
                0.4165   5.5617e-003  -7.2333e-004   4.2846e-003   1.2544e+006   2.6206e+005   4.1989e+005    0.2924   -0.0000    0.0611   -0.0000    0.1423
                0.4281   5.5919e-003  -7.2726e-004   4.1978e-003   1.2613e+006   2.6349e+005   4.1138e+005    0.2940   -0.0000    0.0614   -0.0000    0.1395

               lamina:  3     
              matName:  (blade-shell)
                     s           e11           e22           e12           s11           s22           s12   s11_fcT   s11_fcC   s22_fcT   s22_fcC   s12_fcS
                   (m)         (m/m)         (m/m)         (rad)          (Pa)          (Pa)          (Pa)       (-)       (-)       (-)       (-)       (-)
                0.0000   4.1814e-004  -5.4383e-005   6.3657e-003   8.0283e+006  -4.6623e+002   2.5145e+007    0.0238   -0.0000    0.0000    0.0000    0.2186
                0.0047   5.5729e-004  -7.2479e-005   6.3638e-003   1.0700e+007  -6.1989e+002   2.5137e+007    0.0318   -0.0000    0.0000    0.0000    0.2186
                0.0183   9.6283e-004  -1.2522e-004   6.3531e-003   1.8486e+007  -1.0685e+003   2.5095e+007    0.0549   -0.0000    0.0000    0.0000    0.2182
                0.0350   1.4387e-003  -1.8711e-004   6.3298e-003   2.7622e+007  -1.5964e+003   2.5003e+007    0.0820   -0.0000    0.0000    0.0000    0.2174
                0.0495   1.7646e-003  -2.2950e-004   6.3015e-003   3.3880e+007  -1.9582e+003   2.4891e+007    0.1005   -0.0000    0.0000    0.0000    0.2164
                0.0689   2.2030e-003  -2.8652e-004   6.2537e-003   4.2298e+007  -2.4433e+003   2.4702e+007    0.1255   -0.0000    0.0000    0.0000    0.2148
                0.0888   2.5659e-003  -3.3372e-004   6.1935e-003   4.9265e+007  -2.8451e+003   2.4464e+007    0.1462   -0.0000    0.0000    0.0000    0.2127
                0.1116   2.9398e-003  -3.8234e-004   6.1126e-003   5.6443e+007  -3.2583e+003   2.4145e+007    0.1675   -0.0000    0.0000    0.0000    0.2100
                0.1373   3.3480e-003  -4.3543e-004   6.0079e-003   6.4281e+007  -3.7096e+003   2.3731e+007    0.1907   -0.0000    0.0000    0.0000    0.2064
                0.1642   3.6609e-003  -4.7613e-004   5.8847e-003   7.0289e+007  -4.0556e+003   2.3244e+007    0.2086   -0.0000    0.0000    0.0000    0.2021
                0.1943   4.0109e-003  -5.2164e-004   5.7333e-003   7.7008e+007  -4.4422e+003   2.2646e+007    0.2285   -0.0000    0.0000    0.0000    0.1969
                0.2262   4.3309e-003  -5.6326e-004   5.5572e-003   8.3153e+007  -4.7959e+003   2.1951e+007    0.2467   -0.0000    0.0000    0.0000    0.1909
                0.2603   4.6092e-003  -5.9946e-004   5.3552e-003   8.8496e+007  -5.1034e+003   2.1153e+007    0.2626   -0.0000    0.0000    0.0000    0.1839
                0.2967   4.9066e-003  -6.3814e-004   5.1248e-003   9.4207e+007  -5.4320e+003   2.0243e+007    0.2795   -0.0000    0.0000    0.0000    0.1760
                0.3346   5.1254e-003  -6.6660e-004   4.8706e-003   9.8408e+007  -5.6737e+003   1.9239e+007    0.2920   -0.0000    0.0000    0.0000    0.1673
                0.3747   5.3386e-003  -6.9432e-004   4.5898e-003   1.0250e+008  -5.9092e+003   1.8130e+007    0.3042   -0.0000    0.0000    0.0000    0.1576
                0.4165   5.5371e-003  -7.2013e-004   4.2846e-003   1.0631e+008  -6.1284e+003   1.6924e+007    0.3155   -0.0000    0.0000    0.0000    0.1472
                0.4281   5.5672e-003  -7.2405e-004   4.1978e-003   1.0689e+008  -6.1617e+003   1.6581e+007    0.3172   -0.0000    0.0000    0.0000    0.1442

            panel:  2     
           lam_num    nPlies        tPly      fibAng     matID  matName
               (-)       (-)         (m)       (deg)       (-)  (-)
                 1         1    0.005726      0.0000         2  (blade-shell)
                 2         1    0.003986      0.0000         3  (spar-uni)
                 3         1    0.000047      0.0000         4  (spar-core)
                 4         1    0.003986      0.0000         3  (spar-uni)
                 5         1    0.005726      0.0000         2  (blade-shell)

               lamina:  1     
              matName:  (blade-shell)
                     s           e11           e22           e12           s11           s22           s12   s11_fcT   s11_fcC   s22_fcT   s22_fcC   s12_fcS
                   (m)         (m/m)         (m/m)         (rad)          (Pa)          (Pa)          (Pa)       (-)       (-)       (-)       (-)       (-)
                0.0000   7.5993e-003  -1.2231e-003   4.9272e-003   1.4531e+008  -4.5930e+006   1.9462e+007    0.4312   -0.0000    0.0000    0.0136    0.1692
                0.0314   7.6815e-003  -1.2371e-003   4.2343e-003   1.4688e+008  -4.6587e+006   1.6725e+007    0.4358   -0.0000    0.0000    0.0138    0.1454
                0.0759   7.8023e-003  -1.2576e-003   3.2300e-003   1.4919e+008  -4.7524e+006   1.2759e+007    0.4427   -0.0000    0.0000    0.0141    0.1109
                0.1216   7.8484e-003  -1.2654e-003   2.1847e-003   1.5007e+008  -4.7870e+006   8.6296e+006    0.4453   -0.0000    0.0000    0.0142    0.0750
                0.1686   7.8357e-003  -1.2632e-003   1.1013e-003   1.4982e+008  -4.7769e+006   4.3501e+006    0.4446   -0.0000    0.0000    0.0142    0.0378
                0.2164   7.8204e-003  -1.2607e-003   7.0851e-007   1.4953e+008  -4.7665e+006   2.7986e+003    0.4437   -0.0000    0.0000    0.0141    0.0000
                0.2653   7.6691e-003  -1.2351e-003   1.1110e-003   1.4664e+008  -4.6505e+006   4.3883e+006    0.4351   -0.0000    0.0000    0.0138    0.0382
                0.3150   7.5126e-003  -1.2084e-003   2.2167e-003   1.4365e+008  -4.5271e+006   8.7560e+006    0.4263   -0.0000    0.0000    0.0134    0.0761
                0.3522   7.3708e-003  -1.1843e-003   3.0221e-003   1.4095e+008  -4.4157e+006   1.1937e+007    0.4182   -0.0000    0.0000    0.0131    0.1038

               lamina:  2     
              matName:  (spar-uni)
                     s           e11           e22           e12           s11           s22           s12   s11_fcT   s11_fcC   s22_fcT   s22_fcC   s12_fcS
                   (m)         (m/m)         (m/m)         (rad)          (Pa)          (Pa)          (Pa)       (-)       (-)       (-)       (-)       (-)
                0.0000   6.3397e-003  -1.0524e-003   4.9272e-003   7.8212e+008   7.5344e+006   2.3207e+007    0.3952   -0.0000    0.1258   -0.0000    0.2253
                0.0314   6.4218e-003  -1.0664e-003   4.2343e-003   7.9225e+008   7.6287e+006   1.9943e+007    0.4003   -0.0000    0.1274   -0.0000    0.1936
                0.0759   6.5403e-003  -1.0866e-003   3.2300e-003   8.0686e+008   7.7651e+006   1.5213e+007    0.4077   -0.0000    0.1296   -0.0000    0.1477
                0.1216   6.5844e-003  -1.0941e-003   2.1847e-003   8.1231e+008   7.8162e+006   1.0290e+007    0.4105   -0.0000    0.1305   -0.0000    0.0999
                0.1686   6.5718e-003  -1.0919e-003   1.1013e-003   8.1075e+008   7.8016e+006   5.1871e+006    0.4097   -0.0000    0.1302   -0.0000    0.0504
                0.2164   6.5581e-003  -1.0896e-003   7.0851e-007   8.0906e+008   7.7856e+006   3.3371e+003    0.4088   -0.0000    0.1300   -0.0000    0.0000
                0.2653   6.4109e-003  -1.0646e-003   1.1110e-003   7.9090e+008   7.6158e+006   5.2327e+006    0.3996   -0.0000    0.1271   -0.0000    0.0508
                0.3150   6.2558e-003  -1.0381e-003   2.2167e-003   7.7177e+008   7.4375e+006   1.0441e+007    0.3900   -0.0000    0.1242   -0.0000    0.1014
                0.3522   6.1157e-003  -1.0142e-003   3.0221e-003   7.5448e+008   7.2763e+006   1.4234e+007    0.3812   -0.0000    0.1215   -0.0000    0.1382

               lamina:  3     
              matName:  (spar-core)
                     s           e11           e22           e12           s11           s22           s12   s11_fcT   s11_fcC   s22_fcT   s22_fcC   s12_fcS
                   (m)         (m/m)         (m/m)         (rad)          (Pa)          (Pa)          (Pa)       (-)       (-)       (-)       (-)       (-)
                0.0000   5.4629e-003  -9.3352e-004   4.9272e-003   1.2148e+006   2.0484e+005   4.8286e+005    0.2832   -0.0000    0.0477   -0.0000    0.1637
                0.0314   5.5450e-003  -9.4756e-004   4.2343e-003   1.2331e+006   2.0792e+005   4.1496e+005    0.2874   -0.0000    0.0485   -0.0000    0.1407
                0.0759   5.6618e-003  -9.6752e-004   3.2300e-003   1.2590e+006   2.1230e+005   3.1654e+005    0.2935   -0.0000    0.0495   -0.0000    0.1073
                0.1216   5.7046e-003  -9.7484e-004   2.1847e-003   1.2686e+006   2.1391e+005   2.1410e+005    0.2957   -0.0000    0.0499   -0.0000    0.0726
                0.1686   5.6919e-003  -9.7267e-004   1.1013e-003   1.2657e+006   2.1343e+005   1.0793e+005    0.2950   -0.0000    0.0498   -0.0000    0.0366
                0.2164   5.6794e-003  -9.7053e-004   7.0851e-007   1.2629e+006   2.1296e+005   6.9434e+001    0.2944   -0.0000    0.0496   -0.0000    0.0000
                0.2653   5.5351e-003  -9.4586e-004   1.1110e-003   1.2309e+006   2.0755e+005   1.0888e+005    0.2869   -0.0000    0.0484   -0.0000    0.0369
                0.3150   5.3810e-003  -9.1953e-004   2.2167e-003   1.1966e+006   2.0178e+005   2.1724e+005    0.2789   -0.0000    0.0470   -0.0000    0.0736
                0.3522   5.2420e-003  -8.9578e-004   3.0221e-003   1.1657e+006   1.9656e+005   2.9616e+005    0.2717   -0.0000    0.0458   -0.0000    0.1004

               lamina:  4     
              matName:  (spar-uni)
                     s           e11           e22           e12           s11           s22           s12   s11_fcT   s11_fcC   s22_fcT   s22_fcC   s12_fcS
                   (m)         (m/m)         (m/m)         (rad)          (Pa)          (Pa)          (Pa)       (-)       (-)       (-)       (-)       (-)
                0.0000   5.4526e-003  -9.3213e-004   4.9272e-003   6.7260e+008   6.2571e+006   2.3207e+007    0.3399   -0.0000    0.1045   -0.0000    0.2253
                0.0314   5.5347e-003  -9.4616e-004   4.2343e-003   6.8274e+008   6.3513e+006   1.9943e+007    0.3450   -0.0000    0.1060   -0.0000    0.1936
                0.0759   5.6515e-003  -9.6612e-004   3.2300e-003   6.9714e+008   6.4854e+006   1.5213e+007    0.3523   -0.0000    0.1083   -0.0000    0.1477
                0.1216   5.6943e-003  -9.7344e-004   2.1847e-003   7.0242e+008   6.5345e+006   1.0290e+007    0.3549   -0.0000    0.1091   -0.0000    0.0999
                0.1686   5.6816e-003  -9.7127e-004   1.1013e-003   7.0086e+008   6.5199e+006   5.1871e+006    0.3541   -0.0000    0.1088   -0.0000    0.0504
                0.2164   5.6690e-003  -9.6913e-004   7.0851e-007   6.9931e+008   6.5055e+006   3.3371e+003    0.3534   -0.0000    0.1086   -0.0000    0.0000
                0.2653   5.5248e-003  -9.4447e-004   1.1110e-003   6.8151e+008   6.3399e+006   5.2327e+006    0.3444   -0.0000    0.1058   -0.0000    0.0508
                0.3150   5.3707e-003  -9.1814e-004   2.2167e-003   6.6251e+008   6.1631e+006   1.0441e+007    0.3348   -0.0000    0.1029   -0.0000    0.1014
                0.3522   5.2317e-003  -8.9438e-004   3.0221e-003   6.4537e+008   6.0036e+006   1.4234e+007    0.3261   -0.0000    0.1002   -0.0000    0.1382

               lamina:  5     
              matName:  (blade-shell)
                     s           e11           e22           e12           s11           s22           s12   s11_fcT   s11_fcC   s22_fcT   s22_fcC   s12_fcS
                   (m)         (m/m)         (m/m)         (rad)          (Pa)          (Pa)          (Pa)       (-)       (-)       (-)       (-)       (-)
                0.0000   4.5757e-003  -8.1328e-004   4.9272e-003   8.7299e+007  -4.2661e+006   1.9462e+007    0.2590   -0.0000    0.0000    0.0127    0.1692
                0.0314   4.6579e-003  -8.2732e-004   4.2343e-003   8.8868e+007  -4.3318e+006   1.6725e+007    0.2637   -0.0000    0.0000    0.0129    0.1454
                0.0759   4.7730e-003  -8.4706e-004   3.2300e-003   9.1066e+007  -4.4249e+006   1.2759e+007    0.2702   -0.0000    0.0000    0.0131    0.1109
                0.1216   4.8145e-003  -8.5419e-004   2.1847e-003   9.1858e+007  -4.4590e+006   8.6296e+006    0.2726   -0.0000    0.0000    0.0132    0.0750
                0.1686   4.8018e-003  -8.5202e-004   1.1013e-003   9.1615e+007  -4.4488e+006   4.3501e+006    0.2719   -0.0000    0.0000    0.0132    0.0378
                0.2164   4.7903e-003  -8.5003e-004   7.0851e-007   9.1398e+007  -4.4389e+006   2.7986e+003    0.2712   -0.0000    0.0000    0.0132    0.0000
                0.2653   4.6490e-003  -8.2576e-004   1.1110e-003   8.8698e+007  -4.3239e+006   4.3883e+006    0.2632   -0.0000    0.0000    0.0128    0.0382
                0.3150   4.4959e-003  -7.9957e-004   2.2167e-003   8.5775e+007  -4.2009e+006   8.7560e+006    0.2545   -0.0000    0.0000    0.0125    0.0761
                0.3522   4.3581e-003  -7.7597e-004   3.0221e-003   8.3143e+007  -4.0900e+006   1.1937e+007    0.2467   -0.0000    0.0000    0.0121    0.1038

            panel:  3     
           lam_num    nPlies        tPly      fibAng     matID  matName
               (-)       (-)         (m)       (deg)       (-)  (-)
                 1         1    0.005726      0.0000         2  (blade-shell)
                 2         1    0.003997      0.0000         6  (TEP-core)
                 3         1    0.005726      0.0000         2  (blade-shell)

               lamina:  1     
              matName:  (blade-shell)
                     s           e11           e22           e12           s11           s22           s12   s11_fcT   s11_fcC   s22_fcT   s22_fcC   s12_fcS
                   (m)         (m/m)         (m/m)         (rad)          (Pa)          (Pa)          (Pa)       (-)       (-)       (-)       (-)       (-)
                0.0000   5.8495e-003  -7.6491e-004   2.0647e-005   1.1230e+008  -8.7266e+004   8.1555e+004    0.3332   -0.0000    0.0000    0.0003    0.0007
                0.0129   5.7990e-003  -7.5830e-004   1.1304e-004   1.1133e+008  -8.6479e+004   4.4652e+005    0.3304   -0.0000    0.0000    0.0003    0.0039
                0.0637   5.5383e-003  -7.2418e-004   4.6879e-004   1.0632e+008  -8.2220e+004   1.8517e+006    0.3155   -0.0000    0.0000    0.0002    0.0161
                0.1146   5.2772e-003  -6.9003e-004   8.0734e-004   1.0131e+008  -7.7964e+004   3.1890e+006    0.3006   -0.0000    0.0000    0.0002    0.0277
                0.1655   4.9732e-003  -6.5025e-004   1.1276e-003   9.5475e+007  -7.3015e+004   4.4538e+006    0.2833   -0.0000    0.0000    0.0002    0.0387
                0.2162   4.6521e-003  -6.0825e-004   1.4262e-003   8.9312e+007  -6.7767e+004   5.6336e+006    0.2650   -0.0000    0.0000    0.0002    0.0490
                0.2663   4.3334e-003  -5.6655e-004   1.7006e-003   8.3193e+007  -6.2561e+004   6.7173e+006    0.2469   -0.0000    0.0000    0.0002    0.0584
                0.3157   3.9951e-003  -5.2228e-004   1.9504e-003   7.6698e+007  -5.7034e+004   7.7043e+006    0.2276   -0.0000    0.0000    0.0002    0.0670
                0.3643   3.6642e-003  -4.7899e-004   2.1745e-003   7.0345e+007  -5.1611e+004   8.5892e+006    0.2087   -0.0000    0.0000    0.0002    0.0747
                0.4116   3.3455e-003  -4.3730e-004   2.3729e-003   6.4228e+007  -4.6386e+004   9.3729e+006    0.1906   -0.0000    0.0000    0.0001    0.0815
                0.4575   3.0415e-003  -3.9752e-004   2.5467e-003   5.8392e+007  -4.1404e+004   1.0059e+007    0.1733   -0.0000    0.0000    0.0001    0.0875
                0.5019   2.7484e-003  -3.5917e-004   2.6976e-003   5.2765e+007  -3.6584e+004   1.0655e+007    0.1566   -0.0000    0.0000    0.0001    0.0927
                0.5444   2.4957e-003  -3.2610e-004   2.8269e-003   4.7913e+007  -3.2423e+004   1.1166e+007    0.1422   -0.0000    0.0000    0.0001    0.0971
                0.5849   2.2614e-003  -2.9544e-004   2.9373e-003   4.3414e+007  -2.8574e+004   1.1602e+007    0.1288   -0.0000    0.0000    0.0001    0.1009
                0.6234   2.0475e-003  -2.6745e-004   3.0310e-003   3.9308e+007  -2.5041e+004   1.1973e+007    0.1166   -0.0000    0.0000    0.0001    0.1041
                0.6595   1.8862e-003  -2.4635e-004   3.1101e-003   3.6212e+007  -2.2376e+004   1.2285e+007    0.1075   -0.0000    0.0000    0.0001    0.1068
                0.6932   1.7351e-003  -2.2658e-004   3.1772e-003   3.3311e+007  -1.9886e+004   1.2550e+007    0.0988   -0.0000    0.0000    0.0001    0.1091
                0.7244   1.6227e-003  -2.1187e-004   3.2341e-003   3.1153e+007  -1.8018e+004   1.2775e+007    0.0924   -0.0000    0.0000    0.0001    0.1111
                0.7529   1.5424e-003  -2.0137e-004   3.2826e-003   2.9612e+007  -1.6692e+004   1.2966e+007    0.0879   -0.0000    0.0000    0.0000    0.1127
                0.7788   1.4700e-003  -1.9189e-004   3.3242e-003   2.8221e+007  -1.5488e+004   1.3131e+007    0.0837   -0.0000    0.0000    0.0000    0.1142
                0.8018   1.4450e-003  -1.8862e-004   3.3599e-003   2.7742e+007  -1.5065e+004   1.3272e+007    0.0823   -0.0000    0.0000    0.0000    0.1154
                0.8219   1.4272e-003  -1.8629e-004   3.3905e-003   2.7399e+007  -1.4771e+004   1.3393e+007    0.0813   -0.0000    0.0000    0.0000    0.1165
                0.8391   1.4205e-003  -1.8542e-004   3.4167e-003   2.7273e+007  -1.4661e+004   1.3496e+007    0.0809   -0.0000    0.0000    0.0000    0.1174
                0.8533   1.4366e-003  -1.8753e-004   3.4385e-003   2.7582e+007  -1.4930e+004   1.3582e+007    0.0818   -0.0000    0.0000    0.0000    0.1181
                0.8644   1.4493e-003  -1.8918e-004   3.4556e-003   2.7824e+007  -1.5140e+004   1.3650e+007    0.0826   -0.0000    0.0000    0.0000    0.1187
                0.8724   1.4641e-003  -1.9113e-004   3.4683e-003   2.8109e+007  -1.5394e+004   1.3700e+007    0.0834   -0.0000    0.0000    0.0000    0.1191
                0.8772   1.4757e-003  -1.9264e-004   3.4760e-003   2.8331e+007  -1.5590e+004   1.3730e+007    0.0841   -0.0000    0.0000    0.0000    0.1194
                0.8788   1.4796e-003  -1.9315e-004   3.4785e-003   2.8406e+007  -1.5655e+004   1.3740e+007    0.0843   -0.0000    0.0000    0.0000    0.1195

               lamina:  2     
              matName:  (TEP-core)
                     s           e11           e22           e12           s11           s22           s12   s11_fcT   s11_fcC   s22_fcT   s22_fcC   s12_fcS
                   (m)         (m/m)         (m/m)         (rad)          (Pa)          (Pa)          (Pa)       (-)       (-)       (-)       (-)       (-)
                0.0000   5.4421e-003  -7.1192e-004   2.0647e-005   1.2271e+006   2.5545e+005   2.0234e+003    0.2860   -0.0000    0.0595   -0.0000    0.0007
                0.0129   5.3935e-003  -7.0556e-004   1.1304e-004   1.2162e+006   2.5317e+005   1.1078e+004    0.2835   -0.0000    0.0590   -0.0000    0.0038
                0.0637   5.1333e-003  -6.7152e-004   4.6879e-004   1.1575e+006   2.4096e+005   4.5941e+004    0.2698   -0.0000    0.0562   -0.0000    0.0156
                0.1146   4.8732e-003  -6.3750e-004   8.0734e-004   1.0989e+006   2.2875e+005   7.9119e+004    0.2561   -0.0000    0.0533   -0.0000    0.0268
                0.1655   4.5706e-003  -5.9790e-004   1.1276e-003   1.0306e+006   2.1455e+005   1.1050e+005    0.2402   -0.0000    0.0500   -0.0000    0.0375
                0.2162   4.2501e-003  -5.5597e-004   1.4262e-003   9.5836e+005   1.9951e+005   1.3977e+005    0.2234   -0.0000    0.0465   -0.0000    0.0474
                0.2663   3.9321e-003  -5.1436e-004   1.7006e-003   8.8665e+005   1.8458e+005   1.6666e+005    0.2067   -0.0000    0.0430   -0.0000    0.0565
                0.3157   3.5944e-003  -4.7018e-004   1.9504e-003   8.1051e+005   1.6873e+005   1.9114e+005    0.1889   -0.0000    0.0393   -0.0000    0.0648
                0.3643   3.2634e-003  -4.2687e-004   2.1745e-003   7.3587e+005   1.5320e+005   2.1310e+005    0.1715   -0.0000    0.0357   -0.0000    0.0722
                0.4116   2.9445e-003  -3.8514e-004   2.3729e-003   6.6396e+005   1.3823e+005   2.3254e+005    0.1548   -0.0000    0.0322   -0.0000    0.0788
                0.4575   2.6404e-003  -3.4535e-004   2.5467e-003   5.9538e+005   1.2395e+005   2.4958e+005    0.1388   -0.0000    0.0289   -0.0000    0.0846
                0.5019   2.3464e-003  -3.0688e-004   2.6976e-003   5.2908e+005   1.1015e+005   2.6436e+005    0.1233   -0.0000    0.0257   -0.0000    0.0896
                0.5444   2.0926e-003  -2.7368e-004   2.8269e-003   4.7186e+005   9.8242e+004   2.7703e+005    0.1100   -0.0000    0.0229   -0.0000    0.0939
                0.5849   1.8578e-003  -2.4296e-004   2.9373e-003   4.1892e+005   8.7221e+004   2.8785e+005    0.0976   -0.0000    0.0203   -0.0000    0.0976
                0.6234   1.6425e-003  -2.1478e-004   3.0310e-003   3.7036e+005   7.7116e+004   2.9704e+005    0.0863   -0.0000    0.0180   -0.0000    0.1007
                0.6595   1.4801e-003  -1.9354e-004   3.1101e-003   3.3374e+005   6.9493e+004   3.0479e+005    0.0778   -0.0000    0.0162   -0.0000    0.1033
                0.6932   1.3282e-003  -1.7367e-004   3.1772e-003   2.9951e+005   6.2368e+004   3.1137e+005    0.0698   -0.0000    0.0145   -0.0000    0.1055
                0.7244   1.2145e-003  -1.5880e-004   3.2341e-003   2.7387e+005   5.7031e+004   3.1695e+005    0.0638   -0.0000    0.0133   -0.0000    0.1074
                0.7529   1.1337e-003  -1.4822e-004   3.2826e-003   2.5565e+005   5.3239e+004   3.2169e+005    0.0596   -0.0000    0.0124   -0.0000    0.1090
                0.7788   1.0605e-003  -1.3864e-004   3.3242e-003   2.3913e+005   4.9800e+004   3.2577e+005    0.0557   -0.0000    0.0116   -0.0000    0.1104
                0.8018   1.0349e-003  -1.3529e-004   3.3599e-003   2.3336e+005   4.8598e+004   3.2927e+005    0.0544   -0.0000    0.0113   -0.0000    0.1116
                0.8219   1.0169e-003  -1.3294e-004   3.3905e-003   2.2931e+005   4.7755e+004   3.3227e+005    0.0535   -0.0000    0.0111   -0.0000    0.1126
                0.8391   1.0102e-003  -1.3206e-004   3.4167e-003   2.2780e+005   4.7442e+004   3.3484e+005    0.0531   -0.0000    0.0111   -0.0000    0.1135
                0.8533   1.0266e-003  -1.3420e-004   3.4385e-003   2.3149e+005   4.8210e+004   3.3697e+005    0.0540   -0.0000    0.0112   -0.0000    0.1142
                0.8644   1.0394e-003  -1.3588e-004   3.4556e-003   2.3437e+005   4.8810e+004   3.3865e+005    0.0546   -0.0000    0.0114   -0.0000    0.1148
                0.8724   1.0547e-003  -1.3789e-004   3.4683e-003   2.3784e+005   4.9531e+004   3.3989e+005    0.0554   -0.0000    0.0115   -0.0000    0.1152
                0.8772   1.0666e-003  -1.3944e-004   3.4760e-003   2.4052e+005   5.0088e+004   3.4065e+005    0.0561   -0.0000    0.0117   -0.0000    0.1155
                0.8788   1.0705e-003  -1.3995e-004   3.4785e-003   2.4140e+005   5.0272e+004   3.4090e+005    0.0563   -0.0000    0.0117   -0.0000    0.1156

               lamina:  3     
              matName:  (blade-shell)
                     s           e11           e22           e12           s11           s22           s12   s11_fcT   s11_fcC   s22_fcT   s22_fcC   s12_fcS
                   (m)         (m/m)         (m/m)         (rad)          (Pa)          (Pa)          (Pa)       (-)       (-)       (-)       (-)       (-)
                0.0000   5.1577e-003  -6.7494e-004   2.0647e-005   9.9016e+007  -8.6691e+004   8.1555e+004    0.2938   -0.0000    0.0000    0.0003    0.0007
                0.0129   5.1105e-003  -6.6876e-004   1.1304e-004   9.8110e+007  -8.5907e+004   4.4652e+005    0.2911   -0.0000    0.0000    0.0003    0.0039
                0.0637   4.8507e-003  -6.3477e-004   4.6879e-004   9.3123e+007  -8.1649e+004   1.8517e+006    0.2763   -0.0000    0.0000    0.0002    0.0161
                0.1146   4.5913e-003  -6.0083e-004   8.0734e-004   8.8142e+007  -7.7395e+004   3.1890e+006    0.2615   -0.0000    0.0000    0.0002    0.0277
                0.1655   4.2897e-003  -5.6137e-004   1.1276e-003   8.2352e+007  -7.2447e+004   4.4538e+006    0.2444   -0.0000    0.0000    0.0002    0.0387
                0.2162   3.9695e-003  -5.1948e-004   1.4262e-003   7.6207e+007  -6.7201e+004   5.6336e+006    0.2261   -0.0000    0.0000    0.0002    0.0490
                0.2663   3.6520e-003  -4.7793e-004   1.7006e-003   7.0110e+007  -6.1995e+004   6.7173e+006    0.2080   -0.0000    0.0000    0.0002    0.0584
                0.3157   3.3148e-003  -4.3382e-004   1.9504e-003   6.3637e+007  -5.6469e+004   7.7043e+006    0.1888   -0.0000    0.0000    0.0002    0.0670
                0.3643   2.9837e-003  -3.9050e-004   2.1745e-003   5.7281e+007  -5.1046e+004   8.5892e+006    0.1700   -0.0000    0.0000    0.0002    0.0747
                0.4116   2.6646e-003  -3.4875e-004   2.3729e-003   5.1155e+007  -4.5821e+004   9.3729e+006    0.1518   -0.0000    0.0000    0.0001    0.0815
                0.4575   2.3603e-003  -3.0894e-004   2.5467e-003   4.5313e+007  -4.0838e+004   1.0059e+007    0.1345   -0.0000    0.0000    0.0001    0.0875
                0.5019   2.0657e-003  -2.7039e-004   2.6976e-003   3.9657e+007  -3.6017e+004   1.0655e+007    0.1177   -0.0000    0.0000    0.0001    0.0927
                0.5444   1.8112e-003  -2.3709e-004   2.8269e-003   3.4771e+007  -3.1854e+004   1.1166e+007    0.1032   -0.0000    0.0000    0.0001    0.0971
                0.5849   1.5761e-003  -2.0633e-004   2.9373e-003   3.0257e+007  -2.8006e+004   1.1602e+007    0.0898   -0.0000    0.0000    0.0001    0.1009
                0.6234   1.3598e-003  -1.7803e-004   3.0310e-003   2.6105e+007  -2.4470e+004   1.1973e+007    0.0775   -0.0000    0.0000    0.0001    0.1041
                0.6595   1.1966e-003  -1.5667e-004   3.1101e-003   2.2972e+007  -2.1803e+004   1.2285e+007    0.0682   -0.0000    0.0000    0.0001    0.1068
                0.6932   1.0443e-003  -1.3674e-004   3.1772e-003   2.0047e+007  -1.9312e+004   1.2550e+007    0.0595   -0.0000    0.0000    0.0001    0.1091
                0.7244   9.2967e-004  -1.2175e-004   3.2341e-003   1.7847e+007  -1.7442e+004   1.2775e+007    0.0530   -0.0000    0.0000    0.0001    0.1111
                0.7529   8.4850e-004  -1.1113e-004   3.2826e-003   1.6289e+007  -1.6116e+004   1.2966e+007    0.0483   -0.0000    0.0000    0.0000    0.1127
                0.7788   7.7466e-004  -1.0147e-004   3.3242e-003   1.4872e+007  -1.4911e+004   1.3131e+007    0.0441   -0.0000    0.0000    0.0000    0.1142
                0.8018   7.4860e-004  -9.8060e-005   3.3599e-003   1.4371e+007  -1.4487e+004   1.3272e+007    0.0426   -0.0000    0.0000    0.0000    0.1154
                0.8219   7.3056e-004  -9.5699e-005   3.3905e-003   1.4025e+007  -1.4192e+004   1.3393e+007    0.0416   -0.0000    0.0000    0.0000    0.1165
                0.8391   7.2383e-004  -9.4819e-005   3.4167e-003   1.3896e+007  -1.4083e+004   1.3496e+007    0.0412   -0.0000    0.0000    0.0000    0.1174
                0.8533   7.4037e-004  -9.6983e-005   3.4385e-003   1.4213e+007  -1.4352e+004   1.3582e+007    0.0422   -0.0000    0.0000    0.0000    0.1181
                0.8644   7.5328e-004  -9.8672e-005   3.4556e-003   1.4461e+007  -1.4563e+004   1.3650e+007    0.0429   -0.0000    0.0000    0.0000    0.1187
                0.8724   7.6900e-004  -1.0073e-004   3.4683e-003   1.4763e+007  -1.4817e+004   1.3700e+007    0.0438   -0.0000    0.0000    0.0000    0.1191
                0.8772   7.8109e-004  -1.0231e-004   3.4760e-003   1.4995e+007  -1.5014e+004   1.3730e+007    0.0445   -0.0000    0.0000    0.0000    0.1194
                0.8788   7.8502e-004  -1.0282e-004   3.4785e-003   1.5070e+007  -1.5078e+004   1.3740e+007    0.0447   -0.0000    0.0000    0.0000    0.1195

     Web:  panel  nNode   nLam     xc_St    xc_End         b         t         E_eff         G_eff      nu_eff     density  buckleCrit
            (-)    (-)    (-)       (-)       (-)       (m)       (m)          (Pa)          (Pa)         (-)    (kg/m^3)         (-)
              1     10      3    0.2395    0.2395    0.3458    0.0121   6.5707e+009   1.3870e+009      0.1347    691.8998      0.3064
              2     10      3    0.4605    0.4605    0.3220    0.0121   6.5707e+009   1.3870e+009      0.1347    691.8998      0.2852

            panel:  1     
           lam_num    nPlies        tPly      fibAng     matID  matName
               (-)       (-)         (m)       (deg)       (-)  (-)
                 1         1    0.002023      0.0000         7  (web-shell)
                 2         1    0.008047      0.0000         8  (web-core)
                 3         1    0.002023      0.0000         7  (web-shell)

               lamina:  1     
              matName:  (web-shell)
                     s           e11           e22           e12           s11           s22           s12   s11_fcT   s11_fcC   s22_fcT   s22_fcC   s12_fcS
                   (m)         (m/m)         (m/m)         (rad)          (Pa)          (Pa)          (Pa)       (-)       (-)       (-)       (-)       (-)
                0.0000  -5.5081e-003   7.4188e-004   1.2927e-002  -1.0569e+008   5.0433e+005   5.1062e+007    0.0000    0.2127    0.0015   -0.0000    0.4440
                0.0384  -4.2963e-003   5.7866e-004   1.3182e-002  -8.2438e+007   3.9342e+005   5.2067e+007    0.0000    0.1659    0.0012   -0.0000    0.4528
                0.0768  -3.0845e-003   4.1545e-004   1.3374e-002  -5.9185e+007   2.8251e+005   5.2828e+007    0.0000    0.1191    0.0008   -0.0000    0.4594
                0.1153  -1.8727e-003   2.5223e-004   1.3505e-002  -3.5933e+007   1.7160e+005   5.3345e+007    0.0000    0.0723    0.0005   -0.0000    0.4639
                0.1537  -6.6086e-004   8.9019e-005   1.3574e-002  -1.2681e+007   6.0692e+004   5.3618e+007    0.0000    0.0255    0.0002   -0.0000    0.4662
                0.1921   5.5241e-004  -7.4386e-005   1.3581e-002   1.0600e+007  -5.0245e+004   5.3645e+007    0.0315   -0.0000    0.0000    0.0001    0.4665
                0.2305   1.7642e-003  -2.3760e-004   1.3526e-002   3.3852e+007  -1.6115e+005   5.3429e+007    0.1005   -0.0000    0.0000    0.0005    0.4646
                0.2689   2.9760e-003  -4.0081e-004   1.3410e-002   5.7104e+007  -2.7206e+005   5.2968e+007    0.1694   -0.0000    0.0000    0.0008    0.4606
                0.3073   4.1878e-003  -5.6403e-004   1.3231e-002   8.0357e+007  -3.8297e+005   5.2263e+007    0.2384   -0.0000    0.0000    0.0011    0.4545
                0.3458   5.3997e-003  -7.2724e-004   1.2991e-002   1.0361e+008  -4.9388e+005   5.1314e+007    0.3074   -0.0000    0.0000    0.0015    0.4462

               lamina:  2     
              matName:  (web-core)
                     s           e11           e22           e12           s11           s22           s12   s11_fcT   s11_fcC   s22_fcT   s22_fcC   s12_fcS
                   (m)         (m/m)         (m/m)         (rad)          (Pa)          (Pa)          (Pa)       (-)       (-)       (-)       (-)       (-)
                0.0000  -5.5139e-003   7.4263e-004   1.2927e-002  -1.2417e+006  -2.5380e+005   1.2669e+006    0.0000    0.2894    0.0000    0.0592    0.4294
                0.0384  -4.3021e-003   5.7942e-004   1.3182e-002  -9.6878e+005  -1.9802e+005   1.2918e+006    0.0000    0.2258    0.0000    0.0462    0.4379
                0.0768  -3.0903e-003   4.1621e-004   1.3374e-002  -6.9590e+005  -1.4224e+005   1.3107e+006    0.0000    0.1622    0.0000    0.0332    0.4443
                0.1153  -1.8785e-003   2.5299e-004   1.3505e-002  -4.2301e+005  -8.6465e+004   1.3235e+006    0.0000    0.0986    0.0000    0.0202    0.4486
                0.1537  -6.6665e-004   8.9777e-005   1.3574e-002  -1.5012e+005  -3.0687e+004   1.3303e+006    0.0000    0.0350    0.0000    0.0072    0.4509
                0.1921   5.5095e-004  -7.4195e-005   1.3581e-002   1.2407e+005   2.5362e+004   1.3310e+006    0.0289   -0.0000    0.0059   -0.0000    0.4512
                0.2305   1.7628e-003  -2.3741e-004   1.3526e-002   3.9696e+005   8.1140e+004   1.3256e+006    0.0925   -0.0000    0.0189   -0.0000    0.4494
                0.2689   2.9746e-003  -4.0062e-004   1.3410e-002   6.6984e+005   1.3692e+005   1.3142e+006    0.1561   -0.0000    0.0319   -0.0000    0.4455
                0.3073   4.1864e-003  -5.6384e-004   1.3231e-002   9.4273e+005   1.9270e+005   1.2967e+006    0.2198   -0.0000    0.0449   -0.0000    0.4395
                0.3458   5.3982e-003  -7.2705e-004   1.2991e-002   1.2156e+006   2.4847e+005   1.2731e+006    0.2834   -0.0000    0.0579   -0.0000    0.4316

               lamina:  3     
              matName:  (web-shell)
                     s           e11           e22           e12           s11           s22           s12   s11_fcT   s11_fcC   s22_fcT   s22_fcC   s12_fcS
                   (m)         (m/m)         (m/m)         (rad)          (Pa)          (Pa)          (Pa)       (-)       (-)       (-)       (-)       (-)
                0.0000  -5.5153e-003   7.4283e-004   1.2927e-002  -1.0583e+008   5.0447e+005   5.1062e+007    0.0000    0.2129    0.0015   -0.0000    0.4440
                0.0384  -4.3035e-003   5.7961e-004   1.3182e-002  -8.2577e+007   3.9356e+005   5.2067e+007    0.0000    0.1662    0.0012   -0.0000    0.4528
                0.0768  -3.0917e-003   4.1640e-004   1.3374e-002  -5.9324e+007   2.8265e+005   5.2828e+007    0.0000    0.1194    0.0008   -0.0000    0.4594
                0.1153  -1.8799e-003   2.5318e-004   1.3505e-002  -3.6072e+007   1.7174e+005   5.3345e+007    0.0000    0.0726    0.0005   -0.0000    0.4639
                0.1537  -6.6810e-004   8.9968e-005   1.3574e-002  -1.2820e+007   6.0834e+004   5.3618e+007    0.0000    0.0258    0.0002   -0.0000    0.4662
                0.1921   5.4517e-004  -7.3437e-005   1.3581e-002   1.0461e+007  -5.0104e+004   5.3645e+007    0.0310   -0.0000    0.0000    0.0001    0.4665
                0.2305   1.7570e-003  -2.3665e-004   1.3526e-002   3.3713e+007  -1.6101e+005   5.3429e+007    0.1000   -0.0000    0.0000    0.0005    0.4646
                0.2689   2.9688e-003  -3.9987e-004   1.3410e-002   5.6965e+007  -2.7192e+005   5.2968e+007    0.1690   -0.0000    0.0000    0.0008    0.4606
                0.3073   4.1806e-003  -5.6308e-004   1.3231e-002   8.0218e+007  -3.8283e+005   5.2263e+007    0.2380   -0.0000    0.0000    0.0011    0.4545
                0.3458   5.3924e-003  -7.2629e-004   1.2991e-002   1.0347e+008  -4.9374e+005   5.1314e+007    0.3070   -0.0000    0.0000    0.0015    0.4462

            panel:  2     
           lam_num    nPlies        tPly      fibAng     matID  matName
               (-)       (-)         (m)       (deg)       (-)  (-)
                 1         1    0.002023      0.0000         7  (web-shell)
                 2         1    0.008047      0.0000         8  (web-core)
                 3         1    0.002023      0.0000         7  (web-shell)

               lamina:  1     
              matName:  (web-shell)
                     s           e11           e22           e12           s11           s22           s12   s11_fcT   s11_fcC   s22_fcT   s22_fcC   s12_fcS
                   (m)         (m/m)         (m/m)         (rad)          (Pa)          (Pa)          (Pa)       (-)       (-)       (-)       (-)       (-)
                0.0000  -5.2231e-003   7.0349e-004   1.4804e-002  -1.0022e+008   4.7823e+005   5.8475e+007    0.0000    0.2017    0.0014   -0.0000    0.5085
                0.0358  -4.0944e-003   5.5147e-004   1.5025e-002  -7.8564e+007   3.7494e+005   5.9348e+007    0.0000    0.1581    0.0011   -0.0000    0.5161
                0.0716  -2.9658e-003   3.9946e-004   1.5192e-002  -5.6908e+007   2.7164e+005   6.0008e+007    0.0000    0.1145    0.0008   -0.0000    0.5218
                0.1073  -1.8371e-003   2.4745e-004   1.5305e-002  -3.5251e+007   1.6834e+005   6.0456e+007    0.0000    0.0709    0.0005   -0.0000    0.5257
                0.1431  -7.0850e-004   9.5436e-005   1.5365e-002  -1.3595e+007   6.5045e+004   6.0692e+007    0.0000    0.0274    0.0002   -0.0000    0.5278
                0.1789   4.2154e-004  -5.6761e-005   1.5371e-002   8.0886e+006  -3.8280e+004   6.0716e+007    0.0240   -0.0000    0.0000    0.0001    0.5280
                0.2147   1.5502e-003  -2.0877e-004   1.5324e-002   2.9745e+007  -1.4158e+005   6.0529e+007    0.0883   -0.0000    0.0000    0.0004    0.5263
                0.2505   2.6788e-003  -3.6079e-004   1.5223e-002   5.1402e+007  -2.4487e+005   6.0129e+007    0.1525   -0.0000    0.0000    0.0007    0.5229
                0.2862   3.8075e-003  -5.1280e-004   1.5068e-002   7.3058e+007  -3.4817e+005   5.9517e+007    0.2168   -0.0000    0.0000    0.0010    0.5175
                0.3220   4.9361e-003  -6.6481e-004   1.4859e-002   9.4715e+007  -4.5147e+005   5.8694e+007    0.2811   -0.0000    0.0000    0.0013    0.5104

               lamina:  2     
              matName:  (web-core)
                     s           e11           e22           e12           s11           s22           s12   s11_fcT   s11_fcC   s22_fcT   s22_fcC   s12_fcS
                   (m)         (m/m)         (m/m)         (rad)          (Pa)          (Pa)          (Pa)       (-)       (-)       (-)       (-)       (-)
                0.0000  -5.2286e-003   7.0422e-004   1.4804e-002  -1.1774e+006  -2.4067e+005   1.4508e+006    0.0000    0.2745    0.0000    0.0561    0.4918
                0.0358  -4.1000e-003   5.5220e-004   1.5025e-002  -9.2328e+005  -1.8872e+005   1.4724e+006    0.0000    0.2152    0.0000    0.0440    0.4991
                0.0716  -2.9714e-003   4.0019e-004   1.5192e-002  -6.6912e+005  -1.3677e+005   1.4888e+006    0.0000    0.1560    0.0000    0.0319    0.5047
                0.1073  -1.8427e-003   2.4818e-004   1.5305e-002  -4.1496e+005  -8.4820e+004   1.4999e+006    0.0000    0.0967    0.0000    0.0198    0.5084
                0.1431  -7.1407e-004   9.6165e-005   1.5365e-002  -1.6080e+005  -3.2870e+004   1.5058e+006    0.0000    0.0375    0.0000    0.0077    0.5104
                0.1789   4.2014e-004  -5.6577e-005   1.5371e-002   9.4612e+004   1.9341e+004   1.5064e+006    0.0221   -0.0000    0.0045   -0.0000    0.5106
                0.2147   1.5488e-003  -2.0859e-004   1.5324e-002   3.4877e+005   7.1290e+004   1.5017e+006    0.0813   -0.0000    0.0166   -0.0000    0.5091
                0.2505   2.6774e-003  -3.6060e-004   1.5223e-002   6.0293e+005   1.2324e+005   1.4918e+006    0.1405   -0.0000    0.0287   -0.0000    0.5057
                0.2862   3.8061e-003  -5.1262e-004   1.5068e-002   8.5709e+005   1.7519e+005   1.4766e+006    0.1998   -0.0000    0.0408   -0.0000    0.5006
                0.3220   4.9347e-003  -6.6463e-004   1.4859e-002   1.1112e+006   2.2714e+005   1.4562e+006    0.2590   -0.0000    0.0529   -0.0000    0.4936

               lamina:  3     
              matName:  (web-shell)
                     s           e11           e22           e12           s11           s22           s12   s11_fcT   s11_fcC   s22_fcT   s22_fcC   s12_fcS
                   (m)         (m/m)         (m/m)         (rad)          (Pa)          (Pa)          (Pa)       (-)       (-)       (-)       (-)       (-)
                0.0000  -5.2300e-003   7.0440e-004   1.4804e-002  -1.0035e+008   4.7837e+005   5.8475e+007    0.0000    0.2019    0.0014   -0.0000    0.5085
                0.0358  -4.1014e-003   5.5239e-004   1.5025e-002  -7.8698e+007   3.7507e+005   5.9348e+007    0.0000    0.1583    0.0011   -0.0000    0.5161
                0.0716  -2.9728e-003   4.0037e-004   1.5192e-002  -5.7042e+007   2.7178e+005   6.0008e+007    0.0000    0.1148    0.0008   -0.0000    0.5218
                0.1073  -1.8441e-003   2.4836e-004   1.5305e-002  -3.5385e+007   1.6848e+005   6.0456e+007    0.0000    0.0712    0.0005   -0.0000    0.5257
                0.1431  -7.1547e-004   9.6349e-005   1.5365e-002  -1.3729e+007   6.5181e+004   6.0692e+007    0.0000    0.0276    0.0002   -0.0000    0.5278
                0.1789   4.1457e-004  -5.5847e-005   1.5371e-002   7.9548e+006  -3.8143e+004   6.0716e+007    0.0236   -0.0000    0.0000    0.0001    0.5280
                0.2147   1.5432e-003  -2.0786e-004   1.5324e-002   2.9611e+007  -1.4144e+005   6.0529e+007    0.0879   -0.0000    0.0000    0.0004    0.5263
                0.2505   2.6719e-003  -3.5987e-004   1.5223e-002   5.1268e+007  -2.4474e+005   6.0129e+007    0.1521   -0.0000    0.0000    0.0007    0.5229
                0.2862   3.8005e-003  -5.1189e-004   1.5068e-002   7.2924e+007  -3.4804e+005   5.9517e+007    0.2164   -0.0000    0.0000    0.0010    0.5175
                0.3220   4.9291e-003  -6.6390e-004   1.4859e-002   9.4581e+007  -4.5133e+005   5.8694e+007    0.2807   -0.0000    0.0000    0.0013    0.5104

================================================================================
sec        =  10     
zSec       =  2.7000  (m)
nPanelsTop =  3      
nPanelsBot =  3      
nWebs      =  2      

    Top:  panel  nNode   nLam     xc_St    xc_End         b         t         E_eff         G_eff      nu_eff     density  buckleCrit
            (-)    (-)    (-)       (-)       (-)       (m)       (m)          (Pa)          (Pa)         (-)    (kg/m^3)         (-)
              1     18      3    0.0000    0.2394    0.4341    0.0114   1.8762e+010   3.8611e+009      0.1301   1636.0632      0.2828
              2      9      5    0.2394    0.4606    0.3432    0.0187   6.1302e+010   4.2483e+009      0.1704   1585.2702      0.3769
              3     28      3    0.4606    1.0000    0.8628    0.0149   1.4346e+010   2.9650e+009      0.1308   1294.0984      0.7852

            panel:  1     
           lam_num    nPlies        tPly      fibAng     matID  matName
               (-)       (-)         (m)       (deg)       (-)  (-)
                 1         1    0.005545      0.0000         2  (blade-shell)
                 2         1    0.000262      0.0000         5  (LEP-core)
                 3         1    0.005545      0.0000         2  (blade-shell)

               lamina:  1     
              matName:  (blade-shell)
                     s           e11           e22           e12           s11           s22           s12   s11_fcT   s11_fcC   s22_fcT   s22_fcC   s12_fcS
                   (m)         (m/m)         (m/m)         (rad)          (Pa)          (Pa)          (Pa)       (-)       (-)       (-)       (-)       (-)
                0.0000   5.4606e-004  -7.1019e-005   6.5751e-003   1.0484e+007  -6.1282e+002   2.5972e+007    0.0311   -0.0000    0.0000    0.0000    0.2258
                0.0049   3.8642e-004  -5.0257e-005   6.5772e-003   7.4192e+006  -4.3506e+002   2.5980e+007    0.0220   -0.0000    0.0000    0.0000    0.2259
                0.0194  -2.9304e-004   3.8100e-005   6.5768e-003  -5.6264e+006   8.6316e+001   2.5978e+007    0.0000    0.0113    0.0000   -0.0000    0.2259
                0.0372  -9.4227e-004   1.2253e-004   6.5632e-003  -1.8091e+007   7.0674e+002   2.5924e+007    0.0000    0.0364    0.0000   -0.0000    0.2254
                0.0526  -1.4047e-003   1.8267e-004   6.5410e-003  -2.6970e+007   1.1402e+003   2.5837e+007    0.0000    0.0543    0.0000   -0.0000    0.2247
                0.0729  -1.9561e-003   2.5439e-004   6.4985e-003  -3.7558e+007   1.7174e+003   2.5669e+007    0.0000    0.0756    0.0000   -0.0000    0.2232
                0.0938  -2.4484e-003   3.1841e-004   6.4402e-003  -4.7009e+007   2.2200e+003   2.5439e+007    0.0000    0.0946    0.0000   -0.0000    0.2212
                0.1176  -2.9344e-003   3.8162e-004   6.3580e-003  -5.6340e+007   2.7466e+003   2.5114e+007    0.0000    0.1134    0.0000   -0.0000    0.2184
                0.1443  -3.4775e-003   4.5225e-004   6.2472e-003  -6.6768e+007   3.3222e+003   2.4677e+007    0.0000    0.1343    0.0000   -0.0000    0.2146
                0.1717  -3.9025e-003   5.0752e-004   6.1157e-003  -7.4928e+007   3.7731e+003   2.4157e+007    0.0000    0.1508    0.0000   -0.0000    0.2101
                0.2022  -4.3619e-003   5.6727e-004   5.9504e-003  -8.3748e+007   4.2766e+003   2.3504e+007    0.0000    0.1685    0.0000   -0.0000    0.2044
                0.2344  -4.7932e-003   6.2335e-004   5.7561e-003  -9.2028e+007   4.7419e+003   2.2737e+007    0.0000    0.1852    0.0000   -0.0000    0.1977
                0.2685  -5.1685e-003   6.7217e-004   5.5318e-003  -9.9234e+007   5.1530e+003   2.1851e+007    0.0000    0.1997    0.0000   -0.0000    0.1900
                0.3048  -5.5706e-003   7.2446e-004   5.2728e-003  -1.0695e+008   5.5922e+003   2.0827e+007    0.0000    0.2152    0.0000   -0.0000    0.1811
                0.3423  -5.8723e-003   7.6370e-004   4.9875e-003  -1.1275e+008   5.9197e+003   1.9701e+007    0.0000    0.2269    0.0000   -0.0000    0.1713
                0.3819  -6.1625e-003   8.0145e-004   4.6707e-003  -1.1832e+008   6.2404e+003   1.8449e+007    0.0000    0.2381    0.0000   -0.0000    0.1604
                0.4230  -6.4358e-003   8.3700e-004   4.3250e-003  -1.2357e+008   6.5414e+003   1.7084e+007    0.0000    0.2486    0.0000   -0.0000    0.1486
                0.4341  -6.4837e-003   8.4322e-004   4.2292e-003  -1.2449e+008   6.5891e+003   1.6705e+007    0.0000    0.2505    0.0000   -0.0000    0.1453

               lamina:  2     
              matName:  (LEP-core)
                     s           e11           e22           e12           s11           s22           s12   s11_fcT   s11_fcC   s22_fcT   s22_fcC   s12_fcS
                   (m)         (m/m)         (m/m)         (rad)          (Pa)          (Pa)          (Pa)       (-)       (-)       (-)       (-)       (-)
                0.0000   5.5464e-004  -7.2134e-005   6.5751e-003   1.2510e+005   2.6134e+004   6.4436e+005    0.0292   -0.0000    0.0061   -0.0000    0.2184
                0.0049   3.9500e-004  -5.1372e-005   6.5772e-003   8.9092e+004   1.8612e+004   6.4457e+005    0.0208   -0.0000    0.0043   -0.0000    0.2185
                0.0194  -8.2382e-005   1.0714e-005   6.5768e-003  -1.8581e+004  -3.8819e+003   6.4453e+005    0.0000    0.0043    0.0000    0.0009    0.2185
                0.0372  -6.4164e-004   8.3449e-005   6.5632e-003  -1.4472e+005  -3.0234e+004   6.4319e+005    0.0000    0.0337    0.0000    0.0070    0.2180
                0.0526  -1.0325e-003   1.3429e-004   6.5410e-003  -2.3289e+005  -4.8652e+004   6.4102e+005    0.0000    0.0543    0.0000    0.0113    0.2173
                0.0729  -1.5517e-003   2.0181e-004   6.4985e-003  -3.4999e+005  -7.3116e+004   6.3686e+005    0.0000    0.0816    0.0000    0.0170    0.2159
                0.0938  -2.0039e-003   2.6062e-004   6.4402e-003  -4.5198e+005  -9.4423e+004   6.3114e+005    0.0000    0.1054    0.0000    0.0220    0.2139
                0.1176  -2.4771e-003   3.2217e-004   6.3580e-003  -5.5872e+005  -1.1672e+005   6.2309e+005    0.0000    0.1302    0.0000    0.0272    0.2112
                0.1443  -2.9947e-003   3.8948e-004   6.2472e-003  -6.7546e+005  -1.4111e+005   6.1223e+005    0.0000    0.1574    0.0000    0.0329    0.2075
                0.1717  -3.4001e-003   4.4220e-004   6.1157e-003  -7.6688e+005  -1.6021e+005   5.9934e+005    0.0000    0.1788    0.0000    0.0373    0.2032
                0.2022  -3.8524e-003   5.0103e-004   5.9504e-003  -8.6891e+005  -1.8152e+005   5.8314e+005    0.0000    0.2025    0.0000    0.0423    0.1977
                0.2344  -4.2705e-003   5.5541e-004   5.7561e-003  -9.6322e+005  -2.0123e+005   5.6410e+005    0.0000    0.2245    0.0000    0.0469    0.1912
                0.2685  -4.6399e-003   6.0345e-004   5.5318e-003  -1.0465e+006  -2.1863e+005   5.4211e+005    0.0000    0.2439    0.0000    0.0510    0.1838
                0.3048  -5.0345e-003   6.5477e-004   5.2728e-003  -1.1355e+006  -2.3722e+005   5.1673e+005    0.0000    0.2647    0.0000    0.0553    0.1752
                0.3423  -5.3288e-003   6.9305e-004   4.9875e-003  -1.2019e+006  -2.5109e+005   4.8878e+005    0.0000    0.2802    0.0000    0.0585    0.1657
                0.3819  -5.6168e-003   7.3050e-004   4.6707e-003  -1.2669e+006  -2.6466e+005   4.5772e+005    0.0000    0.2953    0.0000    0.0617    0.1552
                0.4230  -5.8872e-003   7.6567e-004   4.3250e-003  -1.3279e+006  -2.7740e+005   4.2385e+005    0.0000    0.3095    0.0000    0.0647    0.1437
                0.4341  -5.9301e-003   7.7125e-004   4.2292e-003  -1.3375e+006  -2.7942e+005   4.1446e+005    0.0000    0.3118    0.0000    0.0651    0.1405

               lamina:  3     
              matName:  (blade-shell)
                     s           e11           e22           e12           s11           s22           s12   s11_fcT   s11_fcC   s22_fcT   s22_fcC   s12_fcS
                   (m)         (m/m)         (m/m)         (rad)          (Pa)          (Pa)          (Pa)       (-)       (-)       (-)       (-)       (-)
                0.0000   7.3616e-004  -9.5732e-005   6.5751e-003   1.4134e+007  -6.1293e+002   2.5972e+007    0.0419   -0.0000    0.0000    0.0000    0.2258
                0.0049   5.7652e-004  -7.4970e-005   6.5772e-003   1.1069e+007  -4.3517e+002   2.5980e+007    0.0328   -0.0000    0.0000    0.0000    0.2259
                0.0194   1.3824e-004  -1.7966e-005   6.5768e-003   2.6541e+006   8.6188e+001   2.5978e+007    0.0079   -0.0000    0.0000   -0.0000    0.2259
                0.0372  -6.2743e-004   8.1602e-005   6.5632e-003  -1.2047e+007   7.0656e+002   2.5924e+007    0.0000    0.0242    0.0000   -0.0000    0.2254
                0.0526  -1.0149e-003   1.3200e-004   6.5410e-003  -1.9487e+007   1.1399e+003   2.5837e+007    0.0000    0.0392    0.0000   -0.0000    0.2247
                0.0729  -1.5326e-003   1.9932e-004   6.4985e-003  -2.9426e+007   1.7172e+003   2.5669e+007    0.0000    0.0592    0.0000   -0.0000    0.2232
                0.0938  -1.9829e-003   2.5789e-004   6.4402e-003  -3.8072e+007   2.2197e+003   2.5439e+007    0.0000    0.0766    0.0000   -0.0000    0.2212
                0.1176  -2.4555e-003   3.1936e-004   6.3580e-003  -4.7146e+007   2.7463e+003   2.5114e+007    0.0000    0.0949    0.0000   -0.0000    0.2184
                0.1443  -2.9719e-003   3.8652e-004   6.2472e-003  -5.7060e+007   3.3219e+003   2.4677e+007    0.0000    0.1148    0.0000   -0.0000    0.2146
                0.1717  -3.3763e-003   4.3911e-004   6.1157e-003  -6.4825e+007   3.7728e+003   2.4157e+007    0.0000    0.1304    0.0000   -0.0000    0.2101
                0.2022  -3.8283e-003   4.9790e-004   5.9504e-003  -7.3503e+007   4.2763e+003   2.3504e+007    0.0000    0.1479    0.0000   -0.0000    0.2044
                0.2344  -4.2458e-003   5.5220e-004   5.7561e-003  -8.1519e+007   4.7416e+003   2.2737e+007    0.0000    0.1640    0.0000   -0.0000    0.1977
                0.2685  -4.6149e-003   6.0020e-004   5.5318e-003  -8.8606e+007   5.1527e+003   2.1851e+007    0.0000    0.1783    0.0000   -0.0000    0.1900
                0.3048  -5.0091e-003   6.5147e-004   5.2728e-003  -9.6174e+007   5.5918e+003   2.0827e+007    0.0000    0.1935    0.0000   -0.0000    0.1811
                0.3423  -5.3031e-003   6.8971e-004   4.9875e-003  -1.0182e+008   5.9194e+003   1.9701e+007    0.0000    0.2049    0.0000   -0.0000    0.1713
                0.3819  -5.5910e-003   7.2715e-004   4.6707e-003  -1.0735e+008   6.2400e+003   1.8449e+007    0.0000    0.2160    0.0000   -0.0000    0.1604
                0.4230  -5.8613e-003   7.6230e-004   4.3250e-003  -1.1254e+008   6.5411e+003   1.7084e+007    0.0000    0.2264    0.0000   -0.0000    0.1486
                0.4341  -5.9040e-003   7.6785e-004   4.2292e-003  -1.1336e+008   6.5887e+003   1.6705e+007    0.0000    0.2281    0.0000   -0.0000    0.1453

            panel:  2     
           lam_num    nPlies        tPly      fibAng     matID  matName
               (-)       (-)         (m)       (deg)       (-)  (-)
                 1         1    0.005545      0.0000         2  (blade-shell)
                 2         1    0.003794      0.0000         3  (spar-uni)
                 3         1    0.000047      0.0000         4  (spar-core)
                 4         1    0.003794      0.0000         3  (spar-uni)
                 5         1    0.005545      0.0000         2  (blade-shell)

               lamina:  1     
              matName:  (blade-shell)
                     s           e11           e22           e12           s11           s22           s12   s11_fcT   s11_fcC   s22_fcT   s22_fcC   s12_fcS
                   (m)         (m/m)         (m/m)         (rad)          (Pa)          (Pa)          (Pa)       (-)       (-)       (-)       (-)       (-)
                0.0000  -8.0250e-003   1.2891e-003   5.1667e-003  -1.5346e+008   4.8013e+006   2.0409e+007    0.0000    0.3088    0.0142   -0.0000    0.1775
                0.0309  -8.1451e-003   1.3096e-003   4.3818e-003  -1.5575e+008   4.8960e+006   1.7308e+007    0.0000    0.3134    0.0145   -0.0000    0.1505
                0.0746  -8.3214e-003   1.3394e-003   3.2503e-003  -1.5912e+008   5.0303e+006   1.2839e+007    0.0000    0.3202    0.0149   -0.0000    0.1116
                0.1190  -8.4049e-003   1.3533e-003   2.0760e-003  -1.6071e+008   5.0916e+006   8.2001e+006    0.0000    0.3234    0.0151   -0.0000    0.0713
                0.1648  -8.4134e-003   1.3548e-003   8.6040e-004  -1.6088e+008   5.0978e+006   3.3986e+006    0.0000    0.3237    0.0151   -0.0000    0.0296
                0.2113  -8.4195e-003   1.3559e-003   3.7272e-004  -1.6099e+008   5.1041e+006   1.4723e+006    0.0000    0.3239    0.0151   -0.0000    0.0128
                0.2586  -8.2598e-003   1.3290e-003   1.6122e-003  -1.5794e+008   4.9837e+006   6.3681e+006    0.0000    0.3178    0.0148   -0.0000    0.0554
                0.3069  -8.0934e-003   1.3007e-003   2.8413e-003  -1.5476e+008   4.8547e+006   1.1223e+007    0.0000    0.3114    0.0144   -0.0000    0.0976
                0.3432  -7.9357e-003   1.2740e-003   3.7379e-003  -1.5175e+008   4.7328e+006   1.4765e+007    0.0000    0.3053    0.0140   -0.0000    0.1284

               lamina:  2     
              matName:  (spar-uni)
                     s           e11           e22           e12           s11           s22           s12   s11_fcT   s11_fcC   s22_fcT   s22_fcC   s12_fcS
                   (m)         (m/m)         (m/m)         (rad)          (Pa)          (Pa)          (Pa)       (-)       (-)       (-)       (-)       (-)
                0.0000  -6.7022e-003   1.1100e-003   5.1667e-003  -8.2685e+008  -7.9859e+006   2.4335e+007    0.0000    0.8268    0.0000    0.1333    0.2363
                0.0309  -6.8223e-003   1.1305e-003   4.3818e-003  -8.4166e+008  -8.1243e+006   2.0638e+007    0.0000    0.8417    0.0000    0.1356    0.2004
                0.0746  -6.9945e-003   1.1597e-003   3.2503e-003  -8.6290e+008  -8.3235e+006   1.5309e+007    0.0000    0.8629    0.0000    0.1390    0.1486
                0.1190  -7.0740e-003   1.1732e-003   2.0760e-003  -8.7271e+008  -8.4159e+006   9.7778e+006    0.0000    0.8727    0.0000    0.1405    0.0949
                0.1648  -7.0821e-003   1.1746e-003   8.6040e-004  -8.7371e+008  -8.4253e+006   4.0525e+006    0.0000    0.8737    0.0000    0.1407    0.0393
                0.2113  -7.0895e-003   1.1758e-003   3.7272e-004  -8.7463e+008  -8.4336e+006   1.7555e+006    0.0000    0.8746    0.0000    0.1408    0.0170
                0.2586  -6.9346e-003   1.1496e-003   1.6122e-003  -8.5551e+008  -8.2541e+006   7.5934e+006    0.0000    0.8555    0.0000    0.1378    0.0737
                0.3069  -6.7701e-003   1.1216e-003   2.8413e-003  -8.3522e+008  -8.0642e+006   1.3383e+007    0.0000    0.8352    0.0000    0.1346    0.1299
                0.3432  -6.6146e-003   1.0951e-003   3.7379e-003  -8.1604e+008  -7.8846e+006   1.7605e+007    0.0000    0.8160    0.0000    0.1316    0.1709

               lamina:  3     
              matName:  (spar-core)
                     s           e11           e22           e12           s11           s22           s12   s11_fcT   s11_fcC   s22_fcT   s22_fcC   s12_fcS
                   (m)         (m/m)         (m/m)         (rad)          (Pa)          (Pa)          (Pa)       (-)       (-)       (-)       (-)       (-)
                0.0000  -5.7971e-003   9.8751e-004   5.1667e-003  -1.2894e+006  -2.1811e+005   5.0634e+005    0.0000    0.3006    0.0000    0.0508    0.1716
                0.0309  -5.9171e-003   1.0080e-003   4.3818e-003  -1.3161e+006  -2.2263e+005   4.2941e+005    0.0000    0.3068    0.0000    0.0519    0.1456
                0.0746  -6.0865e-003   1.0368e-003   3.2503e-003  -1.3537e+006  -2.2900e+005   3.1853e+005    0.0000    0.3156    0.0000    0.0534    0.1080
                0.1190  -6.1634e-003   1.0499e-003   2.0760e-003  -1.3708e+006  -2.3189e+005   2.0344e+005    0.0000    0.3195    0.0000    0.0541    0.0690
                0.1648  -6.1711e-003   1.0512e-003   8.6040e-004  -1.3726e+006  -2.3218e+005   8.4319e+004    0.0000    0.3199    0.0000    0.0541    0.0286
                0.2113  -6.1794e-003   1.0527e-003   3.7272e-004  -1.3744e+006  -2.3250e+005   3.6527e+004    0.0000    0.3204    0.0000    0.0542    0.0124
                0.2586  -6.0278e-003   1.0268e-003   1.6122e-003  -1.3407e+006  -2.2679e+005   1.5799e+005    0.0000    0.3125    0.0000    0.0529    0.0536
                0.3069  -5.8645e-003   9.9900e-004   2.8413e-003  -1.3044e+006  -2.2065e+005   2.7845e+005    0.0000    0.3040    0.0000    0.0514    0.0944
                0.3432  -5.7106e-003   9.7277e-004   3.7379e-003  -1.2701e+006  -2.1486e+005   3.6631e+005    0.0000    0.2961    0.0000    0.0501    0.1242

               lamina:  4     
              matName:  (spar-uni)
                     s           e11           e22           e12           s11           s22           s12   s11_fcT   s11_fcC   s22_fcT   s22_fcC   s12_fcS
                   (m)         (m/m)         (m/m)         (rad)          (Pa)          (Pa)          (Pa)       (-)       (-)       (-)       (-)       (-)
                0.0000  -5.7859e-003   9.8599e-004   5.1667e-003  -7.1373e+008  -6.6653e+006   2.4335e+007    0.0000    0.7137    0.0000    0.1113    0.2363
                0.0309  -5.9060e-003   1.0064e-003   4.3818e-003  -7.2854e+008  -6.8036e+006   2.0638e+007    0.0000    0.7285    0.0000    0.1136    0.2004
                0.0746  -6.0753e-003   1.0353e-003   3.2503e-003  -7.4943e+008  -6.9988e+006   1.5309e+007    0.0000    0.7494    0.0000    0.1168    0.1486
                0.1190  -6.1521e-003   1.0484e-003   2.0760e-003  -7.5891e+008  -7.0873e+006   9.7778e+006    0.0000    0.7589    0.0000    0.1183    0.0949
                0.1648  -6.1599e-003   1.0497e-003   8.6040e-004  -7.5986e+008  -7.0962e+006   4.0525e+006    0.0000    0.7599    0.0000    0.1185    0.0393
                0.2113  -6.1682e-003   1.0511e-003   3.7272e-004  -7.6089e+008  -7.1058e+006   1.7555e+006    0.0000    0.7609    0.0000    0.1186    0.0170
                0.2586  -6.0166e-003   1.0253e-003   1.6122e-003  -7.4219e+008  -6.9311e+006   7.5934e+006    0.0000    0.7422    0.0000    0.1157    0.0737
                0.3069  -5.8534e-003   9.9749e-004   2.8413e-003  -7.2205e+008  -6.7430e+006   1.3383e+007    0.0000    0.7221    0.0000    0.1126    0.1299
                0.3432  -5.6994e-003   9.7126e-004   3.7379e-003  -7.0306e+008  -6.5657e+006   1.7605e+007    0.0000    0.7031    0.0000    0.1096    0.1709

               lamina:  5     
              matName:  (blade-shell)
                     s           e11           e22           e12           s11           s22           s12   s11_fcT   s11_fcC   s22_fcT   s22_fcC   s12_fcS
                   (m)         (m/m)         (m/m)         (rad)          (Pa)          (Pa)          (Pa)       (-)       (-)       (-)       (-)       (-)
                0.0000  -4.8808e-003   8.6347e-004   5.1667e-003  -9.3129e+007   4.4718e+006   2.0409e+007    0.0000    0.1874    0.0133   -0.0000    0.1775
                0.0309  -5.0008e-003   8.8392e-004   4.3818e-003  -9.5422e+007   4.5665e+006   1.7308e+007    0.0000    0.1920    0.0136   -0.0000    0.1505
                0.0746  -5.1674e-003   9.1240e-004   3.2503e-003  -9.8602e+007   4.6997e+006   1.2839e+007    0.0000    0.1984    0.0139   -0.0000    0.1116
                0.1190  -5.2415e-003   9.2512e-004   2.0760e-003  -1.0002e+008   4.7600e+006   8.2001e+006    0.0000    0.2012    0.0141   -0.0000    0.0713
                0.1648  -5.2489e-003   9.2639e-004   8.6040e-004  -1.0016e+008   4.7661e+006   3.3986e+006    0.0000    0.2015    0.0141   -0.0000    0.0296
                0.2113  -5.2581e-003   9.2794e-004   3.7272e-004  -1.0034e+008   4.7728e+006   1.4723e+006    0.0000    0.2019    0.0142   -0.0000    0.0128
                0.2586  -5.1098e-003   9.0254e-004   1.6122e-003  -9.7503e+007   4.6535e+006   6.3681e+006    0.0000    0.1962    0.0138   -0.0000    0.0554
                0.3069  -4.9478e-003   8.7491e-004   2.8413e-003  -9.4410e+007   4.5250e+006   1.1223e+007    0.0000    0.1900    0.0134   -0.0000    0.0976
                0.3432  -4.7954e-003   8.4889e-004   3.7379e-003  -9.1500e+007   4.4037e+006   1.4765e+007    0.0000    0.1841    0.0131   -0.0000    0.1284

            panel:  3     
           lam_num    nPlies        tPly      fibAng     matID  matName
               (-)       (-)         (m)       (deg)       (-)  (-)
                 1         1    0.005545      0.0000         2  (blade-shell)
                 2         1    0.003810      0.0000         6  (TEP-core)
                 3         1    0.005545      0.0000         2  (blade-shell)

               lamina:  1     
              matName:  (blade-shell)
                     s           e11           e22           e12           s11           s22           s12   s11_fcT   s11_fcC   s22_fcT   s22_fcC   s12_fcS
                   (m)         (m/m)         (m/m)         (rad)          (Pa)          (Pa)          (Pa)       (-)       (-)       (-)       (-)       (-)
                0.0000  -6.3476e-003   8.2998e-004   8.6626e-004  -1.2186e+008   9.3514e+004   3.4217e+006    0.0000    0.2452    0.0003   -0.0000    0.0298
                0.0122  -6.2924e-003   8.2276e-004   9.6665e-004  -1.2080e+008   9.2680e+004   3.8183e+006    0.0000    0.2431    0.0003   -0.0000    0.0332
                0.0616  -5.9907e-003   7.8329e-004   1.3600e-003  -1.1501e+008   8.7831e+004   5.3720e+006    0.0000    0.2314    0.0003   -0.0000    0.0467
                0.1110  -5.6884e-003   7.4374e-004   1.7306e-003  -1.0921e+008   8.2989e+004   6.8358e+006    0.0000    0.2197    0.0002   -0.0000    0.0594
                0.1605  -5.3184e-003   6.9534e-004   2.0773e-003  -1.0210e+008   7.7076e+004   8.2053e+006    0.0000    0.2054    0.0002   -0.0000    0.0714
                0.2099  -4.9213e-003   6.4339e-004   2.3956e-003  -9.4480e+007   7.0693e+004   9.4627e+006    0.0000    0.1901    0.0002   -0.0000    0.0823
                0.2586  -4.5249e-003   5.9153e-004   2.6813e-003  -8.6869e+007   6.4340e+004   1.0591e+007    0.0000    0.1748    0.0002   -0.0000    0.0921
                0.3071  -4.0745e-003   5.3261e-004   2.9347e-003  -7.8222e+007   5.7118e+004   1.1592e+007    0.0000    0.1574    0.0002   -0.0000    0.1008
                0.3546  -3.6344e-003   4.7503e-004   3.1524e-003  -6.9773e+007   5.0029e+004   1.2452e+007    0.0000    0.1404    0.0001   -0.0000    0.1083
                0.4010  -3.1932e-003   4.1732e-004   3.3349e-003  -6.1305e+007   4.2935e+004   1.3173e+007    0.0000    0.1233    0.0001   -0.0000    0.1145
                0.4462  -2.7498e-003   3.5931e-004   3.4832e-003  -5.2792e+007   3.5797e+004   1.3758e+007    0.0000    0.1062    0.0001   -0.0000    0.1196
                0.4899  -2.3220e-003   3.0334e-004   3.5985e-003  -4.4579e+007   2.8896e+004   1.4214e+007    0.0000    0.0897    0.0001   -0.0000    0.1236
                0.5319  -1.9129e-003   2.4981e-004   3.6833e-003  -3.6724e+007   2.2296e+004   1.4549e+007    0.0000    0.0739    0.0001   -0.0000    0.1265
                0.5720  -1.5225e-003   1.9875e-004   3.7407e-003  -2.9231e+007   1.5998e+004   1.4776e+007    0.0000    0.0588    0.0000   -0.0000    0.1285
                0.6101  -1.1556e-003   1.5074e-004   3.7739e-003  -2.2186e+007   1.0062e+004   1.4907e+007    0.0000    0.0446    0.0000   -0.0000    0.1296
                0.6459  -8.2546e-004   1.0755e-004   3.7866e-003  -1.5848e+007   4.7227e+003   1.4957e+007    0.0000    0.0319    0.0000   -0.0000    0.1301
                0.6794  -5.1663e-004   6.7148e-005   3.7827e-003  -9.9194e+006  -6.0520e+002   1.4942e+007    0.0000    0.0200    0.0000    0.0000    0.1299
                0.7104  -2.4314e-004   3.1368e-005   3.7656e-003  -4.6690e+006  -5.0418e+003   1.4874e+007    0.0000    0.0094    0.0000    0.0000    0.1293
                0.7387   4.1712e-004  -5.4683e-005   3.7393e-003   8.0075e+006  -8.9359e+003   1.4770e+007    0.0238   -0.0000    0.0000    0.0000    0.1284
                0.7643   6.3575e-004  -8.3285e-005   3.7066e-003   1.2205e+007  -1.2467e+004   1.4641e+007    0.0362   -0.0000    0.0000    0.0000    0.1273
                0.7872   8.1414e-004  -1.0662e-004   3.6708e-003   1.5630e+007  -1.5351e+004   1.4500e+007    0.0464   -0.0000    0.0000    0.0000    0.1261
                0.8070   9.6818e-004  -1.2678e-004   3.6347e-003   1.8587e+007  -1.7836e+004   1.4357e+007    0.0552   -0.0000    0.0000    0.0001    0.1248
                0.8240   1.0975e-003  -1.4370e-004   3.6003e-003   2.1070e+007  -1.9926e+004   1.4221e+007    0.0625   -0.0000    0.0000    0.0001    0.1237
                0.8380   1.1986e-003  -1.5693e-004   3.5697e-003   2.3011e+007  -2.1559e+004   1.4100e+007    0.0683   -0.0000    0.0000    0.0001    0.1226
                0.8488   1.2775e-003  -1.6725e-004   3.5444e-003   2.4525e+007  -2.2829e+004   1.4000e+007    0.0728   -0.0000    0.0000    0.0001    0.1217
                0.8566   1.3365e-003  -1.7496e-004   3.5255e-003   2.5657e+007  -2.3776e+004   1.3926e+007    0.0761   -0.0000    0.0000    0.0001    0.1211
                0.8612   1.3730e-003  -1.7974e-004   3.5138e-003   2.6358e+007  -2.4363e+004   1.3879e+007    0.0782   -0.0000    0.0000    0.0001    0.1207
                0.8628   1.3852e-003  -1.8134e-004   3.5098e-003   2.6593e+007  -2.4560e+004   1.3864e+007    0.0789   -0.0000    0.0000    0.0001    0.1206

               lamina:  2     
              matName:  (TEP-core)
                     s           e11           e22           e12           s11           s22           s12   s11_fcT   s11_fcC   s22_fcT   s22_fcC   s12_fcS
                   (m)         (m/m)         (m/m)         (rad)          (Pa)          (Pa)          (Pa)       (-)       (-)       (-)       (-)       (-)
                0.0000  -5.9178e-003   7.7408e-004   8.6626e-004  -1.3344e+006  -2.7780e+005   8.4893e+004    0.0000    0.3110    0.0000    0.0648    0.0288
                0.0122  -5.8653e-003   7.6721e-004   9.6665e-004  -1.3226e+006  -2.7533e+005   9.4731e+004    0.0000    0.3083    0.0000    0.0642    0.0321
                0.0616  -5.5643e-003   7.2784e-004   1.3600e-003  -1.2547e+006  -2.6121e+005   1.3328e+005    0.0000    0.2925    0.0000    0.0609    0.0452
                0.1110  -5.2636e-003   6.8850e-004   1.7306e-003  -1.1869e+006  -2.4709e+005   1.6960e+005    0.0000    0.2767    0.0000    0.0576    0.0575
                0.1605  -4.8963e-003   6.4045e-004   2.0773e-003  -1.1041e+006  -2.2985e+005   2.0357e+005    0.0000    0.2574    0.0000    0.0536    0.0690
                0.2099  -4.5002e-003   5.8863e-004   2.3956e-003  -1.0148e+006  -2.1126e+005   2.3477e+005    0.0000    0.2365    0.0000    0.0492    0.0796
                0.2586  -4.1057e-003   5.3702e-004   2.6813e-003  -9.2580e+005  -1.9274e+005   2.6277e+005    0.0000    0.2158    0.0000    0.0449    0.0891
                0.3071  -3.6573e-003   4.7836e-004   2.9347e-003  -8.2470e+005  -1.7169e+005   2.8760e+005    0.0000    0.1922    0.0000    0.0400    0.0975
                0.3546  -3.2176e-003   4.2083e-004   3.1524e-003  -7.2555e+005  -1.5106e+005   3.0894e+005    0.0000    0.1691    0.0000    0.0352    0.1047
                0.4010  -2.7775e-003   3.6325e-004   3.3349e-003  -6.2630e+005  -1.3040e+005   3.2682e+005    0.0000    0.1460    0.0000    0.0304    0.1108
                0.4462  -2.3347e-003   3.0532e-004   3.4832e-003  -5.2645e+005  -1.0961e+005   3.4135e+005    0.0000    0.1227    0.0000    0.0256    0.1157
                0.4899  -1.9068e-003   2.4934e-004   3.5985e-003  -4.2996e+005  -8.9526e+004   3.5265e+005    0.0000    0.1002    0.0000    0.0209    0.1195
                0.5319  -1.4975e-003   1.9580e-004   3.6833e-003  -3.3768e+005  -7.0317e+004   3.6096e+005    0.0000    0.0787    0.0000    0.0164    0.1224
                0.5720  -1.1070e-003   1.4472e-004   3.7407e-003  -2.4963e+005  -5.1988e+004   3.6659e+005    0.0000    0.0582    0.0000    0.0121    0.1243
                0.6101  -7.3922e-004   9.6596e-005   3.7739e-003  -1.6669e+005  -3.4724e+004   3.6984e+005    0.0000    0.0389    0.0000    0.0081    0.1254
                0.6459  -4.0832e-004   5.3306e-005   3.7866e-003  -9.2080e+004  -1.9192e+004   3.7109e+005    0.0000    0.0215    0.0000    0.0045    0.1258
                0.6794   1.8819e-004  -2.4508e-005   3.7827e-003   4.2444e+004   8.8599e+003   3.7070e+005    0.0099   -0.0000    0.0021   -0.0000    0.1257
                0.7104   4.6374e-004  -6.0556e-005   3.7656e-003   1.0458e+005   2.1794e+004   3.6903e+005    0.0244   -0.0000    0.0051   -0.0000    0.1251
                0.7387   7.0543e-004  -9.2175e-005   3.7393e-003   1.5908e+005   3.3138e+004   3.6645e+005    0.0371   -0.0000    0.0077   -0.0000    0.1242
                0.7643   9.2477e-004  -1.2087e-004   3.7066e-003   2.0853e+005   4.3434e+004   3.6325e+005    0.0486   -0.0000    0.0101   -0.0000    0.1231
                0.7872   1.1040e-003  -1.4432e-004   3.6708e-003   2.4895e+005   5.1847e+004   3.5974e+005    0.0580   -0.0000    0.0121   -0.0000    0.1219
                0.8070   1.2583e-003  -1.6450e-004   3.6347e-003   2.8373e+005   5.9088e+004   3.5620e+005    0.0661   -0.0000    0.0138   -0.0000    0.1207
                0.8240   1.3881e-003  -1.8148e-004   3.6003e-003   3.1300e+005   6.5180e+004   3.5283e+005    0.0730   -0.0000    0.0152   -0.0000    0.1196
                0.8380   1.4896e-003  -1.9476e-004   3.5697e-003   3.3589e+005   6.9945e+004   3.4983e+005    0.0783   -0.0000    0.0163   -0.0000    0.1186
                0.8488   1.5682e-003  -2.0505e-004   3.5444e-003   3.5362e+005   7.3635e+004   3.4735e+005    0.0824   -0.0000    0.0172   -0.0000    0.1177
                0.8566   1.6266e-003  -2.1269e-004   3.5255e-003   3.6680e+005   7.6378e+004   3.4550e+005    0.0855   -0.0000    0.0178   -0.0000    0.1171
                0.8612   1.6629e-003  -2.1744e-004   3.5138e-003   3.7497e+005   7.8080e+004   3.4435e+005    0.0874   -0.0000    0.0182   -0.0000    0.1167
                0.8628   1.6751e-003  -2.1904e-004   3.5098e-003   3.7773e+005   7.8654e+004   3.4396e+005    0.0880   -0.0000    0.0183   -0.0000    0.1166

               lamina:  3     
              matName:  (blade-shell)
                     s           e11           e22           e12           s11           s22           s12   s11_fcT   s11_fcC   s22_fcT   s22_fcC   s12_fcS
                   (m)         (m/m)         (m/m)         (rad)          (Pa)          (Pa)          (Pa)       (-)       (-)       (-)       (-)       (-)
                0.0000  -5.6224e-003   7.3567e-004   8.6626e-004  -1.0794e+008   9.2933e+004   3.4217e+006    0.0000    0.2172    0.0003   -0.0000    0.0298
                0.0122  -5.5717e-003   7.2904e-004   9.6665e-004  -1.0697e+008   9.2103e+004   3.8183e+006    0.0000    0.2152    0.0003   -0.0000    0.0332
                0.0616  -5.2714e-003   6.8975e-004   1.3600e-003  -1.0120e+008   8.7255e+004   5.3720e+006    0.0000    0.2036    0.0003   -0.0000    0.0467
                0.1110  -4.9718e-003   6.5055e-004   1.7306e-003  -9.5447e+007   8.2414e+004   6.8358e+006    0.0000    0.1920    0.0002   -0.0000    0.0594
                0.1605  -4.6062e-003   6.0273e-004   2.0773e-003  -8.8430e+007   7.6506e+004   8.2053e+006    0.0000    0.1779    0.0002   -0.0000    0.0714
                0.2099  -4.2108e-003   5.5100e-004   2.3956e-003  -8.0839e+007   7.0124e+004   9.4627e+006    0.0000    0.1627    0.0002   -0.0000    0.0823
                0.2586  -3.8177e-003   4.9956e-004   2.6813e-003  -7.3291e+007   6.3773e+004   1.0591e+007    0.0000    0.1475    0.0002   -0.0000    0.0921
                0.3071  -3.3707e-003   4.4108e-004   2.9347e-003  -6.4709e+007   5.6554e+004   1.1592e+007    0.0000    0.1302    0.0002   -0.0000    0.1008
                0.3546  -2.9312e-003   3.8359e-004   3.1524e-003  -5.6273e+007   4.9465e+004   1.2452e+007    0.0000    0.1132    0.0001   -0.0000    0.1083
                0.4010  -2.4918e-003   3.2610e-004   3.3349e-003  -4.7837e+007   4.2373e+004   1.3173e+007    0.0000    0.0963    0.0001   -0.0000    0.1145
                0.4462  -2.0494e-003   2.6823e-004   3.4832e-003  -3.9344e+007   3.5236e+004   1.3758e+007    0.0000    0.0792    0.0001   -0.0000    0.1196
                0.4899  -1.6214e-003   2.1224e-004   3.5985e-003  -3.1128e+007   2.8334e+004   1.4214e+007    0.0000    0.0626    0.0001   -0.0000    0.1236
                0.5319  -1.2121e-003   1.5869e-004   3.6833e-003  -2.3270e+007   2.1734e+004   1.4549e+007    0.0000    0.0468    0.0001   -0.0000    0.1265
                0.5720  -8.2151e-004   1.0759e-004   3.7407e-003  -1.5771e+007   1.5436e+004   1.4776e+007    0.0000    0.0317    0.0000   -0.0000    0.1285
                0.6101  -4.5310e-004   5.9390e-005   3.7739e-003  -8.6983e+006   9.4994e+003   1.4907e+007    0.0000    0.0175    0.0000   -0.0000    0.1296
                0.6459   2.9546e-004  -3.8214e-005   3.7866e-003   5.6733e+006   4.1587e+003   1.4957e+007    0.0168   -0.0000    0.0000   -0.0000    0.1301
                0.6794   6.0595e-004  -7.8834e-005   3.7827e-003   1.1634e+007  -1.1700e+003   1.4942e+007    0.0345   -0.0000    0.0000    0.0000    0.1299
                0.7104   8.8272e-004  -1.1504e-004   3.7656e-003   1.6947e+007  -5.6082e+003   1.4874e+007    0.0503   -0.0000    0.0000    0.0000    0.1293
                0.7387   1.1250e-003  -1.4674e-004   3.7393e-003   2.1599e+007  -9.5032e+003   1.4770e+007    0.0641   -0.0000    0.0000    0.0000    0.1284
                0.7643   1.3454e-003  -1.7557e-004   3.7066e-003   2.5830e+007  -1.3036e+004   1.4641e+007    0.0766   -0.0000    0.0000    0.0000    0.1273
                0.7872   1.5259e-003  -1.9918e-004   3.6708e-003   2.9295e+007  -1.5921e+004   1.4500e+007    0.0869   -0.0000    0.0000    0.0000    0.1261
                0.8070   1.6804e-003  -2.1940e-004   3.6347e-003   3.2262e+007  -1.8407e+004   1.4357e+007    0.0957   -0.0000    0.0000    0.0001    0.1248
                0.8240   1.8109e-003  -2.3647e-004   3.6003e-003   3.4766e+007  -2.0497e+004   1.4221e+007    0.1032   -0.0000    0.0000    0.0001    0.1237
                0.8380   1.9130e-003  -2.4982e-004   3.5697e-003   3.6726e+007  -2.2132e+004   1.4100e+007    0.1090   -0.0000    0.0000    0.0001    0.1226
                0.8488   1.9912e-003  -2.6006e-004   3.5444e-003   3.8229e+007  -2.3401e+004   1.4000e+007    0.1134   -0.0000    0.0000    0.0001    0.1217
                0.8566   2.0489e-003  -2.6761e-004   3.5255e-003   3.9336e+007  -2.4347e+004   1.3926e+007    0.1167   -0.0000    0.0000    0.0001    0.1211
                0.8612   2.0848e-003  -2.7230e-004   3.5138e-003   4.0025e+007  -2.4934e+004   1.3879e+007    0.1188   -0.0000    0.0000    0.0001    0.1207
                0.8628   2.0970e-003  -2.7390e-004   3.5098e-003   4.0260e+007  -2.5131e+004   1.3864e+007    0.1195   -0.0000    0.0000    0.0001    0.1206

  Bottom:  panel  nNode   nLam     xc_St    xc_End         b         t         E_eff         G_eff      nu_eff     density  buckleCrit
            (-)    (-)    (-)       (-)       (-)       (m)       (m)          (Pa)          (Pa)         (-)    (kg/m^3)         (-)
              1     18      3    0.0000    0.2394    0.4148    0.0114   1.8762e+010   3.8611e+009      0.1301   1636.0632      0.0826
              2      9      5    0.2394    0.4606    0.3434    0.0187   6.1302e+010   4.2483e+009      0.1704   1585.2702      0.0012
              3     28      3    0.4606    1.0000    0.8559    0.0149   1.4346e+010   2.9650e+009      0.1308   1294.0984      0.1325

            panel:  1     
           lam_num    nPlies        tPly      fibAng     matID  matName
               (-)       (-)         (m)       (deg)       (-)  (-)
                 1         1    0.005545      0.0000         2  (blade-shell)
                 2         1    0.000262      0.0000         5  (LEP-core)
                 3         1    0.005545      0.0000         2  (blade-shell)

               lamina:  1     
              matName:  (blade-shell)
                     s           e11           e22           e12           s11           s22           s12   s11_fcT   s11_fcC   s22_fcT   s22_fcC   s12_fcS
                   (m)         (m/m)         (m/m)         (rad)          (Pa)          (Pa)          (Pa)       (-)       (-)       (-)       (-)       (-)
                0.0000   6.1154e-004  -7.9524e-005   6.5751e-003   1.1741e+007  -4.7054e+002   2.5972e+007    0.0348   -0.0000    0.0000    0.0000    0.2258
                0.0044   7.5524e-004  -9.8213e-005   6.5731e-003   1.4500e+007  -6.3055e+002   2.5964e+007    0.0430   -0.0000    0.0000    0.0000    0.2258
                0.0174   1.2077e-003  -1.5705e-004   6.5619e-003   2.3187e+007  -1.0974e+003   2.5919e+007    0.0688   -0.0000    0.0000    0.0000    0.2254
                0.0333   1.8018e-003  -2.3432e-004   6.5376e-003   3.4594e+007  -1.6467e+003   2.5823e+007    0.1027   -0.0000    0.0000    0.0000    0.2246
                0.0473   2.2184e-003  -2.8849e-004   6.5078e-003   4.2592e+007  -2.0249e+003   2.5706e+007    0.1264   -0.0000    0.0000    0.0000    0.2235
                0.0660   2.7102e-003  -3.5245e-004   6.4574e-003   5.2035e+007  -2.5322e+003   2.5507e+007    0.1544   -0.0000    0.0000    0.0000    0.2218
                0.0852   3.1313e-003  -4.0721e-004   6.3935e-003   6.0120e+007  -2.9528e+003   2.5254e+007    0.1784   -0.0000    0.0000    0.0000    0.2196
                0.1074   3.5327e-003  -4.5943e-004   6.3077e-003   6.7828e+007  -3.3855e+003   2.4915e+007    0.2013   -0.0000    0.0000    0.0000    0.2167
                0.1323   3.9796e-003  -5.1754e-004   6.1965e-003   7.6407e+007  -3.8582e+003   2.4476e+007    0.2267   -0.0000    0.0000    0.0000    0.2128
                0.1584   4.3215e-003  -5.6201e-004   6.0653e-003   8.2972e+007  -4.2208e+003   2.3958e+007    0.2462   -0.0000    0.0000    0.0000    0.2083
                0.1876   4.6908e-003  -6.1005e-004   5.9042e-003   9.0064e+007  -4.6258e+003   2.3322e+007    0.2673   -0.0000    0.0000    0.0000    0.2028
                0.2186   5.0337e-003  -6.5464e-004   5.7167e-003   9.6647e+007  -4.9963e+003   2.2581e+007    0.2868   -0.0000    0.0000    0.0000    0.1964
                0.2518   5.3275e-003  -6.9284e-004   5.5013e-003   1.0229e+008  -5.3184e+003   2.1730e+007    0.3035   -0.0000    0.0000    0.0000    0.1890
                0.2871   5.6419e-003  -7.3374e-004   5.2557e-003   1.0832e+008  -5.6626e+003   2.0760e+007    0.3214   -0.0000    0.0000    0.0000    0.1805
                0.3241   5.8741e-003  -7.6394e-004   4.9845e-003   1.1278e+008  -5.9157e+003   1.9689e+007    0.3347   -0.0000    0.0000    0.0000    0.1712
                0.3630   6.0969e-003  -7.9291e-004   4.6851e-003   1.1706e+008  -6.1620e+003   1.8506e+007    0.3474   -0.0000    0.0000    0.0000    0.1609
                0.4037   6.3046e-003  -8.1993e-004   4.3597e-003   1.2105e+008  -6.3912e+003   1.7221e+007    0.3592   -0.0000    0.0000    0.0000    0.1497
                0.4148   6.3383e-003  -8.2431e-004   4.2687e-003   1.2170e+008  -6.4252e+003   1.6862e+007    0.3611   -0.0000    0.0000    0.0000    0.1466

               lamina:  2     
              matName:  (LEP-core)
                     s           e11           e22           e12           s11           s22           s12   s11_fcT   s11_fcC   s22_fcT   s22_fcC   s12_fcS
                   (m)         (m/m)         (m/m)         (rad)          (Pa)          (Pa)          (Pa)       (-)       (-)       (-)       (-)       (-)
                0.0000   4.2684e-004  -5.5513e-005   6.5751e-003   9.6273e+004   2.0112e+004   6.4436e+005    0.0224   -0.0000    0.0047   -0.0000    0.2184
                0.0044   5.7054e-004  -7.4202e-005   6.5731e-003   1.2868e+005   2.6883e+004   6.4416e+005    0.0300   -0.0000    0.0063   -0.0000    0.2184
                0.0174   9.9050e-004  -1.2882e-004   6.5619e-003   2.2341e+005   4.6672e+004   6.4306e+005    0.0521   -0.0000    0.0109   -0.0000    0.2180
                0.0333   1.4861e-003  -1.9328e-004   6.5376e-003   3.3520e+005   7.0026e+004   6.4068e+005    0.0781   -0.0000    0.0163   -0.0000    0.2172
                0.0473   1.8275e-003  -2.3768e-004   6.5078e-003   4.1220e+005   8.6112e+004   6.3776e+005    0.0961   -0.0000    0.0201   -0.0000    0.2162
                0.0660   2.2839e-003  -2.9704e-004   6.4574e-003   5.1513e+005   1.0762e+005   6.3282e+005    0.1201   -0.0000    0.0251   -0.0000    0.2145
                0.0852   2.6626e-003  -3.4629e-004   6.3935e-003   6.0055e+005   1.2546e+005   6.2657e+005    0.1400   -0.0000    0.0292   -0.0000    0.2124
                0.1074   3.0515e-003  -3.9687e-004   6.3077e-003   6.8826e+005   1.4378e+005   6.1816e+005    0.1604   -0.0000    0.0335   -0.0000    0.2095
                0.1323   3.4765e-003  -4.5215e-004   6.1965e-003   7.8413e+005   1.6381e+005   6.0726e+005    0.1828   -0.0000    0.0382   -0.0000    0.2059
                0.1584   3.8025e-003  -4.9454e-004   6.0653e-003   8.5764e+005   1.7917e+005   5.9440e+005    0.1999   -0.0000    0.0418   -0.0000    0.2015
                0.1876   4.1663e-003  -5.4186e-004   5.9042e-003   9.3971e+005   1.9631e+005   5.7861e+005    0.2190   -0.0000    0.0458   -0.0000    0.1961
                0.2186   4.4993e-003  -5.8517e-004   5.7167e-003   1.0148e+006   2.1200e+005   5.6023e+005    0.2366   -0.0000    0.0494   -0.0000    0.1899
                0.2518   4.7887e-003  -6.2280e-004   5.5013e-003   1.0801e+006   2.2564e+005   5.3913e+005    0.2518   -0.0000    0.0526   -0.0000    0.1828
                0.2871   5.0979e-003  -6.6302e-004   5.2557e-003   1.1498e+006   2.4021e+005   5.1505e+005    0.2680   -0.0000    0.0560   -0.0000    0.1746
                0.3241   5.3253e-003  -6.9259e-004   4.9845e-003   1.2011e+006   2.5092e+005   4.8848e+005    0.2800   -0.0000    0.0585   -0.0000    0.1656
                0.3630   5.5466e-003  -7.2137e-004   4.6851e-003   1.2510e+006   2.6135e+005   4.5914e+005    0.2916   -0.0000    0.0609   -0.0000    0.1556
                0.4037   5.7524e-003  -7.4814e-004   4.3597e-003   1.2975e+006   2.7105e+005   4.2725e+005    0.3024   -0.0000    0.0632   -0.0000    0.1448
                0.4148   5.7830e-003  -7.5212e-004   4.2687e-003   1.3043e+006   2.7249e+005   4.1834e+005    0.3040   -0.0000    0.0635   -0.0000    0.1418

               lamina:  3     
              matName:  (blade-shell)
                     s           e11           e22           e12           s11           s22           s12   s11_fcT   s11_fcC   s22_fcT   s22_fcC   s12_fcS
                   (m)         (m/m)         (m/m)         (rad)          (Pa)          (Pa)          (Pa)       (-)       (-)       (-)       (-)       (-)
                0.0000   4.1811e-004  -5.4378e-005   6.5751e-003   8.0276e+006  -4.7043e+002   2.5972e+007    0.0238   -0.0000    0.0000    0.0000    0.2258
                0.0044   5.6181e-004  -7.3067e-005   6.5731e-003   1.0787e+007  -6.3044e+002   2.5964e+007    0.0320   -0.0000    0.0000    0.0000    0.2258
                0.0174   9.8024e-004  -1.2749e-004   6.5619e-003   1.8820e+007  -1.0972e+003   2.5919e+007    0.0558   -0.0000    0.0000    0.0000    0.2254
                0.0333   1.4712e-003  -1.9134e-004   6.5376e-003   2.8247e+007  -1.6465e+003   2.5823e+007    0.0838   -0.0000    0.0000    0.0000    0.2246
                0.0473   1.8091e-003  -2.3528e-004   6.5078e-003   3.4734e+007  -2.0247e+003   2.5706e+007    0.1031   -0.0000    0.0000    0.0000    0.2235
                0.0660   2.2637e-003  -2.9442e-004   6.4574e-003   4.3464e+007  -2.5319e+003   2.5507e+007    0.1290   -0.0000    0.0000    0.0000    0.2218
                0.0852   2.6405e-003  -3.4341e-004   6.3935e-003   5.0697e+007  -2.9525e+003   2.5254e+007    0.1504   -0.0000    0.0000    0.0000    0.2196
                0.1074   3.0288e-003  -3.9391e-004   6.3077e-003   5.8152e+007  -3.3852e+003   2.4915e+007    0.1726   -0.0000    0.0000    0.0000    0.2167
                0.1323   3.4528e-003  -4.4906e-004   6.1965e-003   6.6292e+007  -3.8579e+003   2.4476e+007    0.1967   -0.0000    0.0000    0.0000    0.2128
                0.1584   3.7779e-003  -4.9135e-004   6.0653e-003   7.2536e+007  -4.2204e+003   2.3958e+007    0.2152   -0.0000    0.0000    0.0000    0.2083
                0.1876   4.1415e-003  -5.3864e-004   5.9042e-003   7.9517e+007  -4.6255e+003   2.3322e+007    0.2360   -0.0000    0.0000    0.0000    0.2028
                0.2186   4.4740e-003  -5.8188e-004   5.7167e-003   8.5901e+007  -4.9960e+003   2.2581e+007    0.2549   -0.0000    0.0000    0.0000    0.1964
                0.2518   4.7632e-003  -6.1949e-004   5.5013e-003   9.1453e+007  -5.3181e+003   2.1730e+007    0.2714   -0.0000    0.0000    0.0000    0.1890
                0.2871   5.0722e-003  -6.5968e-004   5.2557e-003   9.7386e+007  -5.6623e+003   2.0760e+007    0.2890   -0.0000    0.0000    0.0000    0.1805
                0.3241   5.2993e-003  -6.8922e-004   4.9845e-003   1.0175e+008  -5.9153e+003   1.9689e+007    0.3019   -0.0000    0.0000    0.0000    0.1712
                0.3630   5.5205e-003  -7.1799e-004   4.6851e-003   1.0599e+008  -6.1617e+003   1.8506e+007    0.3145   -0.0000    0.0000    0.0000    0.1609
                0.4037   5.7263e-003  -7.4475e-004   4.3597e-003   1.0994e+008  -6.3909e+003   1.7221e+007    0.3262   -0.0000    0.0000    0.0000    0.1497
                0.4148   5.7567e-003  -7.4870e-004   4.2687e-003   1.1053e+008  -6.4248e+003   1.6862e+007    0.3280   -0.0000    0.0000    0.0000    0.1466

            panel:  2     
           lam_num    nPlies        tPly      fibAng     matID  matName
               (-)       (-)         (m)       (deg)       (-)  (-)
                 1         1    0.005545      0.0000         2  (blade-shell)
                 2         1    0.003794      0.0000         3  (spar-uni)
                 3         1    0.000047      0.0000         4  (spar-core)
                 4         1    0.003794      0.0000         3  (spar-uni)
                 5         1    0.005545      0.0000         2  (blade-shell)

               lamina:  1     
              matName:  (blade-shell)
                     s           e11           e22           e12           s11           s22           s12   s11_fcT   s11_fcC   s22_fcT   s22_fcC   s12_fcS
                   (m)         (m/m)         (m/m)         (rad)          (Pa)          (Pa)          (Pa)       (-)       (-)       (-)       (-)       (-)
                0.0000   7.8845e-003  -1.2649e-003   5.2032e-003   1.5077e+008  -4.6857e+006   2.0553e+007    0.4474   -0.0000    0.0000    0.0139    0.1787
                0.0308   7.9697e-003  -1.2794e-003   4.4638e-003   1.5240e+008  -4.7529e+006   1.7632e+007    0.4522   -0.0000    0.0000    0.0141    0.1533
                0.0741   8.0940e-003  -1.3005e-003   3.3996e-003   1.5478e+008  -4.8481e+006   1.3429e+007    0.4593   -0.0000    0.0000    0.0144    0.1168
                0.1186   8.1399e-003  -1.3082e-003   2.2921e-003   1.5565e+008  -4.8821e+006   9.0536e+006    0.4619   -0.0000    0.0000    0.0145    0.0787
                0.1644   8.1242e-003  -1.3055e-003   1.1448e-003   1.5535e+008  -4.8698e+006   4.5220e+006    0.4610   -0.0000    0.0000    0.0145    0.0393
                0.2110   8.1056e-003  -1.3024e-003   2.0000e-005   1.5500e+008  -4.8572e+006   7.9001e+004    0.4599   -0.0000    0.0000    0.0144    0.0007
                0.2585   7.9442e-003  -1.2752e-003   1.1957e-003   1.5191e+008  -4.7349e+006   4.7231e+006    0.4508   -0.0000    0.0000    0.0141    0.0411
                0.3070   7.7774e-003  -1.2469e-003   2.3637e-003   1.4873e+008  -4.6051e+006   9.3365e+006    0.4413   -0.0000    0.0000    0.0137    0.0812
                0.3434   7.6258e-003  -1.2211e-003   3.2184e-003   1.4583e+008  -4.4876e+006   1.2713e+007    0.4327   -0.0000    0.0000    0.0133    0.1105

               lamina:  2     
              matName:  (spar-uni)
                     s           e11           e22           e12           s11           s22           s12   s11_fcT   s11_fcC   s22_fcT   s22_fcC   s12_fcS
                   (m)         (m/m)         (m/m)         (rad)          (Pa)          (Pa)          (Pa)       (-)       (-)       (-)       (-)       (-)
                0.0000   6.5575e-003  -1.0853e-003   5.2032e-003   8.0900e+008   7.8200e+006   2.4507e+007    0.4088   -0.0000    0.1306   -0.0000    0.2379
                0.0308   6.6427e-003  -1.0998e-003   4.4638e-003   8.1951e+008   7.9182e+006   2.1025e+007    0.4141   -0.0000    0.1322   -0.0000    0.2041
                0.0741   6.7646e-003  -1.1205e-003   3.3996e-003   8.3455e+008   8.0592e+006   1.6012e+007    0.4217   -0.0000    0.1345   -0.0000    0.1555
                0.1186   6.8086e-003  -1.1279e-003   2.2921e-003   8.3997e+008   8.1102e+006   1.0796e+007    0.4244   -0.0000    0.1354   -0.0000    0.1048
                0.1644   6.7929e-003  -1.1253e-003   1.1448e-003   8.3804e+008   8.0921e+006   5.3920e+006    0.4235   -0.0000    0.1351   -0.0000    0.0523
                0.2110   6.7761e-003  -1.1225e-003   2.0000e-005   8.3596e+008   8.0724e+006   9.4202e+004    0.4224   -0.0000    0.1348   -0.0000    0.0009
                0.2585   6.6191e-003  -1.0958e-003   1.1957e-003   8.1659e+008   7.8906e+006   5.6318e+006    0.4126   -0.0000    0.1317   -0.0000    0.0547
                0.3070   6.4537e-003  -1.0677e-003   2.3637e-003   7.9620e+008   7.6998e+006   1.1133e+007    0.4023   -0.0000    0.1285   -0.0000    0.1081
                0.3434   6.3039e-003  -1.0422e-003   3.2184e-003   7.7772e+008   7.5268e+006   1.5159e+007    0.3930   -0.0000    0.1257   -0.0000    0.1472

               lamina:  3     
              matName:  (spar-core)
                     s           e11           e22           e12           s11           s22           s12   s11_fcT   s11_fcC   s22_fcT   s22_fcC   s12_fcS
                   (m)         (m/m)         (m/m)         (rad)          (Pa)          (Pa)          (Pa)       (-)       (-)       (-)       (-)       (-)
                0.0000   5.6495e-003  -9.6236e-004   5.2032e-003   1.2565e+006   2.1256e+005   5.0992e+005    0.2929   -0.0000    0.0495   -0.0000    0.1729
                0.0308   5.7347e-003  -9.7687e-004   4.4638e-003   1.2755e+006   2.1577e+005   4.3746e+005    0.2973   -0.0000    0.0503   -0.0000    0.1483
                0.0741   5.8550e-003  -9.9737e-004   3.3996e-003   1.3022e+006   2.2029e+005   3.3316e+005    0.3036   -0.0000    0.0513   -0.0000    0.1129
                0.1186   5.8976e-003  -1.0046e-003   2.2921e-003   1.3117e+006   2.2190e+005   2.2462e+005    0.3058   -0.0000    0.0517   -0.0000    0.0761
                0.1644   5.8820e-003  -1.0020e-003   1.1448e-003   1.3082e+006   2.2131e+005   1.1219e+005    0.3050   -0.0000    0.0516   -0.0000    0.0380
                0.2110   5.8664e-003  -9.9932e-004   2.0000e-005   1.3048e+006   2.2072e+005   1.9600e+003    0.3041   -0.0000    0.0515   -0.0000    0.0007
                0.2585   5.7124e-003  -9.7307e-004   1.1957e-003   1.2705e+006   2.1493e+005   1.1718e+005    0.2962   -0.0000    0.0501   -0.0000    0.0397
                0.3070   5.5480e-003  -9.4507e-004   2.3637e-003   1.2340e+006   2.0874e+005   2.3164e+005    0.2876   -0.0000    0.0487   -0.0000    0.0785
                0.3434   5.3994e-003  -9.1975e-004   3.2184e-003   1.2009e+006   2.0315e+005   3.1540e+005    0.2799   -0.0000    0.0474   -0.0000    0.1069

               lamina:  4     
              matName:  (spar-uni)
                     s           e11           e22           e12           s11           s22           s12   s11_fcT   s11_fcC   s22_fcT   s22_fcC   s12_fcS
                   (m)         (m/m)         (m/m)         (rad)          (Pa)          (Pa)          (Pa)       (-)       (-)       (-)       (-)       (-)
                0.0000   5.6383e-003  -9.6084e-004   5.2032e-003   6.9552e+008   6.4952e+006   2.4507e+007    0.3515   -0.0000    0.1084   -0.0000    0.2379
                0.0308   5.7235e-003  -9.7536e-004   4.4638e-003   7.0603e+008   6.5933e+006   2.1025e+007    0.3568   -0.0000    0.1101   -0.0000    0.2041
                0.0741   5.8437e-003  -9.9585e-004   3.3996e-003   7.2087e+008   6.7319e+006   1.6012e+007    0.3643   -0.0000    0.1124   -0.0000    0.1555
                0.1186   5.8864e-003  -1.0031e-003   2.2921e-003   7.2613e+008   6.7811e+006   1.0796e+007    0.3669   -0.0000    0.1132   -0.0000    0.1048
                0.1644   5.8707e-003  -1.0004e-003   1.1448e-003   7.2419e+008   6.7630e+006   5.3920e+006    0.3659   -0.0000    0.1129   -0.0000    0.0523
                0.2110   5.8551e-003  -9.9779e-004   2.0000e-005   7.2227e+008   6.7451e+006   9.4202e+004    0.3650   -0.0000    0.1126   -0.0000    0.0009
                0.2585   5.7012e-003  -9.7156e-004   1.1957e-003   7.0328e+008   6.5677e+006   5.6318e+006    0.3554   -0.0000    0.1096   -0.0000    0.0547
                0.3070   5.5368e-003  -9.4356e-004   2.3637e-003   6.8301e+008   6.3783e+006   1.1133e+007    0.3451   -0.0000    0.1065   -0.0000    0.1081
                0.3434   5.3882e-003  -9.1824e-004   3.2184e-003   6.6468e+008   6.2071e+006   1.5159e+007    0.3359   -0.0000    0.1036   -0.0000    0.1472

               lamina:  5     
              matName:  (blade-shell)
                     s           e11           e22           e12           s11           s22           s12   s11_fcT   s11_fcC   s22_fcT   s22_fcC   s12_fcS
                   (m)         (m/m)         (m/m)         (rad)          (Pa)          (Pa)          (Pa)       (-)       (-)       (-)       (-)       (-)
                0.0000   4.7303e-003  -8.3793e-004   5.2032e-003   9.0255e+007  -4.3551e+006   2.0553e+007    0.2678   -0.0000    0.0000    0.0129    0.1787
                0.0308   4.8154e-003  -8.5244e-004   4.4638e-003   9.1882e+007  -4.4223e+006   1.7632e+007    0.2726   -0.0000    0.0000    0.0131    0.1533
                0.0741   4.9341e-003  -8.7271e-004   3.3996e-003   9.4147e+007  -4.5169e+006   1.3429e+007    0.2794   -0.0000    0.0000    0.0134    0.1168
                0.1186   4.9754e-003  -8.7980e-004   2.2921e-003   9.4936e+007  -4.5504e+006   9.0536e+006    0.2817   -0.0000    0.0000    0.0135    0.0787
                0.1644   4.9598e-003  -8.7713e-004   1.1448e-003   9.4637e+007  -4.5381e+006   4.5220e+006    0.2808   -0.0000    0.0000    0.0135    0.0393
                0.2110   4.9454e-003  -8.7465e-004   2.0000e-005   9.4364e+007  -4.5259e+006   7.9001e+004    0.2800   -0.0000    0.0000    0.0134    0.0007
                0.2585   4.7944e-003  -8.4881e-004   1.1957e-003   9.1480e+007  -4.4048e+006   4.7231e+006    0.2715   -0.0000    0.0000    0.0131    0.0411
                0.3070   4.6311e-003  -8.2096e-004   2.3637e-003   8.8362e+007  -4.2753e+006   9.3365e+006    0.2622   -0.0000    0.0000    0.0127    0.0812
                0.3434   4.4837e-003  -7.9580e-004   3.2184e-003   8.5547e+007  -4.1583e+006   1.2713e+007    0.2538   -0.0000    0.0000    0.0123    0.1105

            panel:  3     
           lam_num    nPlies        tPly      fibAng     matID  matName
               (-)       (-)         (m)       (deg)       (-)  (-)
                 1         1    0.005545      0.0000         2  (blade-shell)
                 2         1    0.003810      0.0000         6  (TEP-core)
                 3         1    0.005545      0.0000         2  (blade-shell)

               lamina:  1     
              matName:  (blade-shell)
                     s           e11           e22           e12           s11           s22           s12   s11_fcT   s11_fcC   s22_fcT   s22_fcC   s12_fcS
                   (m)         (m/m)         (m/m)         (rad)          (Pa)          (Pa)          (Pa)       (-)       (-)       (-)       (-)       (-)
                0.0000   6.0368e-003  -7.8932e-004   9.1832e-005   1.1590e+008  -8.8497e+004   3.6274e+005    0.3439   -0.0000    0.0000    0.0003    0.0032
                0.0123   5.9840e-003  -7.8241e-004   4.5715e-006   1.1488e+008  -8.7687e+004   1.8058e+004    0.3409   -0.0000    0.0000    0.0003    0.0002
                0.0619   5.7080e-003  -7.4631e-004   3.8168e-004   1.0958e+008  -8.3249e+004   1.5076e+006    0.3252   -0.0000    0.0000    0.0002    0.0131
                0.1114   5.4318e-003  -7.1017e-004   7.3992e-004   1.0428e+008  -7.8814e+004   2.9227e+006    0.3094   -0.0000    0.0000    0.0002    0.0254
                0.1610   5.1111e-003  -6.6821e-004   1.0781e-003   9.8123e+007  -7.3673e+004   4.2583e+006    0.2912   -0.0000    0.0000    0.0002    0.0370
                0.2103   4.7729e-003  -6.2397e-004   1.3927e-003   9.1631e+007  -6.8230e+004   5.5011e+006    0.2719   -0.0000    0.0000    0.0002    0.0478
                0.2591   4.4373e-003  -5.8006e-004   1.6809e-003   8.5187e+007  -6.2831e+004   6.6397e+006    0.2528   -0.0000    0.0000    0.0002    0.0577
                0.3073   4.0826e-003  -5.3367e-004   1.9426e-003   7.8379e+007  -5.7126e+004   7.6732e+006    0.2326   -0.0000    0.0000    0.0002    0.0667
                0.3545   3.7358e-003  -4.8829e-004   2.1764e-003   7.1720e+007  -5.1529e+004   8.5968e+006    0.2128   -0.0000    0.0000    0.0002    0.0748
                0.4006   3.4028e-003  -4.4472e-004   2.3827e-003   6.5327e+007  -4.6152e+004   9.4116e+006    0.1938   -0.0000    0.0000    0.0001    0.0818
                0.4453   3.0864e-003  -4.0333e-004   2.5626e-003   5.9254e+007  -4.1046e+004   1.0122e+007    0.1758   -0.0000    0.0000    0.0001    0.0880
                0.4885   2.7814e-003  -3.6343e-004   2.7181e-003   5.3397e+007  -3.6107e+004   1.0736e+007    0.1584   -0.0000    0.0000    0.0001    0.0934
                0.5298   2.5210e-003  -3.2937e-004   2.8507e-003   4.8399e+007  -3.1884e+004   1.1260e+007    0.1436   -0.0000    0.0000    0.0001    0.0979
                0.5693   2.2803e-003  -2.9787e-004   2.9634e-003   4.3778e+007  -2.7992e+004   1.1705e+007    0.1299   -0.0000    0.0000    0.0001    0.1018
                0.6067   2.0614e-003  -2.6923e-004   3.0586e-003   3.9575e+007  -2.4429e+004   1.2082e+007    0.1174   -0.0000    0.0000    0.0001    0.1051
                0.6418   1.9002e-003  -2.4815e-004   3.1387e-003   3.6482e+007  -2.1806e+004   1.2398e+007    0.1083   -0.0000    0.0000    0.0001    0.1078
                0.6746   1.7493e-003  -2.2840e-004   3.2065e-003   3.3584e+007  -1.9356e+004   1.2666e+007    0.0997   -0.0000    0.0000    0.0001    0.1101
                0.7050   1.6405e-003  -2.1416e-004   3.2640e-003   3.1495e+007  -1.7574e+004   1.2893e+007    0.0935   -0.0000    0.0000    0.0001    0.1121
                0.7327   1.5665e-003  -2.0449e-004   3.3130e-003   3.0075e+007  -1.6370e+004   1.3086e+007    0.0892   -0.0000    0.0000    0.0000    0.1138
                0.7579   1.4998e-003  -1.9575e-004   3.3553e-003   2.8794e+007  -1.5277e+004   1.3253e+007    0.0854   -0.0000    0.0000    0.0000    0.1152
                0.7804   1.4861e-003  -1.9396e-004   3.3919e-003   2.8530e+007  -1.5046e+004   1.3398e+007    0.0847   -0.0000    0.0000    0.0000    0.1165
                0.7999   1.4788e-003  -1.9301e-004   3.4235e-003   2.8391e+007  -1.4928e+004   1.3523e+007    0.0842   -0.0000    0.0000    0.0000    0.1176
                0.8167   1.4833e-003  -1.9360e-004   3.4509e-003   2.8477e+007  -1.5006e+004   1.3631e+007    0.0845   -0.0000    0.0000    0.0000    0.1185
                0.8306   1.5141e-003  -1.9763e-004   3.4739e-003   2.9069e+007  -1.5517e+004   1.3722e+007    0.0863   -0.0000    0.0000    0.0000    0.1193
                0.8415   1.5380e-003  -2.0075e-004   3.4924e-003   2.9527e+007  -1.5920e+004   1.3795e+007    0.0876   -0.0000    0.0000    0.0000    0.1200
                0.8495   1.5693e-003  -2.0485e-004   3.5066e-003   3.0128e+007  -1.6477e+004   1.3851e+007    0.0894   -0.0000    0.0000    0.0000    0.1204
                0.8544   1.5947e-003  -2.0817e-004   3.5153e-003   3.0615e+007  -1.6922e+004   1.3885e+007    0.0908   -0.0000    0.0000    0.0001    0.1207
                0.8559   1.6036e-003  -2.0934e-004   3.5181e-003   3.0786e+007  -1.7065e+004   1.3897e+007    0.0914   -0.0000    0.0000    0.0001    0.1208

               lamina:  2     
              matName:  (TEP-core)
                     s           e11           e22           e12           s11           s22           s12   s11_fcT   s11_fcC   s22_fcT   s22_fcC   s12_fcS
                   (m)         (m/m)         (m/m)         (rad)          (Pa)          (Pa)          (Pa)       (-)       (-)       (-)       (-)       (-)
                0.0000   5.6067e-003  -7.3338e-004   9.1832e-005   1.2643e+006   2.6320e+005   8.9996e+003    0.2947   -0.0000    0.0614   -0.0000    0.0031
                0.0123   5.5559e-003  -7.2674e-004   4.5715e-006   1.2528e+006   2.6081e+005   4.4801e+002    0.2920   -0.0000    0.0608   -0.0000    0.0002
                0.0619   5.2806e-003  -6.9072e-004   3.8168e-004   1.1907e+006   2.4789e+005   3.7404e+004    0.2776   -0.0000    0.0578   -0.0000    0.0127
                0.1114   5.0053e-003  -6.5470e-004   7.3992e-004   1.1286e+006   2.3497e+005   7.2512e+004    0.2631   -0.0000    0.0548   -0.0000    0.0246
                0.1610   4.6861e-003  -6.1294e-004   1.0781e-003   1.0567e+006   2.1998e+005   1.0565e+005    0.2463   -0.0000    0.0513   -0.0000    0.0358
                0.2103   4.3484e-003  -5.6877e-004   1.3927e-003   9.8053e+005   2.0413e+005   1.3648e+005    0.2286   -0.0000    0.0476   -0.0000    0.0463
                0.2591   4.0134e-003  -5.2495e-004   1.6809e-003   9.0500e+005   1.8841e+005   1.6473e+005    0.2110   -0.0000    0.0439   -0.0000    0.0558
                0.3073   3.6595e-003  -4.7864e-004   1.9426e-003   8.2518e+005   1.7180e+005   1.9037e+005    0.1923   -0.0000    0.0400   -0.0000    0.0645
                0.3545   3.3125e-003  -4.3324e-004   2.1764e-003   7.4693e+005   1.5551e+005   2.1329e+005    0.1741   -0.0000    0.0362   -0.0000    0.0723
                0.4006   2.9791e-003  -3.8963e-004   2.3827e-003   6.7177e+005   1.3986e+005   2.3350e+005    0.1566   -0.0000    0.0326   -0.0000    0.0792
                0.4453   2.6625e-003  -3.4822e-004   2.5626e-003   6.0039e+005   1.2500e+005   2.5114e+005    0.1400   -0.0000    0.0291   -0.0000    0.0851
                0.4885   2.3565e-003  -3.0818e-004   2.7181e-003   5.3139e+005   1.1064e+005   2.6637e+005    0.1239   -0.0000    0.0258   -0.0000    0.0903
                0.5298   2.0950e-003  -2.7397e-004   2.8507e-003   4.7241e+005   9.8364e+004   2.7936e+005    0.1101   -0.0000    0.0229   -0.0000    0.0947
                0.5693   1.8538e-003  -2.4241e-004   2.9634e-003   4.1802e+005   8.7041e+004   2.9041e+005    0.0974   -0.0000    0.0203   -0.0000    0.0984
                0.6067   1.6333e-003  -2.1357e-004   3.0586e-003   3.6831e+005   7.6693e+004   2.9975e+005    0.0859   -0.0000    0.0179   -0.0000    0.1016
                0.6418   1.4710e-003  -1.9233e-004   3.1387e-003   3.3170e+005   6.9073e+004   3.0759e+005    0.0773   -0.0000    0.0161   -0.0000    0.1043
                0.6746   1.3193e-003  -1.7248e-004   3.2065e-003   2.9749e+005   6.1951e+004   3.1424e+005    0.0693   -0.0000    0.0144   -0.0000    0.1065
                0.7050   1.2091e-003  -1.5807e-004   3.2640e-003   2.7266e+005   5.6782e+004   3.1987e+005    0.0636   -0.0000    0.0132   -0.0000    0.1084
                0.7327   1.1346e-003  -1.4832e-004   3.3130e-003   2.5586e+005   5.3285e+004   3.2468e+005    0.0596   -0.0000    0.0124   -0.0000    0.1101
                0.7579   1.0671e-003  -1.3949e-004   3.3553e-003   2.4063e+005   5.0115e+004   3.2882e+005    0.0561   -0.0000    0.0117   -0.0000    0.1115
                0.7804   1.0529e-003  -1.3763e-004   3.3919e-003   2.3743e+005   4.9448e+004   3.3240e+005    0.0553   -0.0000    0.0115   -0.0000    0.1127
                0.7999   1.0456e-003  -1.3667e-004   3.4235e-003   2.3578e+005   4.9105e+004   3.3550e+005    0.0550   -0.0000    0.0114   -0.0000    0.1137
                0.8167   1.0503e-003  -1.3729e-004   3.4509e-003   2.3685e+005   4.9328e+004   3.3819e+005    0.0552   -0.0000    0.0115   -0.0000    0.1146
                0.8306   1.0819e-003  -1.4142e-004   3.4739e-003   2.4396e+005   5.0808e+004   3.4045e+005    0.0569   -0.0000    0.0118   -0.0000    0.1154
                0.8415   1.1066e-003  -1.4465e-004   3.4924e-003   2.4953e+005   5.1968e+004   3.4226e+005    0.0582   -0.0000    0.0121   -0.0000    0.1160
                0.8495   1.1404e-003  -1.4908e-004   3.5066e-003   2.5717e+005   5.3558e+004   3.4364e+005    0.0599   -0.0000    0.0125   -0.0000    0.1165
                0.8544   1.1675e-003  -1.5263e-004   3.5153e-003   2.6328e+005   5.4829e+004   3.4450e+005    0.0614   -0.0000    0.0128   -0.0000    0.1168
                0.8559   1.1764e-003  -1.5379e-004   3.5181e-003   2.6528e+005   5.5247e+004   3.4478e+005    0.0618   -0.0000    0.0129   -0.0000    0.1169

               lamina:  3     
              matName:  (blade-shell)
                     s           e11           e22           e12           s11           s22           s12   s11_fcT   s11_fcC   s22_fcT   s22_fcC   s12_fcS
                   (m)         (m/m)         (m/m)         (rad)          (Pa)          (Pa)          (Pa)       (-)       (-)       (-)       (-)       (-)
                0.0000   5.3111e-003  -6.9495e-004   9.1832e-005   1.0196e+008  -8.7916e+004   3.6274e+005    0.3026   -0.0000    0.0000    0.0003    0.0032
                0.0123   5.2618e-003  -6.8849e-004   4.5715e-006   1.0101e+008  -8.7108e+004   1.8058e+004    0.2997   -0.0000    0.0000    0.0003    0.0002
                0.0619   4.9868e-003  -6.5252e-004   3.8168e-004   9.5736e+007  -8.2671e+004   1.5076e+006    0.2841   -0.0000    0.0000    0.0002    0.0131
                0.1114   4.7122e-003  -6.1659e-004   7.3992e-004   9.0464e+007  -7.8237e+004   2.9227e+006    0.2684   -0.0000    0.0000    0.0002    0.0254
                0.1610   4.3940e-003  -5.7496e-004   1.0781e-003   8.4355e+007  -7.3098e+004   4.2583e+006    0.2503   -0.0000    0.0000    0.0002    0.0370
                0.2103   4.0567e-003  -5.3084e-004   1.3927e-003   7.7880e+007  -6.7656e+004   5.5011e+006    0.2311   -0.0000    0.0000    0.0002    0.0478
                0.2591   3.7222e-003  -4.8708e-004   1.6809e-003   7.1458e+007  -6.2258e+004   6.6397e+006    0.2120   -0.0000    0.0000    0.0002    0.0577
                0.3073   3.3687e-003  -4.4083e-004   1.9426e-003   6.4672e+007  -5.6554e+004   7.6732e+006    0.1919   -0.0000    0.0000    0.0002    0.0667
                0.3545   3.0216e-003  -3.9542e-004   2.1764e-003   5.8008e+007  -5.0957e+004   8.5968e+006    0.1721   -0.0000    0.0000    0.0002    0.0748
                0.4006   2.6880e-003  -3.5177e-004   2.3827e-003   5.1604e+007  -4.5579e+004   9.4116e+006    0.1531   -0.0000    0.0000    0.0001    0.0818
                0.4453   2.3713e-003  -3.1034e-004   2.5626e-003   4.5524e+007  -4.0473e+004   1.0122e+007    0.1351   -0.0000    0.0000    0.0001    0.0880
                0.4885   2.0646e-003  -2.7022e-004   2.7181e-003   3.9637e+007  -3.5533e+004   1.0736e+007    0.1176   -0.0000    0.0000    0.0001    0.0934
                0.5298   1.8023e-003  -2.3590e-004   2.8507e-003   3.4600e+007  -3.1308e+004   1.1260e+007    0.1027   -0.0000    0.0000    0.0001    0.0979
                0.5693   1.5607e-003  -2.0430e-004   2.9634e-003   2.9963e+007  -2.7415e+004   1.1705e+007    0.0889   -0.0000    0.0000    0.0001    0.1018
                0.6067   1.3392e-003  -1.7532e-004   3.0586e-003   2.5710e+007  -2.3851e+004   1.2082e+007    0.0763   -0.0000    0.0000    0.0001    0.1051
                0.6418   1.1760e-003  -1.5397e-004   3.1387e-003   2.2577e+007  -2.1226e+004   1.2398e+007    0.0670   -0.0000    0.0000    0.0001    0.1078
                0.6746   1.0238e-003  -1.3405e-004   3.2065e-003   1.9654e+007  -1.8774e+004   1.2666e+007    0.0583   -0.0000    0.0000    0.0001    0.1101
                0.7050   9.1274e-004  -1.1953e-004   3.2640e-003   1.7522e+007  -1.6991e+004   1.2893e+007    0.0520   -0.0000    0.0000    0.0001    0.1121
                0.7327   8.3788e-004  -1.0973e-004   3.3130e-003   1.6085e+007  -1.5786e+004   1.3086e+007    0.0477   -0.0000    0.0000    0.0000    0.1138
                0.7579   7.6980e-004  -1.0083e-004   3.3553e-003   1.4778e+007  -1.4692e+004   1.3253e+007    0.0439   -0.0000    0.0000    0.0000    0.1152
                0.7804   7.5524e-004  -9.8922e-005   3.3919e-003   1.4499e+007  -1.4460e+004   1.3398e+007    0.0430   -0.0000    0.0000    0.0000    0.1165
                0.7999   7.4790e-004  -9.7962e-005   3.4235e-003   1.4358e+007  -1.4342e+004   1.3523e+007    0.0426   -0.0000    0.0000    0.0000    0.1176
                0.8167   7.5283e-004  -9.8606e-005   3.4509e-003   1.4452e+007  -1.4420e+004   1.3631e+007    0.0429   -0.0000    0.0000    0.0000    0.1185
                0.8306   7.8484e-004  -1.0279e-004   3.4739e-003   1.5067e+007  -1.4933e+004   1.3722e+007    0.0447   -0.0000    0.0000    0.0000    0.1193
                0.8415   8.1016e-004  -1.0611e-004   3.4924e-003   1.5553e+007  -1.5337e+004   1.3795e+007    0.0462   -0.0000    0.0000    0.0000    0.1200
                0.8495   8.4576e-004  -1.1076e-004   3.5066e-003   1.6237e+007  -1.5897e+004   1.3851e+007    0.0482   -0.0000    0.0000    0.0000    0.1204
                0.8544   8.7405e-004  -1.1446e-004   3.5153e-003   1.6780e+007  -1.6344e+004   1.3885e+007    0.0498   -0.0000    0.0000    0.0000    0.1207
                0.8559   8.8295e-004  -1.1563e-004   3.5181e-003   1.6951e+007  -1.6488e+004   1.3897e+007    0.0503   -0.0000    0.0000    0.0000    0.1208

     Web:  panel  nNode   nLam     xc_St    xc_End         b         t         E_eff         G_eff      nu_eff     density  buckleCrit
            (-)    (-)    (-)       (-)       (-)       (m)       (m)          (Pa)          (Pa)         (-)    (kg/m^3)         (-)
              1     10      3    0.2394    0.2394    0.3297    0.0121   6.5707e+009   1.3870e+009      0.1347    691.8998      0.2742
              2     10      3    0.4606    0.4606    0.3052    0.0121   6.5707e+009   1.3870e+009      0.1347    691.8998      0.2499

            panel:  1     
           lam_num    nPlies        tPly      fibAng     matID  matName
               (-)       (-)         (m)       (deg)       (-)  (-)
                 1         1    0.002023      0.0000         7  (web-shell)
                 2         1    0.008047      0.0000         8  (web-core)
                 3         1    0.002023      0.0000         7  (web-shell)

               lamina:  1     
              matName:  (web-shell)
                     s           e11           e22           e12           s11           s22           s12   s11_fcT   s11_fcC   s22_fcT   s22_fcC   s12_fcS
                   (m)         (m/m)         (m/m)         (rad)          (Pa)          (Pa)          (Pa)       (-)       (-)       (-)       (-)       (-)
                0.0000  -5.7203e-003   7.7046e-004   1.3452e-002  -1.0976e+008   5.2379e+005   5.3137e+007    0.0000    0.2208    0.0016   -0.0000    0.4621
                0.0366  -4.4648e-003   6.0136e-004   1.3719e-002  -8.5671e+007   4.0888e+005   5.4189e+007    0.0000    0.1724    0.0012   -0.0000    0.4712
                0.0733  -3.2093e-003   4.3226e-004   1.3921e-002  -6.1580e+007   2.9397e+005   5.4986e+007    0.0000    0.1239    0.0009   -0.0000    0.4781
                0.1099  -1.9538e-003   2.6316e-004   1.4058e-002  -3.7489e+007   1.7906e+005   5.5528e+007    0.0000    0.0754    0.0005   -0.0000    0.4828
                0.1465  -6.9826e-004   9.4059e-005   1.4130e-002  -1.3398e+007   6.4152e+004   5.5814e+007    0.0000    0.0270    0.0002   -0.0000    0.4853
                0.1832   5.5897e-004  -7.5267e-005   1.4138e-002   1.0726e+007  -5.0791e+004   5.5844e+007    0.0318   -0.0000    0.0000    0.0002    0.4856
                0.2198   1.8145e-003  -2.4437e-004   1.4081e-002   3.4817e+007  -1.6570e+005   5.5619e+007    0.1033   -0.0000    0.0000    0.0005    0.4836
                0.2564   3.0700e-003  -4.1347e-004   1.3959e-002   5.8908e+007  -2.8061e+005   5.5139e+007    0.1748   -0.0000    0.0000    0.0008    0.4795
                0.2931   4.3255e-003  -5.8257e-004   1.3773e-002   8.2999e+007  -3.9552e+005   5.4403e+007    0.2463   -0.0000    0.0000    0.0012    0.4731
                0.3297   5.5810e-003  -7.5167e-004   1.3522e-002   1.0709e+008  -5.1043e+005   5.3412e+007    0.3178   -0.0000    0.0000    0.0015    0.4645

               lamina:  2     
              matName:  (web-core)
                     s           e11           e22           e12           s11           s22           s12   s11_fcT   s11_fcC   s22_fcT   s22_fcC   s12_fcS
                   (m)         (m/m)         (m/m)         (rad)          (Pa)          (Pa)          (Pa)       (-)       (-)       (-)       (-)       (-)
                0.0000  -5.7271e-003   7.7135e-004   1.3452e-002  -1.2897e+006  -2.6361e+005   1.3183e+006    0.0000    0.3006    0.0000    0.0614    0.4469
                0.0366  -4.4716e-003   6.0225e-004   1.3719e-002  -1.0070e+006  -2.0582e+005   1.3444e+006    0.0000    0.2347    0.0000    0.0480    0.4557
                0.0733  -3.2161e-003   4.3315e-004   1.3921e-002  -7.2423e+005  -1.4803e+005   1.3642e+006    0.0000    0.1688    0.0000    0.0345    0.4624
                0.1099  -1.9606e-003   2.6405e-004   1.4058e-002  -4.4150e+005  -9.0245e+004   1.3776e+006    0.0000    0.1029    0.0000    0.0210    0.4670
                0.1465  -7.0507e-004   9.4950e-005   1.4130e-002  -1.5877e+005  -3.2456e+004   1.3847e+006    0.0000    0.0370    0.0000    0.0076    0.4694
                0.1832   5.5726e-004  -7.5042e-005   1.4138e-002   1.2549e+005   2.5653e+004   1.3855e+006    0.0293   -0.0000    0.0060   -0.0000    0.4697
                0.2198   1.8128e-003  -2.4414e-004   1.4081e-002   4.0822e+005   8.3442e+004   1.3799e+006    0.0952   -0.0000    0.0195   -0.0000    0.4678
                0.2564   3.0683e-003  -4.1324e-004   1.3959e-002   6.9095e+005   1.4123e+005   1.3680e+006    0.1611   -0.0000    0.0329   -0.0000    0.4637
                0.2931   4.3238e-003  -5.8235e-004   1.3773e-002   9.7368e+005   1.9902e+005   1.3498e+006    0.2270   -0.0000    0.0464   -0.0000    0.4575
                0.3297   5.5793e-003  -7.5145e-004   1.3522e-002   1.2564e+006   2.5681e+005   1.3252e+006    0.2929   -0.0000    0.0599   -0.0000    0.4492

               lamina:  3     
              matName:  (web-shell)
                     s           e11           e22           e12           s11           s22           s12   s11_fcT   s11_fcC   s22_fcT   s22_fcC   s12_fcS
                   (m)         (m/m)         (m/m)         (rad)          (Pa)          (Pa)          (Pa)       (-)       (-)       (-)       (-)       (-)
                0.0000  -5.7288e-003   7.7158e-004   1.3452e-002  -1.0993e+008   5.2396e+005   5.3137e+007    0.0000    0.2212    0.0016   -0.0000    0.4621
                0.0366  -4.4733e-003   6.0248e-004   1.3719e-002  -8.5835e+007   4.0905e+005   5.4189e+007    0.0000    0.1727    0.0012   -0.0000    0.4712
                0.0733  -3.2178e-003   4.3338e-004   1.3921e-002  -6.1744e+007   2.9414e+005   5.4986e+007    0.0000    0.1242    0.0009   -0.0000    0.4781
                0.1099  -1.9623e-003   2.6428e-004   1.4058e-002  -3.7653e+007   1.7923e+005   5.5528e+007    0.0000    0.0758    0.0005   -0.0000    0.4828
                0.1465  -7.0678e-004   9.5174e-005   1.4130e-002  -1.3562e+007   6.4319e+004   5.5814e+007    0.0000    0.0273    0.0002   -0.0000    0.4853
                0.1832   5.5045e-004  -7.4151e-005   1.4138e-002   1.0562e+007  -5.0624e+004   5.5844e+007    0.0313   -0.0000    0.0000    0.0002    0.4856
                0.2198   1.8060e-003  -2.4325e-004   1.4081e-002   3.4653e+007  -1.6553e+005   5.5619e+007    0.1028   -0.0000    0.0000    0.0005    0.4836
                0.2564   3.0615e-003  -4.1235e-004   1.3959e-002   5.8744e+007  -2.8044e+005   5.5139e+007    0.1743   -0.0000    0.0000    0.0008    0.4795
                0.2931   4.3170e-003  -5.8145e-004   1.3773e-002   8.2835e+007  -3.9535e+005   5.4403e+007    0.2458   -0.0000    0.0000    0.0012    0.4731
                0.3297   5.5725e-003  -7.5056e-004   1.3522e-002   1.0693e+008  -5.1026e+005   5.3412e+007    0.3173   -0.0000    0.0000    0.0015    0.4645

            panel:  2     
           lam_num    nPlies        tPly      fibAng     matID  matName
               (-)       (-)         (m)       (deg)       (-)  (-)
                 1         1    0.002023      0.0000         7  (web-shell)
                 2         1    0.008047      0.0000         8  (web-core)
                 3         1    0.002023      0.0000         7  (web-shell)

               lamina:  1     
              matName:  (web-shell)
                     s           e11           e22           e12           s11           s22           s12   s11_fcT   s11_fcC   s22_fcT   s22_fcC   s12_fcS
                   (m)         (m/m)         (m/m)         (rad)          (Pa)          (Pa)          (Pa)       (-)       (-)       (-)       (-)       (-)
                0.0000  -5.3833e-003   7.2506e-004   1.5445e-002  -1.0329e+008   4.9293e+005   6.1009e+007    0.0000    0.2078    0.0015   -0.0000    0.5305
                0.0339  -4.2209e-003   5.6850e-004   1.5674e-002  -8.0990e+007   3.8654e+005   6.1911e+007    0.0000    0.1630    0.0011   -0.0000    0.5384
                0.0678  -3.0584e-003   4.1194e-004   1.5847e-002  -5.8686e+007   2.8015e+005   6.2594e+007    0.0000    0.1181    0.0008   -0.0000    0.5443
                0.1017  -1.8960e-003   2.5538e-004   1.5964e-002  -3.6381e+007   1.7377e+005   6.3058e+007    0.0000    0.0732    0.0005   -0.0000    0.5483
                0.1357  -7.3361e-004   9.8819e-005   1.6026e-002  -1.4077e+007   6.7378e+004   6.3304e+007    0.0000    0.0283    0.0002   -0.0000    0.5505
                0.1696   4.3045e-004  -5.7958e-005   1.6033e-002   8.2596e+006  -3.9042e+004   6.3330e+007    0.0245   -0.0000    0.0000    0.0001    0.5507
                0.2035   1.5929e-003  -2.1452e-004   1.5984e-002   3.0564e+007  -1.4543e+005   6.3137e+007    0.0907   -0.0000    0.0000    0.0004    0.5490
                0.2374   2.7553e-003  -3.7108e-004   1.5880e-002   5.2869e+007  -2.5182e+005   6.2725e+007    0.1569   -0.0000    0.0000    0.0007    0.5454
                0.2713   3.9177e-003  -5.2764e-004   1.5720e-002   7.5173e+007  -3.5821e+005   6.2095e+007    0.2231   -0.0000    0.0000    0.0011    0.5400
                0.3052   5.0801e-003  -6.8420e-004   1.5505e-002   9.7478e+007  -4.6459e+005   6.1245e+007    0.2893   -0.0000    0.0000    0.0014    0.5326

               lamina:  2     
              matName:  (web-core)
                     s           e11           e22           e12           s11           s22           s12   s11_fcT   s11_fcC   s22_fcT   s22_fcC   s12_fcS
                   (m)         (m/m)         (m/m)         (rad)          (Pa)          (Pa)          (Pa)       (-)       (-)       (-)       (-)       (-)
                0.0000  -5.3898e-003   7.2592e-004   1.5445e-002  -1.2137e+006  -2.4809e+005   1.5136e+006    0.0000    0.2829    0.0000    0.0578    0.5131
                0.0339  -4.2274e-003   5.6936e-004   1.5674e-002  -9.5197e+005  -1.9458e+005   1.5360e+006    0.0000    0.2219    0.0000    0.0454    0.5207
                0.0678  -3.0650e-003   4.1280e-004   1.5847e-002  -6.9021e+005  -1.4108e+005   1.5530e+006    0.0000    0.1609    0.0000    0.0329    0.5264
                0.1017  -1.9026e-003   2.5624e-004   1.5964e-002  -4.2844e+005  -8.7576e+004   1.5645e+006    0.0000    0.0999    0.0000    0.0204    0.5303
                0.1357  -7.4017e-004   9.9679e-005   1.6026e-002  -1.6668e+005  -3.4072e+004   1.5706e+006    0.0000    0.0389    0.0000    0.0079    0.5324
                0.1696   4.2880e-004  -5.7742e-005   1.6033e-002   9.6563e+004   1.9740e+004   1.5712e+006    0.0225   -0.0000    0.0046   -0.0000    0.5326
                0.2035   1.5912e-003  -2.1430e-004   1.5984e-002   3.5833e+005   7.3244e+004   1.5664e+006    0.0835   -0.0000    0.0171   -0.0000    0.5310
                0.2374   2.7536e-003  -3.7086e-004   1.5880e-002   6.2009e+005   1.2675e+005   1.5562e+006    0.1445   -0.0000    0.0295   -0.0000    0.5275
                0.2713   3.9160e-003  -5.2743e-004   1.5720e-002   8.8185e+005   1.8025e+005   1.5406e+006    0.2056   -0.0000    0.0420   -0.0000    0.5222
                0.3052   5.0785e-003  -6.8399e-004   1.5505e-002   1.1436e+006   2.3376e+005   1.5195e+006    0.2666   -0.0000    0.0545   -0.0000    0.5151

               lamina:  3     
              matName:  (web-shell)
                     s           e11           e22           e12           s11           s22           s12   s11_fcT   s11_fcC   s22_fcT   s22_fcC   s12_fcS
                   (m)         (m/m)         (m/m)         (rad)          (Pa)          (Pa)          (Pa)       (-)       (-)       (-)       (-)       (-)
                0.0000  -5.3915e-003   7.2614e-004   1.5445e-002  -1.0345e+008   4.9309e+005   6.1009e+007    0.0000    0.2082    0.0015   -0.0000    0.5305
                0.0339  -4.2291e-003   5.6958e-004   1.5674e-002  -8.1148e+007   3.8670e+005   6.1911e+007    0.0000    0.1633    0.0011   -0.0000    0.5384
                0.0678  -3.0666e-003   4.1302e-004   1.5847e-002  -5.8843e+007   2.8032e+005   6.2594e+007    0.0000    0.1184    0.0008   -0.0000    0.5443
                0.1017  -1.9042e-003   2.5646e-004   1.5964e-002  -3.6539e+007   1.7393e+005   6.3058e+007    0.0000    0.0735    0.0005   -0.0000    0.5483
                0.1357  -7.4182e-004   9.9895e-005   1.6026e-002  -1.4234e+007   6.7539e+004   6.3304e+007    0.0000    0.0286    0.0002   -0.0000    0.5505
                0.1696   4.2224e-004  -5.6883e-005   1.6033e-002   8.1020e+006  -3.8881e+004   6.3330e+007    0.0240   -0.0000    0.0000    0.0001    0.5507
                0.2035   1.5847e-003  -2.1344e-004   1.5984e-002   3.0407e+007  -1.4527e+005   6.3137e+007    0.0902   -0.0000    0.0000    0.0004    0.5490
                0.2374   2.7471e-003  -3.7001e-004   1.5880e-002   5.2711e+007  -2.5166e+005   6.2725e+007    0.1564   -0.0000    0.0000    0.0007    0.5454
                0.2713   3.9095e-003  -5.2657e-004   1.5720e-002   7.5016e+007  -3.5805e+005   6.2095e+007    0.2226   -0.0000    0.0000    0.0011    0.5400
                0.3052   5.0719e-003  -6.8313e-004   1.5505e-002   9.7320e+007  -4.6443e+005   6.1245e+007    0.2888   -0.0000    0.0000    0.0014    0.5326

================================================================================
sec        =  11     
zSec       =  2.9970  (m)
nPanelsTop =  3      
nPanelsBot =  3      
nWebs      =  2      

    Top:  panel  nNode   nLam     xc_St    xc_End         b         t         E_eff         G_eff      nu_eff     density  buckleCrit
            (-)    (-)    (-)       (-)       (-)       (m)       (m)          (Pa)          (Pa)         (-)    (kg/m^3)         (-)
              1     18      3    0.0000    0.2392    0.4218    0.0110   1.8758e+010   3.8603e+009      0.1301   1635.7727      0.2893
              2      9      5    0.2392    0.4608    0.3344    0.0180   6.0830e+010   4.2445e+009      0.1698   1586.0209      0.3882
              3     28      3    0.4608    1.0000    0.8387    0.0144   1.4407e+010   2.9774e+009      0.1308   1298.8207      0.7943

            panel:  1     
           lam_num    nPlies        tPly      fibAng     matID  matName
               (-)       (-)         (m)       (deg)       (-)  (-)
                 1         1    0.005364      0.0000         2  (blade-shell)
                 2         1    0.000256      0.0000         5  (LEP-core)
                 3         1    0.005364      0.0000         2  (blade-shell)

               lamina:  1     
              matName:  (blade-shell)
                     s           e11           e22           e12           s11           s22           s12   s11_fcT   s11_fcC   s22_fcT   s22_fcC   s12_fcS
                   (m)         (m/m)         (m/m)         (rad)          (Pa)          (Pa)          (Pa)       (-)       (-)       (-)       (-)       (-)
                0.0000   5.1605e-004  -6.7116e-005   6.6729e-003   9.9080e+006  -5.8454e+002   2.6358e+007    0.0294   -0.0000    0.0000    0.0000    0.2292
                0.0048   3.5544e-004  -4.6228e-005   6.6749e-003   6.8244e+006  -4.0414e+002   2.6366e+007    0.0203   -0.0000    0.0000    0.0000    0.2293
                0.0188  -3.2791e-004   4.2635e-005   6.6741e-003  -6.2959e+006   1.2505e+002   2.6363e+007    0.0000    0.0127    0.0000   -0.0000    0.2292
                0.0362  -9.8064e-004   1.2752e-004   6.6593e-003  -1.8828e+007   7.5479e+002   2.6304e+007    0.0000    0.0379    0.0000   -0.0000    0.2287
                0.0511  -1.4452e-003   1.8794e-004   6.6359e-003  -2.7748e+007   1.1944e+003   2.6212e+007    0.0000    0.0558    0.0000   -0.0000    0.2279
                0.0709  -1.9995e-003   2.6002e-004   6.5911e-003  -3.8390e+007   1.7799e+003   2.6035e+007    0.0000    0.0772    0.0000   -0.0000    0.2264
                0.0912  -2.4940e-003   3.2433e-004   6.5299e-003  -4.7884e+007   2.2893e+003   2.5793e+007    0.0000    0.0963    0.0000   -0.0000    0.2243
                0.1144  -2.9821e-003   3.8782e-004   6.4440e-003  -5.7256e+007   2.8230e+003   2.5454e+007    0.0000    0.1152    0.0000   -0.0000    0.2213
                0.1404  -3.5275e-003   4.5875e-004   6.3283e-003  -6.7728e+007   3.4063e+003   2.4997e+007    0.0000    0.1363    0.0000   -0.0000    0.2174
                0.1670  -3.9540e-003   5.1421e-004   6.1910e-003  -7.5915e+007   3.8627e+003   2.4454e+007    0.0000    0.1527    0.0000   -0.0000    0.2126
                0.1966  -4.4150e-003   5.7417e-004   6.0187e-003  -8.4767e+007   4.3725e+003   2.3774e+007    0.0000    0.1706    0.0000   -0.0000    0.2067
                0.2280  -4.8474e-003   6.3041e-004   5.8163e-003  -9.3070e+007   4.8432e+003   2.2975e+007    0.0000    0.1873    0.0000   -0.0000    0.1998
                0.2611  -5.2236e-003   6.7933e-004   5.5827e-003  -1.0029e+008   5.2589e+003   2.2052e+007    0.0000    0.2018    0.0000   -0.0000    0.1918
                0.2964  -5.6265e-003   7.3174e-004   5.3132e-003  -1.0803e+008   5.7029e+003   2.0987e+007    0.0000    0.2174    0.0000   -0.0000    0.1825
                0.3329  -5.9283e-003   7.7099e-004   5.0164e-003  -1.1382e+008   6.0335e+003   1.9815e+007    0.0000    0.2290    0.0000   -0.0000    0.1723
                0.3713  -6.2185e-003   8.0873e-004   4.6869e-003  -1.1939e+008   6.3569e+003   1.8513e+007    0.0000    0.2402    0.0000   -0.0000    0.1610
                0.4114  -6.4915e-003   8.4424e-004   4.3276e-003  -1.2464e+008   6.6603e+003   1.7094e+007    0.0000    0.2508    0.0000   -0.0000    0.1486
                0.4218  -6.5379e-003   8.5026e-004   4.2310e-003  -1.2553e+008   6.7066e+003   1.6712e+007    0.0000    0.2526    0.0000   -0.0000    0.1453

               lamina:  2     
              matName:  (LEP-core)
                     s           e11           e22           e12           s11           s22           s12   s11_fcT   s11_fcC   s22_fcT   s22_fcC   s12_fcS
                   (m)         (m/m)         (m/m)         (rad)          (Pa)          (Pa)          (Pa)       (-)       (-)       (-)       (-)       (-)
                0.0000   5.2475e-004  -6.8247e-005   6.6729e-003   1.1836e+005   2.4726e+004   6.5395e+005    0.0276   -0.0000    0.0058   -0.0000    0.2217
                0.0048   3.6414e-004  -4.7359e-005   6.6749e-003   8.2131e+004   1.7158e+004   6.5414e+005    0.0191   -0.0000    0.0040   -0.0000    0.2217
                0.0188  -1.1626e-004   1.5120e-005   6.6741e-003  -2.6222e+004  -5.4782e+003   6.5406e+005    0.0000    0.0061    0.0000    0.0013    0.2217
                0.0362  -6.7898e-004   8.8306e-005   6.6593e-003  -1.5314e+005  -3.1993e+004   6.5261e+005    0.0000    0.0357    0.0000    0.0075    0.2212
                0.0511  -1.0720e-003   1.3943e-004   6.6359e-003  -2.4180e+005  -5.0514e+004   6.5032e+005    0.0000    0.0564    0.0000    0.0118    0.2204
                0.0709  -1.5940e-003   2.0731e-004   6.5911e-003  -3.5953e+005  -7.5109e+004   6.4593e+005    0.0000    0.0838    0.0000    0.0175    0.2190
                0.0912  -2.0485e-003   2.6642e-004   6.5299e-003  -4.6203e+005  -9.6522e+004   6.3993e+005    0.0000    0.1077    0.0000    0.0225    0.2169
                0.1144  -2.5238e-003   3.2824e-004   6.4440e-003  -5.6925e+005  -1.1892e+005   6.3151e+005    0.0000    0.1327    0.0000    0.0277    0.2141
                0.1404  -3.0438e-003   3.9586e-004   6.3283e-003  -6.8652e+005  -1.4342e+005   6.2017e+005    0.0000    0.1600    0.0000    0.0334    0.2102
                0.1670  -3.4506e-003   4.4877e-004   6.1910e-003  -7.7827e+005  -1.6259e+005   6.0672e+005    0.0000    0.1814    0.0000    0.0379    0.2057
                0.1966  -3.9045e-003   5.0781e-004   6.0187e-003  -8.8066e+005  -1.8398e+005   5.8984e+005    0.0000    0.2053    0.0000    0.0429    0.1999
                0.2280  -4.3239e-003   5.6236e-004   5.8163e-003  -9.7526e+005  -2.0374e+005   5.7000e+005    0.0000    0.2273    0.0000    0.0475    0.1932
                0.2611  -4.6941e-003   6.1050e-004   5.5827e-003  -1.0588e+006  -2.2118e+005   5.4711e+005    0.0000    0.2468    0.0000    0.0516    0.1855
                0.2964  -5.0896e-003   6.6193e-004   5.3132e-003  -1.1479e+006  -2.3982e+005   5.2069e+005    0.0000    0.2676    0.0000    0.0559    0.1765
                0.3329  -5.3840e-003   7.0023e-004   5.0164e-003  -1.2144e+006  -2.5369e+005   4.9161e+005    0.0000    0.2831    0.0000    0.0591    0.1666
                0.3713  -5.6720e-003   7.3768e-004   4.6869e-003  -1.2793e+006  -2.6726e+005   4.5932e+005    0.0000    0.2982    0.0000    0.0623    0.1557
                0.4114  -5.9422e-003   7.7283e-004   4.3276e-003  -1.3403e+006  -2.7999e+005   4.2410e+005    0.0000    0.3124    0.0000    0.0653    0.1438
                0.4218  -5.9835e-003   7.7820e-004   4.2310e-003  -1.3496e+006  -2.8194e+005   4.1464e+005    0.0000    0.3146    0.0000    0.0657    0.1406

               lamina:  3     
              matName:  (blade-shell)
                     s           e11           e22           e12           s11           s22           s12   s11_fcT   s11_fcC   s22_fcT   s22_fcC   s12_fcS
                   (m)         (m/m)         (m/m)         (rad)          (Pa)          (Pa)          (Pa)       (-)       (-)       (-)       (-)       (-)
                0.0000   7.0724e-004  -9.1971e-005   6.6729e-003   1.3579e+007  -5.8466e+002   2.6358e+007    0.0403   -0.0000    0.0000    0.0000    0.2292
                0.0048   5.4663e-004  -7.1083e-005   6.6749e-003   1.0495e+007  -4.0425e+002   2.6366e+007    0.0311   -0.0000    0.0000    0.0000    0.2293
                0.0188  -1.0617e-004   1.3808e-005   6.6741e-003  -2.0384e+006   1.2492e+002   2.6363e+007    0.0000    0.0041    0.0000   -0.0000    0.2292
                0.0362  -6.6460e-004   8.6437e-005   6.6593e-003  -1.2760e+007   7.5460e+002   2.6304e+007    0.0000    0.0257    0.0000   -0.0000    0.2287
                0.0511  -1.0543e-003   1.3711e-004   6.6359e-003  -2.0242e+007   1.1942e+003   2.6212e+007    0.0000    0.0407    0.0000   -0.0000    0.2279
                0.0709  -1.5747e-003   2.0480e-004   6.5911e-003  -3.0234e+007   1.7797e+003   2.6035e+007    0.0000    0.0608    0.0000   -0.0000    0.2264
                0.0912  -2.0272e-003   2.6366e-004   6.5299e-003  -3.8922e+007   2.2890e+003   2.5793e+007    0.0000    0.0783    0.0000   -0.0000    0.2243
                0.1144  -2.5020e-003   3.2540e-004   6.4440e-003  -4.8038e+007   2.8227e+003   2.5454e+007    0.0000    0.0967    0.0000   -0.0000    0.2213
                0.1404  -3.0207e-003   3.9286e-004   6.3283e-003  -5.7997e+007   3.4060e+003   2.4997e+007    0.0000    0.1167    0.0000   -0.0000    0.2174
                0.1670  -3.4266e-003   4.4565e-004   6.1910e-003  -6.5790e+007   3.8624e+003   2.4454e+007    0.0000    0.1324    0.0000   -0.0000    0.2126
                0.1966  -3.8802e-003   5.0465e-004   6.0187e-003  -7.4499e+007   4.3722e+003   2.3774e+007    0.0000    0.1499    0.0000   -0.0000    0.2067
                0.2280  -4.2990e-003   5.5911e-004   5.8163e-003  -8.2540e+007   4.8429e+003   2.2975e+007    0.0000    0.1661    0.0000   -0.0000    0.1998
                0.2611  -4.6689e-003   6.0722e-004   5.5827e-003  -8.9642e+007   5.2586e+003   2.2052e+007    0.0000    0.1804    0.0000   -0.0000    0.1918
                0.2964  -5.0640e-003   6.5861e-004   5.3132e-003  -9.7227e+007   5.7026e+003   2.0987e+007    0.0000    0.1956    0.0000   -0.0000    0.1825
                0.3329  -5.3581e-003   6.9686e-004   5.0164e-003  -1.0287e+008   6.0332e+003   1.9815e+007    0.0000    0.2070    0.0000   -0.0000    0.1723
                0.3713  -5.6459e-003   7.3430e-004   4.6869e-003  -1.0840e+008   6.3565e+003   1.8513e+007    0.0000    0.2181    0.0000   -0.0000    0.1610
                0.4114  -5.9160e-003   7.6942e-004   4.3276e-003  -1.1359e+008   6.6600e+003   1.7094e+007    0.0000    0.2285    0.0000   -0.0000    0.1486
                0.4218  -5.9571e-003   7.7476e-004   4.2310e-003  -1.1438e+008   6.7062e+003   1.6712e+007    0.0000    0.2301    0.0000   -0.0000    0.1453

            panel:  2     
           lam_num    nPlies        tPly      fibAng     matID  matName
               (-)       (-)         (m)       (deg)       (-)  (-)
                 1         1    0.005364      0.0000         2  (blade-shell)
                 2         1    0.003602      0.0000         3  (spar-uni)
                 3         1    0.000047      0.0000         4  (spar-core)
                 4         1    0.003602      0.0000         3  (spar-uni)
                 5         1    0.005364      0.0000         2  (blade-shell)

               lamina:  1     
              matName:  (blade-shell)
                     s           e11           e22           e12           s11           s22           s12   s11_fcT   s11_fcC   s22_fcT   s22_fcC   s12_fcS
                   (m)         (m/m)         (m/m)         (rad)          (Pa)          (Pa)          (Pa)       (-)       (-)       (-)       (-)       (-)
                0.0000  -8.0694e-003   1.2933e-003   5.3283e-003  -1.5431e+008   4.7699e+006   2.1047e+007    0.0000    0.3105    0.0142   -0.0000    0.1830
                0.0304  -8.1900e-003   1.3137e-003   4.5088e-003  -1.5662e+008   4.8637e+006   1.7810e+007    0.0000    0.3151    0.0144   -0.0000    0.1549
                0.0728  -8.3652e-003   1.3432e-003   3.3404e-003  -1.5996e+008   4.9952e+006   1.3195e+007    0.0000    0.3219    0.0148   -0.0000    0.1147
                0.1160  -8.4468e-003   1.3569e-003   2.1281e-003  -1.6152e+008   5.0542e+006   8.4060e+006    0.0000    0.3250    0.0150   -0.0000    0.0731
                0.1606  -8.4530e-003   1.3579e-003   8.7357e-004  -1.6164e+008   5.0586e+006   3.4506e+006    0.0000    0.3252    0.0150   -0.0000    0.0300
                0.2058  -8.4567e-003   1.3586e-003   3.9888e-004  -1.6171e+008   5.0631e+006   1.5756e+006    0.0000    0.3254    0.0150   -0.0000    0.0137
                0.2518  -8.2934e-003   1.3312e-003   1.6776e-003  -1.5859e+008   4.9417e+006   6.6265e+006    0.0000    0.3191    0.0147   -0.0000    0.0576
                0.2988  -8.1236e-003   1.3024e-003   2.9452e-003  -1.5535e+008   4.8119e+006   1.1634e+007    0.0000    0.3126    0.0143   -0.0000    0.1012
                0.3344  -7.9615e-003   1.2751e-003   3.8782e-003  -1.5225e+008   4.6885e+006   1.5319e+007    0.0000    0.3063    0.0139   -0.0000    0.1332

               lamina:  2     
              matName:  (spar-uni)
                     s           e11           e22           e12           s11           s22           s12   s11_fcT   s11_fcC   s22_fcT   s22_fcC   s12_fcS
                   (m)         (m/m)         (m/m)         (rad)          (Pa)          (Pa)          (Pa)       (-)       (-)       (-)       (-)       (-)
                0.0000  -6.7434e-003   1.1140e-003   5.3283e-003  -8.3193e+008  -8.0585e+006   2.5096e+007    0.0000    0.8319    0.0000    0.1345    0.2437
                0.0304  -6.8640e-003   1.1345e-003   4.5088e-003  -8.4681e+008  -8.1981e+006   2.1237e+007    0.0000    0.8468    0.0000    0.1369    0.2062
                0.0728  -7.0351e-003   1.1634e-003   3.3404e-003  -8.6792e+008  -8.3968e+006   1.5733e+007    0.0000    0.8679    0.0000    0.1402    0.1528
                0.1160  -7.1128e-003   1.1765e-003   2.1281e-003  -8.7750e+008  -8.4875e+006   1.0023e+007    0.0000    0.8775    0.0000    0.1417    0.0973
                0.1606  -7.1186e-003   1.1775e-003   8.7357e-004  -8.7822e+008  -8.4943e+006   4.1145e+006    0.0000    0.8782    0.0000    0.1418    0.0399
                0.2058  -7.1237e-003   1.1784e-003   3.9888e-004  -8.7885e+008  -8.4999e+006   1.8787e+006    0.0000    0.8789    0.0000    0.1419    0.0182
                0.2518  -6.9654e-003   1.1516e-003   1.6776e-003  -8.5932e+008  -8.3158e+006   7.9015e+006    0.0000    0.8593    0.0000    0.1388    0.0767
                0.2988  -6.7974e-003   1.1232e-003   2.9452e-003  -8.3860e+008  -8.1211e+006   1.3872e+007    0.0000    0.8386    0.0000    0.1356    0.1347
                0.3344  -6.6376e-003   1.0961e-003   3.8782e-003  -8.1889e+008  -7.9358e+006   1.8266e+007    0.0000    0.8189    0.0000    0.1325    0.1773

               lamina:  3     
              matName:  (spar-core)
                     s           e11           e22           e12           s11           s22           s12   s11_fcT   s11_fcC   s22_fcT   s22_fcC   s12_fcS
                   (m)         (m/m)         (m/m)         (rad)          (Pa)          (Pa)          (Pa)       (-)       (-)       (-)       (-)       (-)
                0.0000  -5.8527e-003   9.9359e-004   5.3283e-003  -1.3020e+006  -2.2101e+005   5.2217e+005    0.0000    0.3035    0.0000    0.0515    0.1770
                0.0304  -5.9734e-003   1.0141e-003   4.5088e-003  -1.3288e+006  -2.2556e+005   4.4187e+005    0.0000    0.3098    0.0000    0.0526    0.1498
                0.0728  -6.1417e-003   1.0427e-003   3.3404e-003  -1.3663e+006  -2.3192e+005   3.2736e+005    0.0000    0.3185    0.0000    0.0541    0.1110
                0.1160  -6.2169e-003   1.0554e-003   2.1281e-003  -1.3830e+006  -2.3476e+005   2.0855e+005    0.0000    0.3224    0.0000    0.0547    0.0707
                0.1606  -6.2224e-003   1.0564e-003   8.7357e-004  -1.3842e+006  -2.3496e+005   8.5610e+004    0.0000    0.3227    0.0000    0.0548    0.0290
                0.2058  -6.2284e-003   1.0574e-003   3.9888e-004  -1.3856e+006  -2.3519e+005   3.9090e+004    0.0000    0.3230    0.0000    0.0548    0.0133
                0.2518  -6.0734e-003   1.0311e-003   1.6776e-003  -1.3511e+006  -2.2934e+005   1.6440e+005    0.0000    0.3149    0.0000    0.0535    0.0557
                0.2988  -5.9067e-003   1.0028e-003   2.9452e-003  -1.3140e+006  -2.2305e+005   2.8863e+005    0.0000    0.3063    0.0000    0.0520    0.0978
                0.3344  -5.7484e-003   9.7588e-004   3.8782e-003  -1.2788e+006  -2.1707e+005   3.8007e+005    0.0000    0.2981    0.0000    0.0506    0.1288

               lamina:  4     
              matName:  (spar-uni)
                     s           e11           e22           e12           s11           s22           s12   s11_fcT   s11_fcC   s22_fcT   s22_fcC   s12_fcS
                   (m)         (m/m)         (m/m)         (rad)          (Pa)          (Pa)          (Pa)       (-)       (-)       (-)       (-)       (-)
                0.0000  -5.8412e-003   9.9202e-004   5.3283e-003  -7.2056e+008  -6.7569e+006   2.5096e+007    0.0000    0.7206    0.0000    0.1128    0.2437
                0.0304  -5.9618e-003   1.0125e-003   4.5088e-003  -7.3544e+008  -6.8965e+006   2.1237e+007    0.0000    0.7354    0.0000    0.1151    0.2062
                0.0728  -6.1301e-003   1.0411e-003   3.3404e-003  -7.5620e+008  -7.0912e+006   1.5733e+007    0.0000    0.7562    0.0000    0.1184    0.1528
                0.1160  -6.2052e-003   1.0538e-003   2.1281e-003  -7.6546e+008  -7.1781e+006   1.0023e+007    0.0000    0.7655    0.0000    0.1198    0.0973
                0.1606  -6.2107e-003   1.0548e-003   8.7357e-004  -7.6614e+008  -7.1845e+006   4.1145e+006    0.0000    0.7661    0.0000    0.1199    0.0399
                0.2058  -6.2168e-003   1.0558e-003   3.9888e-004  -7.6689e+008  -7.1915e+006   1.8787e+006    0.0000    0.7669    0.0000    0.1201    0.0182
                0.2518  -6.0618e-003   1.0295e-003   1.6776e-003  -7.4777e+008  -7.0122e+006   7.9015e+006    0.0000    0.7478    0.0000    0.1171    0.0767
                0.2988  -5.8951e-003   1.0012e-003   2.9452e-003  -7.2721e+008  -6.8193e+006   1.3872e+007    0.0000    0.7272    0.0000    0.1138    0.1347
                0.3344  -5.7369e-003   9.7432e-004   3.8782e-003  -7.0769e+008  -6.6362e+006   1.8266e+007    0.0000    0.7077    0.0000    0.1108    0.1773

               lamina:  5     
              matName:  (blade-shell)
                     s           e11           e22           e12           s11           s22           s12   s11_fcT   s11_fcC   s22_fcT   s22_fcC   s12_fcS
                   (m)         (m/m)         (m/m)         (rad)          (Pa)          (Pa)          (Pa)       (-)       (-)       (-)       (-)       (-)
                0.0000  -4.9505e-003   8.7162e-004   5.3283e-003  -9.4471e+007   4.4539e+006   2.1047e+007    0.0000    0.1901    0.0132   -0.0000    0.1830
                0.0304  -5.0712e-003   8.9210e-004   4.5088e-003  -9.6775e+007   4.5477e+006   1.7810e+007    0.0000    0.1947    0.0135   -0.0000    0.1549
                0.0728  -5.2367e-003   9.2032e-004   3.3404e-003  -9.9937e+007   4.6782e+006   1.3195e+007    0.0000    0.2011    0.0139   -0.0000    0.1147
                0.1160  -5.3093e-003   9.3272e-004   2.1281e-003  -1.0132e+008   4.7364e+006   8.4060e+006    0.0000    0.2039    0.0141   -0.0000    0.0731
                0.1606  -5.3145e-003   9.3362e-004   8.7357e-004  -1.0142e+008   4.7406e+006   3.4506e+006    0.0000    0.2041    0.0141   -0.0000    0.0300
                0.2058  -5.3215e-003   9.3477e-004   3.9888e-004  -1.0156e+008   4.7454e+006   1.5756e+006    0.0000    0.2043    0.0141   -0.0000    0.0137
                0.2518  -5.1698e-003   9.0890e-004   1.6776e-003  -9.8659e+007   4.6253e+006   6.6265e+006    0.0000    0.1985    0.0137   -0.0000    0.0576
                0.2988  -5.0044e-003   8.8077e-004   2.9452e-003  -9.5500e+007   4.4958e+006   1.1634e+007    0.0000    0.1922    0.0133   -0.0000    0.1012
                0.3344  -4.8477e-003   8.5411e-004   3.8782e-003  -9.2507e+007   4.3730e+006   1.5319e+007    0.0000    0.1861    0.0130   -0.0000    0.1332

            panel:  3     
           lam_num    nPlies        tPly      fibAng     matID  matName
               (-)       (-)         (m)       (deg)       (-)  (-)
                 1         1    0.005364      0.0000         2  (blade-shell)
                 2         1    0.003624      0.0000         6  (TEP-core)
                 3         1    0.005364      0.0000         2  (blade-shell)

               lamina:  1     
              matName:  (blade-shell)
                     s           e11           e22           e12           s11           s22           s12   s11_fcT   s11_fcC   s22_fcT   s22_fcC   s12_fcS
                   (m)         (m/m)         (m/m)         (rad)          (Pa)          (Pa)          (Pa)       (-)       (-)       (-)       (-)       (-)
                0.0000  -6.3844e-003   8.3471e-004   8.2982e-004  -1.2257e+008   9.2518e+004   3.2778e+006    0.0000    0.2466    0.0003   -0.0000    0.0285
                0.0115  -6.3296e-003   8.2755e-004   9.3112e-004  -1.2152e+008   9.1706e+004   3.6779e+006    0.0000    0.2445    0.0003   -0.0000    0.0320
                0.0596  -6.0235e-003   7.8750e-004   1.3393e-003  -1.1564e+008   8.6868e+004   5.2902e+006    0.0000    0.2327    0.0003   -0.0000    0.0460
                0.1076  -5.7167e-003   7.4738e-004   1.7237e-003  -1.0975e+008   8.2037e+004   6.8087e+006    0.0000    0.2208    0.0002   -0.0000    0.0592
                0.1557  -5.3419e-003   6.9835e-004   2.0833e-003  -1.0255e+008   7.6147e+004   8.2290e+006    0.0000    0.2063    0.0002   -0.0000    0.0716
                0.2037  -4.9398e-003   6.4575e-004   2.4133e-003  -9.4836e+007   6.9791e+004   9.5324e+006    0.0000    0.1908    0.0002   -0.0000    0.0829
                0.2512  -4.5384e-003   5.9324e-004   2.7093e-003  -8.7129e+007   6.3466e+004   1.0702e+007    0.0000    0.1753    0.0002   -0.0000    0.0931
                0.2982  -4.0827e-003   5.3363e-004   2.9717e-003  -7.8380e+007   5.6281e+004   1.1738e+007    0.0000    0.1577    0.0002   -0.0000    0.1021
                0.3445  -3.6374e-003   4.7538e-004   3.1970e-003  -6.9832e+007   4.9228e+004   1.2628e+007    0.0000    0.1405    0.0001   -0.0000    0.1098
                0.3896  -3.1912e-003   4.1701e-004   3.3856e-003  -6.1265e+007   4.2172e+004   1.3373e+007    0.0000    0.1233    0.0001   -0.0000    0.1163
                0.4336  -2.7427e-003   3.5835e-004   3.5387e-003  -5.2655e+007   3.5073e+004   1.3978e+007    0.0000    0.1059    0.0001   -0.0000    0.1215
                0.4761  -2.3099e-003   3.0174e-004   3.6575e-003  -4.4347e+007   2.8210e+004   1.4447e+007    0.0000    0.0892    0.0001   -0.0000    0.1256
                0.5169  -1.8961e-003   2.4760e-004   3.7447e-003  -3.6402e+007   2.1645e+004   1.4791e+007    0.0000    0.0732    0.0001   -0.0000    0.1286
                0.5559  -1.5013e-003   1.9596e-004   3.8033e-003  -2.8823e+007   1.5382e+004   1.5023e+007    0.0000    0.0580    0.0000   -0.0000    0.1306
                0.5930  -1.1301e-003   1.4740e-004   3.8368e-003  -2.1697e+007   9.4785e+003   1.5155e+007    0.0000    0.0437    0.0000   -0.0000    0.1318
                0.6278  -7.9610e-004   1.0371e-004   3.8491e-003  -1.5285e+007   4.1665e+003   1.5204e+007    0.0000    0.0308    0.0000   -0.0000    0.1322
                0.6603  -4.8364e-004   6.2833e-005   3.8441e-003  -9.2861e+006  -1.1243e+003   1.5184e+007    0.0000    0.0187    0.0000    0.0000    0.1320
                0.6904   2.1404e-004  -2.8109e-005   3.8255e-003   4.1088e+006  -5.5389e+003   1.5111e+007    0.0122   -0.0000    0.0000    0.0000    0.1314
                0.7179   4.5827e-004  -6.0057e-005   3.7973e-003   8.7975e+006  -9.4146e+003   1.4999e+007    0.0261   -0.0000    0.0000    0.0000    0.1304
                0.7429   6.7957e-004  -8.9007e-005   3.7626e-003   1.3046e+007  -1.2929e+004   1.4862e+007    0.0387   -0.0000    0.0000    0.0000    0.1292
                0.7651   8.6025e-004  -1.1264e-004   3.7247e-003   1.6515e+007  -1.5800e+004   1.4713e+007    0.0490   -0.0000    0.0000    0.0000    0.1279
                0.7844   1.0163e-003  -1.3305e-004   3.6866e-003   1.9510e+007  -1.8276e+004   1.4562e+007    0.0579   -0.0000    0.0000    0.0001    0.1266
                0.8009   1.1473e-003  -1.5019e-004   3.6503e-003   2.2025e+007  -2.0357e+004   1.4419e+007    0.0654   -0.0000    0.0000    0.0001    0.1254
                0.8145   1.2497e-003  -1.6359e-004   3.6180e-003   2.3992e+007  -2.1985e+004   1.4291e+007    0.0712   -0.0000    0.0000    0.0001    0.1243
                0.8250   1.3297e-003  -1.7405e-004   3.5914e-003   2.5526e+007  -2.3250e+004   1.4186e+007    0.0757   -0.0000    0.0000    0.0001    0.1234
                0.8326   1.3894e-003  -1.8186e-004   3.5715e-003   2.6673e+007  -2.4193e+004   1.4107e+007    0.0791   -0.0000    0.0000    0.0001    0.1227
                0.8371   1.4264e-003  -1.8670e-004   3.5592e-003   2.7383e+007  -2.4778e+004   1.4059e+007    0.0813   -0.0000    0.0000    0.0001    0.1223
                0.8387   1.4388e-003  -1.8832e-004   3.5550e-003   2.7621e+007  -2.4974e+004   1.4042e+007    0.0820   -0.0000    0.0000    0.0001    0.1221

               lamina:  2     
              matName:  (TEP-core)
                     s           e11           e22           e12           s11           s22           s12   s11_fcT   s11_fcC   s22_fcT   s22_fcC   s12_fcS
                   (m)         (m/m)         (m/m)         (rad)          (Pa)          (Pa)          (Pa)       (-)       (-)       (-)       (-)       (-)
                0.0000  -5.9524e-003   7.7854e-004   8.2982e-004  -1.3422e+006  -2.7944e+005   8.1323e+004    0.0000    0.3129    0.0000    0.0651    0.0276
                0.0115  -5.9004e-003   7.7174e-004   9.3112e-004  -1.3305e+006  -2.7700e+005   9.1250e+004    0.0000    0.3101    0.0000    0.0646    0.0309
                0.0596  -5.5951e-003   7.3180e-004   1.3393e-003  -1.2617e+006  -2.6267e+005   1.3125e+005    0.0000    0.2941    0.0000    0.0612    0.0445
                0.1076  -5.2900e-003   6.9188e-004   1.7237e-003  -1.1929e+006  -2.4835e+005   1.6892e+005    0.0000    0.2781    0.0000    0.0579    0.0573
                0.1557  -4.9178e-003   6.4320e-004   2.0833e-003  -1.1089e+006  -2.3088e+005   2.0416e+005    0.0000    0.2585    0.0000    0.0538    0.0692
                0.2037  -4.5167e-003   5.9073e-004   2.4133e-003  -1.0185e+006  -2.1205e+005   2.3650e+005    0.0000    0.2374    0.0000    0.0494    0.0802
                0.2512  -4.1173e-003   5.3848e-004   2.7093e-003  -9.2842e+005  -1.9330e+005   2.6551e+005    0.0000    0.2164    0.0000    0.0451    0.0900
                0.2982  -3.6636e-003   4.7914e-004   2.9717e-003  -8.2612e+005  -1.7200e+005   2.9123e+005    0.0000    0.1926    0.0000    0.0401    0.0987
                0.3445  -3.2188e-003   4.2094e-004   3.1970e-003  -7.2581e+005  -1.5112e+005   3.1331e+005    0.0000    0.1692    0.0000    0.0352    0.1062
                0.3896  -2.7735e-003   3.6270e-004   3.3856e-003  -6.2541e+005  -1.3022e+005   3.3179e+005    0.0000    0.1458    0.0000    0.0304    0.1125
                0.4336  -2.3256e-003   3.0411e-004   3.5387e-003  -5.2442e+005  -1.0919e+005   3.4679e+005    0.0000    0.1222    0.0000    0.0255    0.1176
                0.4761  -1.8928e-003   2.4749e-004   3.6575e-003  -4.2682e+005  -8.8877e+004   3.5844e+005    0.0000    0.0995    0.0000    0.0207    0.1215
                0.5169  -1.4789e-003   1.9334e-004   3.7447e-003  -3.3348e+005  -6.9446e+004   3.6698e+005    0.0000    0.0777    0.0000    0.0162    0.1244
                0.5559  -1.0839e-003   1.4168e-004   3.8033e-003  -2.4442e+005  -5.0905e+004   3.7273e+005    0.0000    0.0570    0.0000    0.0119    0.1263
                0.5930  -7.1185e-004   9.3009e-005   3.8368e-003  -1.6052e+005  -3.3441e+004   3.7601e+005    0.0000    0.0374    0.0000    0.0078    0.1275
                0.6278  -3.7705e-004   4.9214e-005   3.8491e-003  -8.5031e+004  -1.7725e+004   3.7721e+005    0.0000    0.0198    0.0000    0.0041    0.1279
                0.6603   2.1957e-004  -2.8612e-005   3.8441e-003   4.9519e+004   1.0333e+004   3.7672e+005    0.0115   -0.0000    0.0024   -0.0000    0.1277
                0.6904   4.9840e-004  -6.5087e-005   3.8255e-003   1.1239e+005   2.3422e+004   3.7490e+005    0.0262   -0.0000    0.0055   -0.0000    0.1271
                0.7179   7.4304e-004  -9.7089e-005   3.7973e-003   1.6756e+005   3.4905e+004   3.7213e+005    0.0391   -0.0000    0.0081   -0.0000    0.1261
                0.7429   9.6505e-004  -1.2613e-004   3.7626e-003   2.1762e+005   4.5327e+004   3.6873e+005    0.0507   -0.0000    0.0106   -0.0000    0.1250
                0.7651   1.1466e-003  -1.4987e-004   3.7247e-003   2.5855e+005   5.3848e+004   3.6502e+005    0.0603   -0.0000    0.0126   -0.0000    0.1237
                0.7844   1.3028e-003  -1.7031e-004   3.6866e-003   2.9378e+005   6.1181e+004   3.6129e+005    0.0685   -0.0000    0.0143   -0.0000    0.1225
                0.8009   1.4343e-003  -1.8751e-004   3.6503e-003   3.2342e+005   6.7353e+004   3.5773e+005    0.0754   -0.0000    0.0157   -0.0000    0.1213
                0.8145   1.5371e-003  -2.0096e-004   3.6180e-003   3.4662e+005   7.2181e+004   3.5457e+005    0.0808   -0.0000    0.0168   -0.0000    0.1202
                0.8250   1.6168e-003  -2.1139e-004   3.5914e-003   3.6458e+005   7.5921e+004   3.5196e+005    0.0850   -0.0000    0.0177   -0.0000    0.1193
                0.8326   1.6760e-003  -2.1913e-004   3.5715e-003   3.7793e+005   7.8700e+004   3.5001e+005    0.0881   -0.0000    0.0183   -0.0000    0.1186
                0.8371   1.7127e-003  -2.2394e-004   3.5592e-003   3.8621e+005   8.0424e+004   3.4880e+005    0.0900   -0.0000    0.0187   -0.0000    0.1182
                0.8387   1.7251e-003  -2.2556e-004   3.5550e-003   3.8901e+005   8.1006e+004   3.4839e+005    0.0907   -0.0000    0.0189   -0.0000    0.1181

               lamina:  3     
              matName:  (blade-shell)
                     s           e11           e22           e12           s11           s22           s12   s11_fcT   s11_fcC   s22_fcT   s22_fcC   s12_fcS
                   (m)         (m/m)         (m/m)         (rad)          (Pa)          (Pa)          (Pa)       (-)       (-)       (-)       (-)       (-)
                0.0000  -5.6606e-003   7.4059e-004   8.2982e-004  -1.0867e+008   9.1960e+004   3.2778e+006    0.0000    0.2187    0.0003   -0.0000    0.0285
                0.0115  -5.6105e-003   7.3403e-004   9.3112e-004  -1.0771e+008   9.1151e+004   3.6779e+006    0.0000    0.2167    0.0003   -0.0000    0.0320
                0.0596  -5.3057e-003   6.9416e-004   1.3393e-003  -1.0186e+008   8.6314e+004   5.2902e+006    0.0000    0.2049    0.0003   -0.0000    0.0460
                0.1076  -5.0017e-003   6.5439e-004   1.7237e-003  -9.6022e+007   8.1485e+004   6.8087e+006    0.0000    0.1932    0.0002   -0.0000    0.0592
                0.1557  -4.6313e-003   6.0594e-004   2.0833e-003  -8.8912e+007   7.5599e+004   8.2290e+006    0.0000    0.1789    0.0002   -0.0000    0.0716
                0.2037  -4.2309e-003   5.5357e-004   2.4133e-003  -8.1225e+007   6.9244e+004   9.5324e+006    0.0000    0.1634    0.0002   -0.0000    0.0829
                0.2512  -3.8328e-003   5.0149e-004   2.7093e-003  -7.3582e+007   6.2921e+004   1.0702e+007    0.0000    0.1481    0.0002   -0.0000    0.0931
                0.2982  -3.3805e-003   4.4232e-004   2.9717e-003  -6.4899e+007   5.5739e+004   1.1738e+007    0.0000    0.1306    0.0002   -0.0000    0.1021
                0.3445  -2.9359e-003   3.8416e-004   3.1970e-003  -5.6363e+007   4.8687e+004   1.2628e+007    0.0000    0.1134    0.0001   -0.0000    0.1098
                0.3896  -2.4913e-003   3.2600e-004   3.3856e-003  -4.7828e+007   4.1633e+004   1.3373e+007    0.0000    0.0962    0.0001   -0.0000    0.1163
                0.4336  -2.0439e-003   2.6747e-004   3.5387e-003  -3.9238e+007   3.4534e+004   1.3978e+007    0.0000    0.0789    0.0001   -0.0000    0.1215
                0.4761  -1.6110e-003   2.1085e-004   3.6575e-003  -3.0927e+007   2.7671e+004   1.4447e+007    0.0000    0.0622    0.0001   -0.0000    0.1256
                0.5169  -1.1970e-003   1.5669e-004   3.7447e-003  -2.2979e+007   2.1106e+004   1.4791e+007    0.0000    0.0462    0.0001   -0.0000    0.1286
                0.5559  -8.0190e-004   1.0501e-004   3.8033e-003  -1.5395e+007   1.4843e+004   1.5023e+007    0.0000    0.0310    0.0000   -0.0000    0.1306
                0.5930  -4.2926e-004   5.6261e-005   3.8368e-003  -8.2406e+006   8.9381e+003   1.5155e+007    0.0000    0.0166    0.0000   -0.0000    0.1318
                0.6278   3.2510e-004  -4.2094e-005   3.8491e-003   6.2424e+006   3.6251e+003   1.5204e+007    0.0185   -0.0000    0.0000   -0.0000    0.1322
                0.6603   6.3924e-004  -8.3187e-005   3.8441e-003   1.2273e+007  -1.6666e+003   1.5184e+007    0.0364   -0.0000    0.0000    0.0000    0.1320
                0.6904   9.1931e-004  -1.1982e-004   3.8255e-003   1.7650e+007  -6.0827e+003   1.5111e+007    0.0524   -0.0000    0.0000    0.0000    0.1314
                0.7179   1.1646e-003  -1.5190e-004   3.7973e-003   2.2358e+007  -9.9592e+003   1.4999e+007    0.0663   -0.0000    0.0000    0.0000    0.1304
                0.7429   1.3876e-003  -1.8108e-004   3.7626e-003   2.6640e+007  -1.3475e+004   1.4862e+007    0.0791   -0.0000    0.0000    0.0000    0.1292
                0.7651   1.5704e-003  -2.0499e-004   3.7247e-003   3.0149e+007  -1.6348e+004   1.4713e+007    0.0895   -0.0000    0.0000    0.0000    0.1279
                0.7844   1.7269e-003  -2.2546e-004   3.6866e-003   3.3154e+007  -1.8824e+004   1.4562e+007    0.0984   -0.0000    0.0000    0.0001    0.1266
                0.8009   1.8591e-003  -2.4275e-004   3.6503e-003   3.5691e+007  -2.0906e+004   1.4419e+007    0.1059   -0.0000    0.0000    0.0001    0.1254
                0.8145   1.9625e-003  -2.5628e-004   3.6180e-003   3.7677e+007  -2.2534e+004   1.4291e+007    0.1118   -0.0000    0.0000    0.0001    0.1243
                0.8250   2.0418e-003  -2.6665e-004   3.5914e-003   3.9200e+007  -2.3799e+004   1.4186e+007    0.1163   -0.0000    0.0000    0.0001    0.1234
                0.8326   2.1003e-003  -2.7430e-004   3.5715e-003   4.0322e+007  -2.4741e+004   1.4107e+007    0.1196   -0.0000    0.0000    0.0001    0.1227
                0.8371   2.1366e-003  -2.7905e-004   3.5592e-003   4.1019e+007  -2.5325e+004   1.4059e+007    0.1217   -0.0000    0.0000    0.0001    0.1223
                0.8387   2.1490e-003  -2.8067e-004   3.5550e-003   4.1257e+007  -2.5522e+004   1.4042e+007    0.1224   -0.0000    0.0000    0.0001    0.1221

  Bottom:  panel  nNode   nLam     xc_St    xc_End         b         t         E_eff         G_eff      nu_eff     density  buckleCrit
            (-)    (-)    (-)       (-)       (-)       (m)       (m)          (Pa)          (Pa)         (-)    (kg/m^3)         (-)
              1     18      3    0.0000    0.2392    0.4030    0.0110   1.8758e+010   3.8603e+009      0.1301   1635.7727      0.0851
              2      9      5    0.2392    0.4608    0.3346    0.0180   6.0830e+010   4.2445e+009      0.1698   1586.0209      0.0013
              3     28      3    0.4608    1.0000    0.8319    0.0144   1.4407e+010   2.9774e+009      0.1308   1298.8207      0.1367

            panel:  1     
           lam_num    nPlies        tPly      fibAng     matID  matName
               (-)       (-)         (m)       (deg)       (-)  (-)
                 1         1    0.005364      0.0000         2  (blade-shell)
                 2         1    0.000256      0.0000         5  (LEP-core)
                 3         1    0.005364      0.0000         2  (blade-shell)

               lamina:  1     
              matName:  (blade-shell)
                     s           e11           e22           e12           s11           s22           s12   s11_fcT   s11_fcC   s22_fcT   s22_fcC   s12_fcS
                   (m)         (m/m)         (m/m)         (rad)          (Pa)          (Pa)          (Pa)       (-)       (-)       (-)       (-)       (-)
                0.0000   5.8086e-004  -7.5535e-005   6.6729e-003   1.1153e+007  -4.4079e+002   2.6358e+007    0.0331   -0.0000    0.0000    0.0000    0.2292
                0.0043   7.2558e-004  -9.4356e-005   6.6710e-003   1.3931e+007  -6.0335e+002   2.6350e+007    0.0413   -0.0000    0.0000    0.0000    0.2291
                0.0169   1.1811e-003  -1.5360e-004   6.6597e-003   2.2677e+007  -1.0776e+003   2.6306e+007    0.0673   -0.0000    0.0000    0.0000    0.2287
                0.0324   1.7792e-003  -2.3138e-004   6.6350e-003   3.4160e+007  -1.6360e+003   2.6208e+007    0.1014   -0.0000    0.0000    0.0000    0.2279
                0.0460   2.1988e-003  -2.8595e-004   6.6045e-003   4.2217e+007  -2.0208e+003   2.6088e+007    0.1253   -0.0000    0.0000    0.0000    0.2268
                0.0641   2.6944e-003  -3.5041e-004   6.5527e-003   5.1733e+007  -2.5366e+003   2.5883e+007    0.1535   -0.0000    0.0000    0.0000    0.2251
                0.0829   3.1190e-003  -4.0562e-004   6.4870e-003   5.9885e+007  -2.9647e+003   2.5624e+007    0.1777   -0.0000    0.0000    0.0000    0.2228
                0.1044   3.5241e-003  -4.5830e-004   6.3986e-003   6.7661e+007  -3.4051e+003   2.5274e+007    0.2008   -0.0000    0.0000    0.0000    0.2198
                0.1286   3.9749e-003  -5.1693e-004   6.2839e-003   7.6317e+007  -3.8864e+003   2.4821e+007    0.2265   -0.0000    0.0000    0.0000    0.2158
                0.1541   4.3203e-003  -5.6185e-004   6.1484e-003   8.2948e+007  -4.2559e+003   2.4286e+007    0.2461   -0.0000    0.0000    0.0000    0.2112
                0.1824   4.6934e-003  -6.1038e-004   5.9819e-003   9.0113e+007  -4.6687e+003   2.3629e+007    0.2674   -0.0000    0.0000    0.0000    0.2055
                0.2126   5.0400e-003  -6.5546e-004   5.7881e-003   9.6768e+007  -5.0466e+003   2.2863e+007    0.2871   -0.0000    0.0000    0.0000    0.1988
                0.2448   5.3373e-003  -6.9413e-004   5.5654e-003   1.0248e+008  -5.3754e+003   2.1983e+007    0.3041   -0.0000    0.0000    0.0000    0.1912
                0.2792   5.6555e-003  -7.3551e-004   5.3112e-003   1.0858e+008  -5.7269e+003   2.0979e+007    0.3222   -0.0000    0.0000    0.0000    0.1824
                0.3151   5.8911e-003  -7.6615e-004   5.0305e-003   1.1311e+008  -5.9858e+003   1.9871e+007    0.3356   -0.0000    0.0000    0.0000    0.1728
                0.3530   6.1173e-003  -7.9556e-004   4.7205e-003   1.1745e+008  -6.2382e+003   1.8646e+007    0.3485   -0.0000    0.0000    0.0000    0.1621
                0.3926   6.3284e-003  -8.2302e-004   4.3835e-003   1.2150e+008  -6.4731e+003   1.7315e+007    0.3605   -0.0000    0.0000    0.0000    0.1506
                0.4030   6.3619e-003  -8.2739e-004   4.2921e-003   1.2215e+008  -6.5072e+003   1.6954e+007    0.3625   -0.0000    0.0000    0.0000    0.1474

               lamina:  2     
              matName:  (LEP-core)
                     s           e11           e22           e12           s11           s22           s12   s11_fcT   s11_fcC   s22_fcT   s22_fcC   s12_fcS
                   (m)         (m/m)         (m/m)         (rad)          (Pa)          (Pa)          (Pa)       (-)       (-)       (-)       (-)       (-)
                0.0000   3.9671e-004  -5.1595e-005   6.6729e-003   8.9478e+004   1.8693e+004   6.5395e+005    0.0209   -0.0000    0.0044   -0.0000    0.2217
                0.0043   5.4143e-004  -7.0416e-005   6.6710e-003   1.2212e+005   2.5512e+004   6.5375e+005    0.0285   -0.0000    0.0059   -0.0000    0.2216
                0.0169   9.6442e-004  -1.2543e-004   6.6597e-003   2.1752e+005   4.5443e+004   6.5265e+005    0.0507   -0.0000    0.0106   -0.0000    0.2212
                0.0324   1.4638e-003  -1.9038e-004   6.6350e-003   3.3017e+005   6.8975e+004   6.5023e+005    0.0770   -0.0000    0.0161   -0.0000    0.2204
                0.0460   1.8081e-003  -2.3516e-004   6.6045e-003   4.0782e+005   8.5196e+004   6.4724e+005    0.0951   -0.0000    0.0199   -0.0000    0.2194
                0.0641   2.2682e-003  -2.9499e-004   6.5527e-003   5.1159e+005   1.0688e+005   6.4216e+005    0.1193   -0.0000    0.0249   -0.0000    0.2177
                0.0829   2.6503e-003  -3.4469e-004   6.4870e-003   5.9777e+005   1.2488e+005   6.3573e+005    0.1393   -0.0000    0.0291   -0.0000    0.2155
                0.1044   3.0427e-003  -3.9572e-004   6.3986e-003   6.8627e+005   1.4337e+005   6.2706e+005    0.1600   -0.0000    0.0334   -0.0000    0.2126
                0.1286   3.4716e-003  -4.5151e-004   6.2839e-003   7.8302e+005   1.6358e+005   6.1582e+005    0.1825   -0.0000    0.0381   -0.0000    0.2088
                0.1541   3.8009e-003  -4.9434e-004   6.1484e-003   8.5730e+005   1.7910e+005   6.0254e+005    0.1998   -0.0000    0.0417   -0.0000    0.2043
                0.1824   4.1685e-003  -5.4215e-004   5.9819e-003   9.4021e+005   1.9642e+005   5.8623e+005    0.2192   -0.0000    0.0458   -0.0000    0.1987
                0.2126   4.5052e-003  -5.8594e-004   5.7881e-003   1.0161e+006   2.1228e+005   5.6723e+005    0.2369   -0.0000    0.0495   -0.0000    0.1923
                0.2448   4.7981e-003  -6.2403e-004   5.5654e-003   1.0822e+006   2.2608e+005   5.4541e+005    0.2523   -0.0000    0.0527   -0.0000    0.1849
                0.2792   5.1111e-003  -6.6473e-004   5.3112e-003   1.1528e+006   2.4083e+005   5.2050e+005    0.2687   -0.0000    0.0561   -0.0000    0.1764
                0.3151   5.3417e-003  -6.9473e-004   5.0305e-003   1.2048e+006   2.5170e+005   4.9299e+005    0.2808   -0.0000    0.0587   -0.0000    0.1671
                0.3530   5.5664e-003  -7.2395e-004   4.7205e-003   1.2555e+006   2.6229e+005   4.6261e+005    0.2927   -0.0000    0.0611   -0.0000    0.1568
                0.3926   5.7756e-003  -7.5116e-004   4.3835e-003   1.3027e+006   2.7214e+005   4.2958e+005    0.3037   -0.0000    0.0634   -0.0000    0.1456
                0.4030   5.8060e-003  -7.5511e-004   4.2921e-003   1.3095e+006   2.7357e+005   4.2063e+005    0.3053   -0.0000    0.0638   -0.0000    0.1426

               lamina:  3     
              matName:  (blade-shell)
                     s           e11           e22           e12           s11           s22           s12   s11_fcT   s11_fcC   s22_fcT   s22_fcC   s12_fcS
                   (m)         (m/m)         (m/m)         (rad)          (Pa)          (Pa)          (Pa)       (-)       (-)       (-)       (-)       (-)
                0.0000   3.8793e-004  -5.0453e-005   6.6729e-003   7.4482e+006  -4.4068e+002   2.6358e+007    0.0221   -0.0000    0.0000    0.0000    0.2292
                0.0043   5.3265e-004  -6.9275e-005   6.6710e-003   1.0227e+007  -6.0323e+002   2.6350e+007    0.0303   -0.0000    0.0000    0.0000    0.2291
                0.0169   9.5409e-004  -1.2409e-004   6.6597e-003   1.8318e+007  -1.0775e+003   2.6306e+007    0.0544   -0.0000    0.0000    0.0000    0.2287
                0.0324   1.4488e-003  -1.8843e-004   6.6350e-003   2.7817e+007  -1.6358e+003   2.6208e+007    0.0825   -0.0000    0.0000    0.0000    0.2279
                0.0460   1.7895e-003  -2.3274e-004   6.6045e-003   3.4358e+007  -2.0205e+003   2.6088e+007    0.1020   -0.0000    0.0000    0.0000    0.2268
                0.0641   2.2479e-003  -2.9235e-004   6.5527e-003   4.3159e+007  -2.5364e+003   2.5883e+007    0.1281   -0.0000    0.0000    0.0000    0.2251
                0.0829   2.6279e-003  -3.4178e-004   6.4870e-003   5.0456e+007  -2.9644e+003   2.5624e+007    0.1497   -0.0000    0.0000    0.0000    0.2228
                0.1044   3.0197e-003  -3.9274e-004   6.3986e-003   5.7978e+007  -3.4048e+003   2.5274e+007    0.1720   -0.0000    0.0000    0.0000    0.2198
                0.1286   3.4476e-003  -4.4839e-004   6.2839e-003   6.6194e+007  -3.8861e+003   2.4821e+007    0.1964   -0.0000    0.0000    0.0000    0.2158
                0.1541   3.7762e-003  -4.9112e-004   6.1484e-003   7.2502e+007  -4.2556e+003   2.4286e+007    0.2151   -0.0000    0.0000    0.0000    0.2112
                0.1824   4.1435e-003  -5.3890e-004   5.9819e-003   7.9555e+007  -4.6683e+003   2.3629e+007    0.2361   -0.0000    0.0000    0.0000    0.2055
                0.2126   4.4797e-003  -5.8262e-004   5.7881e-003   8.6010e+007  -5.0462e+003   2.2863e+007    0.2552   -0.0000    0.0000    0.0000    0.1988
                0.2448   4.7724e-003  -6.2068e-004   5.5654e-003   9.1629e+007  -5.3751e+003   2.1983e+007    0.2719   -0.0000    0.0000    0.0000    0.1912
                0.2792   5.0851e-003  -6.6136e-004   5.3112e-003   9.7634e+007  -5.7265e+003   2.0979e+007    0.2897   -0.0000    0.0000    0.0000    0.1824
                0.3151   5.3156e-003  -6.9133e-004   5.0305e-003   1.0206e+008  -5.9855e+003   1.9871e+007    0.3028   -0.0000    0.0000    0.0000    0.1728
                0.3530   5.5401e-003  -7.2054e-004   4.7205e-003   1.0637e+008  -6.2378e+003   1.8646e+007    0.3156   -0.0000    0.0000    0.0000    0.1621
                0.3926   5.7493e-003  -7.4774e-004   4.3835e-003   1.1039e+008  -6.4728e+003   1.7315e+007    0.3276   -0.0000    0.0000    0.0000    0.1506
                0.4030   5.7795e-003  -7.5167e-004   4.2921e-003   1.1097e+008  -6.5068e+003   1.6954e+007    0.3293   -0.0000    0.0000    0.0000    0.1474

            panel:  2     
           lam_num    nPlies        tPly      fibAng     matID  matName
               (-)       (-)         (m)       (deg)       (-)  (-)
                 1         1    0.005364      0.0000         2  (blade-shell)
                 2         1    0.003602      0.0000         3  (spar-uni)
                 3         1    0.000047      0.0000         4  (spar-core)
                 4         1    0.003602      0.0000         3  (spar-uni)
                 5         1    0.005364      0.0000         2  (blade-shell)

               lamina:  1     
              matName:  (blade-shell)
                     s           e11           e22           e12           s11           s22           s12   s11_fcT   s11_fcC   s22_fcT   s22_fcC   s12_fcS
                   (m)         (m/m)         (m/m)         (rad)          (Pa)          (Pa)          (Pa)       (-)       (-)       (-)       (-)       (-)
                0.0000   7.8980e-003  -1.2639e-003   5.3792e-003   1.5104e+008  -4.6323e+006   2.1248e+007    0.4482   -0.0000    0.0000    0.0137    0.1848
                0.0302   7.9862e-003  -1.2789e-003   4.6097e-003   1.5272e+008  -4.7008e+006   1.8208e+007    0.4532   -0.0000    0.0000    0.0139    0.1583
                0.0724   8.1135e-003  -1.3004e-003   3.5138e-003   1.5516e+008  -4.7970e+006   1.3879e+007    0.4604   -0.0000    0.0000    0.0142    0.1207
                0.1156   8.1620e-003  -1.3085e-003   2.3729e-003   1.5608e+008  -4.8325e+006   9.3729e+006    0.4632   -0.0000    0.0000    0.0143    0.0815
                0.1602   8.1486e-003  -1.3062e-003   1.1909e-003   1.5583e+008  -4.8220e+006   4.7041e+006    0.4624   -0.0000    0.0000    0.0143    0.0409
                0.2055   8.1324e-003  -1.3036e-003   9.5103e-006   1.5552e+008  -4.8113e+006   3.7566e+004    0.4615   -0.0000    0.0000    0.0143    0.0003
                0.2517   7.9725e-003  -1.2767e-003   1.2215e-003   1.5246e+008  -4.6919e+006   4.8249e+006    0.4524   -0.0000    0.0000    0.0139    0.0420
                0.2989   7.8070e-003  -1.2487e-003   2.4257e-003   1.4930e+008  -4.5650e+006   9.5814e+006    0.4430   -0.0000    0.0000    0.0135    0.0833
                0.3346   7.6550e-003  -1.2229e-003   3.3153e-003   1.4640e+008  -4.4488e+006   1.3095e+007    0.4344   -0.0000    0.0000    0.0132    0.1139

               lamina:  2     
              matName:  (spar-uni)
                     s           e11           e22           e12           s11           s22           s12   s11_fcT   s11_fcC   s22_fcT   s22_fcC   s12_fcS
                   (m)         (m/m)         (m/m)         (rad)          (Pa)          (Pa)          (Pa)       (-)       (-)       (-)       (-)       (-)
                0.0000   6.5681e-003  -1.0841e-003   5.3792e-003   8.1031e+008   7.8564e+006   2.5336e+007    0.4095   -0.0000    0.1312   -0.0000    0.2460
                0.0302   6.6563e-003  -1.0991e-003   4.6097e-003   8.2119e+008   7.9585e+006   2.1712e+007    0.4150   -0.0000    0.1329   -0.0000    0.2108
                0.0724   6.7812e-003  -1.1203e-003   3.5138e-003   8.3660e+008   8.1035e+006   1.6550e+007    0.4227   -0.0000    0.1353   -0.0000    0.1607
                0.1156   6.8277e-003  -1.1281e-003   2.3729e-003   8.4233e+008   8.1577e+006   1.1176e+007    0.4256   -0.0000    0.1362   -0.0000    0.1085
                0.1602   6.8142e-003  -1.1258e-003   1.1909e-003   8.4067e+008   8.1421e+006   5.6092e+006    0.4248   -0.0000    0.1359   -0.0000    0.0545
                0.2055   6.7997e-003  -1.1234e-003   9.5103e-006   8.3888e+008   8.1250e+006   4.4794e+004    0.4239   -0.0000    0.1356   -0.0000    0.0004
                0.2517   6.6441e-003  -1.0971e-003   1.2215e-003   8.1969e+008   7.9441e+006   5.7532e+006    0.4142   -0.0000    0.1326   -0.0000    0.0559
                0.2989   6.4801e-003  -1.0693e-003   2.4257e-003   7.9946e+008   7.7541e+006   1.1425e+007    0.4040   -0.0000    0.1295   -0.0000    0.1109
                0.3346   6.3298e-003  -1.0438e-003   3.3153e-003   7.8092e+008   7.5798e+006   1.5615e+007    0.3946   -0.0000    0.1265   -0.0000    0.1516

               lamina:  3     
              matName:  (spar-core)
                     s           e11           e22           e12           s11           s22           s12   s11_fcT   s11_fcC   s22_fcT   s22_fcC   s12_fcS
                   (m)         (m/m)         (m/m)         (rad)          (Pa)          (Pa)          (Pa)       (-)       (-)       (-)       (-)       (-)
                0.0000   5.6748e-003  -9.6338e-004   5.3792e-003   1.2624e+006   2.1429e+005   5.2716e+005    0.2943   -0.0000    0.0500   -0.0000    0.1787
                0.0302   5.7631e-003  -9.7836e-004   4.6097e-003   1.2821e+006   2.1762e+005   4.5175e+005    0.2988   -0.0000    0.0507   -0.0000    0.1531
                0.0724   5.8863e-003  -9.9929e-004   3.5138e-003   1.3095e+006   2.2228e+005   3.4435e+005    0.3052   -0.0000    0.0518   -0.0000    0.1167
                0.1156   5.9315e-003  -1.0070e-003   2.3729e-003   1.3195e+006   2.2398e+005   2.3254e+005    0.3076   -0.0000    0.0522   -0.0000    0.0788
                0.1602   5.9180e-003  -1.0047e-003   1.1909e-003   1.3165e+006   2.2347e+005   1.1671e+005    0.3069   -0.0000    0.0521   -0.0000    0.0396
                0.2055   5.9046e-003  -1.0024e-003   9.5103e-006   1.3136e+006   2.2297e+005   9.3201e+002    0.3062   -0.0000    0.0520   -0.0000    0.0003
                0.2517   5.7520e-003  -9.7648e-004   1.2215e-003   1.2796e+006   2.1720e+005   1.1971e+005    0.2983   -0.0000    0.0506   -0.0000    0.0406
                0.2989   5.5889e-003  -9.4880e-004   2.4257e-003   1.2433e+006   2.1105e+005   2.3772e+005    0.2898   -0.0000    0.0492   -0.0000    0.0806
                0.3346   5.4398e-003  -9.2347e-004   3.3153e-003   1.2101e+006   2.0542e+005   3.2490e+005    0.2821   -0.0000    0.0479   -0.0000    0.1101

               lamina:  4     
              matName:  (spar-uni)
                     s           e11           e22           e12           s11           s22           s12   s11_fcT   s11_fcC   s22_fcT   s22_fcC   s12_fcS
                   (m)         (m/m)         (m/m)         (rad)          (Pa)          (Pa)          (Pa)       (-)       (-)       (-)       (-)       (-)
                0.0000   5.6632e-003  -9.6181e-004   5.3792e-003   6.9861e+008   6.5510e+006   2.5336e+007    0.3530   -0.0000    0.1094   -0.0000    0.2460
                0.0302   5.7514e-003  -9.7679e-004   4.6097e-003   7.0949e+008   6.6531e+006   2.1712e+007    0.3585   -0.0000    0.1111   -0.0000    0.2108
                0.0724   5.8747e-003  -9.9772e-004   3.5138e-003   7.2469e+008   6.7957e+006   1.6550e+007    0.3662   -0.0000    0.1135   -0.0000    0.1607
                0.1156   5.9198e-003  -1.0054e-003   2.3729e-003   7.3026e+008   6.8479e+006   1.1176e+007    0.3690   -0.0000    0.1143   -0.0000    0.1085
                0.1602   5.9063e-003  -1.0031e-003   1.1909e-003   7.2860e+008   6.8323e+006   5.6092e+006    0.3682   -0.0000    0.1141   -0.0000    0.0545
                0.2055   5.8930e-003  -1.0008e-003   9.5103e-006   7.2695e+008   6.8169e+006   4.4794e+004    0.3673   -0.0000    0.1138   -0.0000    0.0004
                0.2517   5.7403e-003  -9.7491e-004   1.2215e-003   7.0812e+008   6.6403e+006   5.7532e+006    0.3578   -0.0000    0.1109   -0.0000    0.0559
                0.2989   5.5774e-003  -9.4723e-004   2.4257e-003   6.8801e+008   6.4517e+006   1.1425e+007    0.3477   -0.0000    0.1077   -0.0000    0.1109
                0.3346   5.4282e-003  -9.2190e-004   3.3153e-003   6.6962e+008   6.2791e+006   1.5615e+007    0.3384   -0.0000    0.1048   -0.0000    0.1516

               lamina:  5     
              matName:  (blade-shell)
                     s           e11           e22           e12           s11           s22           s12   s11_fcT   s11_fcC   s22_fcT   s22_fcC   s12_fcS
                   (m)         (m/m)         (m/m)         (rad)          (Pa)          (Pa)          (Pa)       (-)       (-)       (-)       (-)       (-)
                0.0000   4.7700e-003  -8.4106e-004   5.3792e-003   9.1023e+007  -4.3154e+006   2.1248e+007    0.2701   -0.0000    0.0000    0.0128    0.1848
                0.0302   4.8582e-003  -8.5604e-004   4.6097e-003   9.2708e+007  -4.3839e+006   1.8208e+007    0.2751   -0.0000    0.0000    0.0130    0.1583
                0.0724   4.9798e-003  -8.7674e-004   3.5138e-003   9.5030e+007  -4.4796e+006   1.3879e+007    0.2820   -0.0000    0.0000    0.0133    0.1207
                0.1156   5.0236e-003  -8.8423e-004   2.3729e-003   9.5867e+007  -4.5145e+006   9.3729e+006    0.2845   -0.0000    0.0000    0.0134    0.0815
                0.1602   5.0101e-003  -8.8194e-004   1.1909e-003   9.5609e+007  -4.5040e+006   4.7041e+006    0.2837   -0.0000    0.0000    0.0134    0.0409
                0.2055   4.9979e-003  -8.7983e-004   9.5103e-006   9.5376e+007  -4.4938e+006   3.7566e+004    0.2830   -0.0000    0.0000    0.0133    0.0003
                0.2517   4.8482e-003  -8.5430e-004   1.2215e-003   9.2516e+007  -4.3754e+006   4.8249e+006    0.2745   -0.0000    0.0000    0.0130    0.0420
                0.2989   4.6862e-003  -8.2676e-004   2.4257e-003   8.9422e+007  -4.2488e+006   9.5814e+006    0.2653   -0.0000    0.0000    0.0126    0.0833
                0.3346   4.5382e-003  -8.0158e-004   3.3153e-003   8.6596e+007  -4.1330e+006   1.3095e+007    0.2570   -0.0000    0.0000    0.0123    0.1139

            panel:  3     
           lam_num    nPlies        tPly      fibAng     matID  matName
               (-)       (-)         (m)       (deg)       (-)  (-)
                 1         1    0.005364      0.0000         2  (blade-shell)
                 2         1    0.003624      0.0000         6  (TEP-core)
                 3         1    0.005364      0.0000         2  (blade-shell)

               lamina:  1     
              matName:  (blade-shell)
                     s           e11           e22           e12           s11           s22           s12   s11_fcT   s11_fcC   s22_fcT   s22_fcC   s12_fcS
                   (m)         (m/m)         (m/m)         (rad)          (Pa)          (Pa)          (Pa)       (-)       (-)       (-)       (-)       (-)
                0.0000   6.0763e-003  -7.9441e-004   1.9982e-004   1.1665e+008  -8.7625e+004   7.8929e+005    0.3462   -0.0000    0.0000    0.0003    0.0069
                0.0116   6.0252e-003  -7.8772e-004   1.0249e-004   1.1567e+008  -8.6855e+004   4.0485e+005    0.3432   -0.0000    0.0000    0.0003    0.0035
                0.0598   5.7498e-003  -7.5170e-004   2.8913e-004   1.1039e+008  -8.2501e+004   1.1420e+006    0.3276   -0.0000    0.0000    0.0002    0.0099
                0.1080   5.4742e-003  -7.1565e-004   6.6127e-004   1.0510e+008  -7.8150e+004   2.6120e+006    0.3119   -0.0000    0.0000    0.0002    0.0227
                0.1562   5.1539e-003  -6.7375e-004   1.0127e-003   9.8945e+007  -7.3100e+004   4.0001e+006    0.2936   -0.0000    0.0000    0.0002    0.0348
                0.2042   4.8159e-003  -6.2953e-004   1.3398e-003   9.2456e+007  -6.7752e+004   5.2922e+006    0.2743   -0.0000    0.0000    0.0002    0.0460
                0.2516   4.4804e-003  -5.8565e-004   1.6396e-003   8.6016e+007  -6.2446e+004   6.4765e+006    0.2552   -0.0000    0.0000    0.0002    0.0563
                0.2985   4.1258e-003  -5.3927e-004   1.9120e-003   7.9208e+007  -5.6837e+004   7.5523e+006    0.2350   -0.0000    0.0000    0.0002    0.0657
                0.3444   3.7790e-003  -4.9390e-004   2.1555e-003   7.2550e+007  -5.1334e+004   8.5142e+006    0.2153   -0.0000    0.0000    0.0002    0.0740
                0.3892   3.4460e-003  -4.5034e-004   2.3705e-003   6.6158e+007  -4.6048e+004   9.3636e+006    0.1963   -0.0000    0.0000    0.0001    0.0814
                0.4326   3.1298e-003  -4.0897e-004   2.5583e-003   6.0087e+007  -4.1029e+004   1.0105e+007    0.1783   -0.0000    0.0000    0.0001    0.0879
                0.4747   2.8248e-003  -3.6908e-004   2.7207e-003   5.4232e+007  -3.6174e+004   1.0747e+007    0.1609   -0.0000    0.0000    0.0001    0.0935
                0.5149   2.5648e-003  -3.3506e-004   2.8594e-003   4.9240e+007  -3.2027e+004   1.1295e+007    0.1461   -0.0000    0.0000    0.0001    0.0982
                0.5532   2.3244e-003  -3.0362e-004   2.9775e-003   4.4625e+007  -2.8205e+004   1.1761e+007    0.1324   -0.0000    0.0000    0.0001    0.1023
                0.5896   2.1059e-003  -2.7503e-004   3.0776e-003   4.0430e+007  -2.4709e+004   1.2156e+007    0.1200   -0.0000    0.0000    0.0001    0.1057
                0.6238   1.9454e-003  -2.5404e-004   3.1618e-003   3.7349e+007  -2.2140e+004   1.2489e+007    0.1108   -0.0000    0.0000    0.0001    0.1086
                0.6557   1.7951e-003  -2.3437e-004   3.2333e-003   3.4463e+007  -1.9741e+004   1.2771e+007    0.1023   -0.0000    0.0000    0.0001    0.1111
                0.6852   1.6870e-003  -2.2024e-004   3.2940e-003   3.2389e+007  -1.8001e+004   1.3011e+007    0.0961   -0.0000    0.0000    0.0001    0.1131
                0.7121   1.6140e-003  -2.1068e-004   3.3459e-003   3.0986e+007  -1.6832e+004   1.3216e+007    0.0919   -0.0000    0.0000    0.0000    0.1149
                0.7366   1.5480e-003  -2.0205e-004   3.3908e-003   2.9720e+007  -1.5770e+004   1.3394e+007    0.0882   -0.0000    0.0000    0.0000    0.1165
                0.7585   1.5353e-003  -2.0039e-004   3.4296e-003   2.9476e+007  -1.5559e+004   1.3547e+007    0.0875   -0.0000    0.0000    0.0000    0.1178
                0.7774   1.5290e-003  -1.9956e-004   3.4632e-003   2.9354e+007  -1.5458e+004   1.3680e+007    0.0871   -0.0000    0.0000    0.0000    0.1190
                0.7938   1.5343e-003  -2.0025e-004   3.4923e-003   2.9456e+007  -1.5548e+004   1.3795e+007    0.0874   -0.0000    0.0000    0.0000    0.1200
                0.8073   1.5660e-003  -2.0440e-004   3.5168e-003   3.0064e+007  -1.6065e+004   1.3891e+007    0.0892   -0.0000    0.0000    0.0000    0.1208
                0.8179   1.5905e-003  -2.0761e-004   3.5365e-003   3.0536e+007  -1.6472e+004   1.3969e+007    0.0906   -0.0000    0.0000    0.0000    0.1215
                0.8257   1.6224e-003  -2.1178e-004   3.5515e-003   3.1148e+007  -1.7030e+004   1.4028e+007    0.0924   -0.0000    0.0000    0.0001    0.1220
                0.8304   1.6482e-003  -2.1516e-004   3.5607e-003   3.1642e+007  -1.7474e+004   1.4065e+007    0.0939   -0.0000    0.0000    0.0001    0.1223
                0.8319   1.6572e-003  -2.1634e-004   3.5637e-003   3.1816e+007  -1.7617e+004   1.4077e+007    0.0944   -0.0000    0.0000    0.0001    0.1224

               lamina:  2     
              matName:  (TEP-core)
                     s           e11           e22           e12           s11           s22           s12   s11_fcT   s11_fcC   s22_fcT   s22_fcC   s12_fcS
                   (m)         (m/m)         (m/m)         (rad)          (Pa)          (Pa)          (Pa)       (-)       (-)       (-)       (-)       (-)
                0.0000   5.6440e-003  -7.3818e-004   1.9982e-004   1.2727e+006   2.6496e+005   1.9582e+004    0.2967   -0.0000    0.0618   -0.0000    0.0066
                0.0116   5.5948e-003  -7.3176e-004   1.0249e-004   1.2616e+006   2.6266e+005   1.0044e+004    0.2941   -0.0000    0.0612   -0.0000    0.0034
                0.0598   5.3201e-003  -6.9582e-004   2.8913e-004   1.1996e+006   2.4976e+005   2.8334e+004    0.2796   -0.0000    0.0582   -0.0000    0.0096
                0.1080   5.0455e-003  -6.5990e-004   6.6127e-004   1.1377e+006   2.3687e+005   6.4805e+004    0.2652   -0.0000    0.0552   -0.0000    0.0220
                0.1562   4.7266e-003  -6.1818e-004   1.0127e-003   1.0658e+006   2.2190e+005   9.9242e+004    0.2484   -0.0000    0.0517   -0.0000    0.0336
                0.2042   4.3891e-003  -5.7404e-004   1.3398e-003   9.8972e+005   2.0606e+005   1.3130e+005    0.2307   -0.0000    0.0480   -0.0000    0.0445
                0.2516   4.0544e-003  -5.3025e-004   1.6396e-003   9.1423e+005   1.9034e+005   1.6068e+005    0.2131   -0.0000    0.0444   -0.0000    0.0545
                0.2985   3.7004e-003  -4.8395e-004   1.9120e-003   8.3442e+005   1.7373e+005   1.8737e+005    0.1945   -0.0000    0.0405   -0.0000    0.0635
                0.3444   3.3534e-003  -4.3856e-004   2.1555e-003   7.5618e+005   1.5744e+005   2.1124e+005    0.1763   -0.0000    0.0367   -0.0000    0.0716
                0.3892   3.0202e-003  -3.9496e-004   2.3705e-003   6.8102e+005   1.4180e+005   2.3231e+005    0.1587   -0.0000    0.0331   -0.0000    0.0787
                0.4326   2.7037e-003  -3.5356e-004   2.5583e-003   6.0967e+005   1.2694e+005   2.5071e+005    0.1421   -0.0000    0.0296   -0.0000    0.0850
                0.4747   2.3978e-003  -3.1355e-004   2.7207e-003   5.4069e+005   1.1258e+005   2.6663e+005    0.1260   -0.0000    0.0262   -0.0000    0.0904
                0.5149   2.1366e-003  -2.7938e-004   2.8594e-003   4.8179e+005   1.0032e+005   2.8022e+005    0.1123   -0.0000    0.0234   -0.0000    0.0950
                0.5532   1.8957e-003  -2.4787e-004   2.9775e-003   4.2747e+005   8.9013e+004   2.9180e+005    0.0996   -0.0000    0.0207   -0.0000    0.0989
                0.5896   1.6756e-003  -2.1908e-004   3.0776e-003   3.7784e+005   7.8682e+004   3.0160e+005    0.0881   -0.0000    0.0183   -0.0000    0.1022
                0.6238   1.5140e-003  -1.9793e-004   3.1618e-003   3.4139e+005   7.1094e+004   3.0985e+005    0.0796   -0.0000    0.0166   -0.0000    0.1050
                0.6557   1.3628e-003  -1.7816e-004   3.2333e-003   3.0732e+005   6.4000e+004   3.1686e+005    0.0716   -0.0000    0.0149   -0.0000    0.1074
                0.6852   1.2535e-003  -1.6386e-004   3.2940e-003   2.8266e+005   5.8867e+004   3.2281e+005    0.0659   -0.0000    0.0137   -0.0000    0.1094
                0.7121   1.1799e-003  -1.5423e-004   3.3459e-003   2.6606e+005   5.5412e+004   3.2790e+005    0.0620   -0.0000    0.0129   -0.0000    0.1112
                0.7366   1.1131e-003  -1.4550e-004   3.3908e-003   2.5101e+005   5.2279e+004   3.3230e+005    0.0585   -0.0000    0.0122   -0.0000    0.1126
                0.7585   1.1000e-003  -1.4377e-004   3.4296e-003   2.4804e+005   5.1660e+004   3.3610e+005    0.0578   -0.0000    0.0120   -0.0000    0.1139
                0.7774   1.0936e-003  -1.4294e-004   3.4632e-003   2.4660e+005   5.1361e+004   3.3940e+005    0.0575   -0.0000    0.0120   -0.0000    0.1150
                0.7938   1.0992e-003  -1.4367e-004   3.4923e-003   2.4786e+005   5.1624e+004   3.4225e+005    0.0578   -0.0000    0.0120   -0.0000    0.1160
                0.8073   1.1316e-003  -1.4791e-004   3.5168e-003   2.5517e+005   5.3146e+004   3.4465e+005    0.0595   -0.0000    0.0124   -0.0000    0.1168
                0.8179   1.1570e-003  -1.5124e-004   3.5365e-003   2.6091e+005   5.4339e+004   3.4657e+005    0.0608   -0.0000    0.0127   -0.0000    0.1175
                0.8257   1.1915e-003  -1.5575e-004   3.5515e-003   2.6868e+005   5.5957e+004   3.4804e+005    0.0626   -0.0000    0.0130   -0.0000    0.1180
                0.8304   1.2190e-003  -1.5935e-004   3.5607e-003   2.7488e+005   5.7249e+004   3.4895e+005    0.0641   -0.0000    0.0133   -0.0000    0.1183
                0.8319   1.2280e-003  -1.6053e-004   3.5637e-003   2.7692e+005   5.7673e+004   3.4925e+005    0.0646   -0.0000    0.0134   -0.0000    0.1184

               lamina:  3     
              matName:  (blade-shell)
                     s           e11           e22           e12           s11           s22           s12   s11_fcT   s11_fcC   s22_fcT   s22_fcC   s12_fcS
                   (m)         (m/m)         (m/m)         (rad)          (Pa)          (Pa)          (Pa)       (-)       (-)       (-)       (-)       (-)
                0.0000   5.3519e-003  -7.0020e-004   1.9982e-004   1.0274e+008  -8.7066e+004   7.8929e+005    0.3049   -0.0000    0.0000    0.0003    0.0069
                0.0116   5.3041e-003  -6.9396e-004   1.0249e-004   1.0183e+008  -8.6299e+004   4.0485e+005    0.3022   -0.0000    0.0000    0.0003    0.0035
                0.0598   5.0298e-003  -6.5807e-004   2.8913e-004   9.6561e+007  -8.1946e+004   1.1420e+006    0.2865   -0.0000    0.0000    0.0002    0.0099
                0.1080   4.7558e-003  -6.2223e-004   6.6127e-004   9.1301e+007  -7.7596e+004   2.6120e+006    0.2709   -0.0000    0.0000    0.0002    0.0227
                0.1562   4.4379e-003  -5.8065e-004   1.0127e-003   8.5199e+007  -7.2548e+004   4.0001e+006    0.2528   -0.0000    0.0000    0.0002    0.0348
                0.2042   4.1008e-003  -5.3655e-004   1.3398e-003   7.8728e+007  -6.7201e+004   5.2922e+006    0.2336   -0.0000    0.0000    0.0002    0.0460
                0.2516   3.7665e-003  -4.9282e-004   1.6396e-003   7.2309e+007  -6.1896e+004   6.4765e+006    0.2146   -0.0000    0.0000    0.0002    0.0563
                0.2985   3.4130e-003  -4.4657e-004   1.9120e-003   6.5523e+007  -5.6287e+004   7.5523e+006    0.1944   -0.0000    0.0000    0.0002    0.0657
                0.3444   3.0659e-003  -4.0117e-004   2.1555e-003   5.8859e+007  -5.0784e+004   8.5142e+006    0.1747   -0.0000    0.0000    0.0002    0.0740
                0.3892   2.7324e-003  -3.5754e-004   2.3705e-003   5.2457e+007  -4.5498e+004   9.3636e+006    0.1557   -0.0000    0.0000    0.0001    0.0814
                0.4326   2.4158e-003  -3.1613e-004   2.5583e-003   4.6378e+007  -4.0478e+004   1.0105e+007    0.1376   -0.0000    0.0000    0.0001    0.0879
                0.4747   2.1093e-003  -2.7603e-004   2.7207e-003   4.0493e+007  -3.5622e+004   1.0747e+007    0.1202   -0.0000    0.0000    0.0001    0.0935
                0.5149   1.8473e-003  -2.4175e-004   2.8594e-003   3.5463e+007  -3.1474e+004   1.1295e+007    0.1052   -0.0000    0.0000    0.0001    0.0982
                0.5532   1.6060e-003  -2.1020e-004   2.9775e-003   3.0833e+007  -2.7651e+004   1.1761e+007    0.0915   -0.0000    0.0000    0.0001    0.1023
                0.5896   1.3849e-003  -1.8128e-004   3.0776e-003   2.6588e+007  -2.4153e+004   1.2156e+007    0.0789   -0.0000    0.0000    0.0001    0.1057
                0.6238   1.2225e-003  -1.6002e-004   3.1618e-003   2.3468e+007  -2.1583e+004   1.2489e+007    0.0696   -0.0000    0.0000    0.0001    0.1086
                0.6557   1.0708e-003  -1.4019e-004   3.2333e-003   2.0557e+007  -1.9182e+004   1.2771e+007    0.0610   -0.0000    0.0000    0.0001    0.1111
                0.6852   9.6059e-004  -1.2577e-004   3.2940e-003   1.8441e+007  -1.7441e+004   1.3011e+007    0.0547   -0.0000    0.0000    0.0001    0.1131
                0.7121   8.8662e-004  -1.1609e-004   3.3459e-003   1.7021e+007  -1.6271e+004   1.3216e+007    0.0505   -0.0000    0.0000    0.0000    0.1149
                0.7366   8.1936e-004  -1.0730e-004   3.3908e-003   1.5730e+007  -1.5208e+004   1.3394e+007    0.0467   -0.0000    0.0000    0.0000    0.1165
                0.7585   8.0585e-004  -1.0553e-004   3.4296e-003   1.5470e+007  -1.4997e+004   1.3547e+007    0.0459   -0.0000    0.0000    0.0000    0.1178
                0.7774   7.9944e-004  -1.0469e-004   3.4632e-003   1.5347e+007  -1.4895e+004   1.3680e+007    0.0455   -0.0000    0.0000    0.0000    0.1190
                0.7938   8.0524e-004  -1.0545e-004   3.4923e-003   1.5459e+007  -1.4986e+004   1.3795e+007    0.0459   -0.0000    0.0000    0.0000    0.1200
                0.8073   8.3815e-004  -1.0975e-004   3.5168e-003   1.6091e+007  -1.5504e+004   1.3891e+007    0.0477   -0.0000    0.0000    0.0000    0.1208
                0.8179   8.6417e-004  -1.1316e-004   3.5365e-003   1.6590e+007  -1.5912e+004   1.3969e+007    0.0492   -0.0000    0.0000    0.0000    0.1215
                0.8257   9.0039e-004  -1.1789e-004   3.5515e-003   1.7285e+007  -1.6473e+004   1.4028e+007    0.0513   -0.0000    0.0000    0.0000    0.1220
                0.8304   9.2909e-004  -1.2165e-004   3.5607e-003   1.7836e+007  -1.6919e+004   1.4065e+007    0.0529   -0.0000    0.0000    0.0001    0.1223
                0.8319   9.3812e-004  -1.2283e-004   3.5637e-003   1.8010e+007  -1.7062e+004   1.4077e+007    0.0534   -0.0000    0.0000    0.0001    0.1224

     Web:  panel  nNode   nLam     xc_St    xc_End         b         t         E_eff         G_eff      nu_eff     density  buckleCrit
            (-)    (-)    (-)       (-)       (-)       (m)       (m)          (Pa)          (Pa)         (-)    (kg/m^3)         (-)
              1     10      3    0.2392    0.2392    0.3206    0.0121   6.5707e+009   1.3870e+009      0.1347    691.8998      0.2494
              2     10      3    0.4608    0.4608    0.2972    0.0121   6.5707e+009   1.3870e+009      0.1347    691.8998      0.2274

            panel:  1     
           lam_num    nPlies        tPly      fibAng     matID  matName
               (-)       (-)         (m)       (deg)       (-)  (-)
                 1         1    0.002023      0.0000         7  (web-shell)
                 2         1    0.008047      0.0000         8  (web-core)
                 3         1    0.002023      0.0000         7  (web-shell)

               lamina:  1     
              matName:  (web-shell)
                     s           e11           e22           e12           s11           s22           s12   s11_fcT   s11_fcC   s22_fcT   s22_fcC   s12_fcS
                   (m)         (m/m)         (m/m)         (rad)          (Pa)          (Pa)          (Pa)       (-)       (-)       (-)       (-)       (-)
                0.0000  -5.7728e-003   7.7754e-004   1.3547e-002  -1.1077e+008   5.2862e+005   5.3510e+007    0.0000    0.2229    0.0016   -0.0000    0.4653
                0.0356  -4.5089e-003   6.0730e-004   1.3824e-002  -8.6518e+007   4.1295e+005   5.4604e+007    0.0000    0.1741    0.0012   -0.0000    0.4748
                0.0713  -3.2450e-003   4.3707e-004   1.4034e-002  -6.2266e+007   2.9727e+005   5.5433e+007    0.0000    0.1253    0.0009   -0.0000    0.4820
                0.1069  -1.9811e-003   2.6684e-004   1.4176e-002  -3.8014e+007   1.8159e+005   5.5997e+007    0.0000    0.0765    0.0005   -0.0000    0.4869
                0.1425  -7.1719e-004   9.6610e-005   1.4252e-002  -1.3762e+007   6.5915e+004   5.6295e+007    0.0000    0.0277    0.0002   -0.0000    0.4895
                0.1781   5.4864e-004  -7.3873e-005   1.4261e-002   1.0527e+007  -4.9800e+004   5.6329e+007    0.0312   -0.0000    0.0000    0.0001    0.4898
                0.2138   1.8125e-003  -2.4410e-004   1.4202e-002   3.4779e+007  -1.6548e+005   5.6098e+007    0.1032   -0.0000    0.0000    0.0005    0.4878
                0.2494   3.0765e-003  -4.1434e-004   1.4076e-002   5.9031e+007  -2.8116e+005   5.5602e+007    0.1752   -0.0000    0.0000    0.0008    0.4835
                0.2850   4.3404e-003  -5.8457e-004   1.3884e-002   8.3283e+007  -3.9683e+005   5.4840e+007    0.2471   -0.0000    0.0000    0.0012    0.4769
                0.3206   5.6043e-003  -7.5480e-004   1.3624e-002   1.0754e+008  -5.1251e+005   5.3814e+007    0.3191   -0.0000    0.0000    0.0015    0.4679

               lamina:  2     
              matName:  (web-core)
                     s           e11           e22           e12           s11           s22           s12   s11_fcT   s11_fcC   s22_fcT   s22_fcC   s12_fcS
                   (m)         (m/m)         (m/m)         (rad)          (Pa)          (Pa)          (Pa)       (-)       (-)       (-)       (-)       (-)
                0.0000  -5.7805e-003   7.7854e-004   1.3547e-002  -1.3017e+006  -2.6607e+005   1.3276e+006    0.0000    0.3034    0.0000    0.0620    0.4500
                0.0356  -4.5166e-003   6.0830e-004   1.3824e-002  -1.0171e+006  -2.0789e+005   1.3547e+006    0.0000    0.2371    0.0000    0.0485    0.4592
                0.0713  -3.2527e-003   4.3807e-004   1.4034e-002  -7.3246e+005  -1.4972e+005   1.3753e+006    0.0000    0.1707    0.0000    0.0349    0.4662
                0.1069  -1.9887e-003   2.6784e-004   1.4176e-002  -4.4784e+005  -9.1542e+004   1.3893e+006    0.0000    0.1044    0.0000    0.0213    0.4709
                0.1425  -7.2483e-004   9.7611e-005   1.4252e-002  -1.6323e+005  -3.3366e+004   1.3967e+006    0.0000    0.0380    0.0000    0.0078    0.4735
                0.1781   5.4672e-004  -7.3621e-005   1.4261e-002   1.2312e+005   2.5168e+004   1.3975e+006    0.0287   -0.0000    0.0059   -0.0000    0.4737
                0.2138   1.8106e-003  -2.4385e-004   1.4202e-002   4.0774e+005   8.3344e+004   1.3918e+006    0.0950   -0.0000    0.0194   -0.0000    0.4718
                0.2494   3.0745e-003  -4.1408e-004   1.4076e-002   6.9235e+005   1.4152e+005   1.3795e+006    0.1614   -0.0000    0.0330   -0.0000    0.4676
                0.2850   4.3384e-003  -5.8432e-004   1.3884e-002   9.7697e+005   1.9970e+005   1.3606e+006    0.2277   -0.0000    0.0465   -0.0000    0.4612
                0.3206   5.6024e-003  -7.5455e-004   1.3624e-002   1.2616e+006   2.5787e+005   1.3351e+006    0.2941   -0.0000    0.0601   -0.0000    0.4526

               lamina:  3     
              matName:  (web-shell)
                     s           e11           e22           e12           s11           s22           s12   s11_fcT   s11_fcC   s22_fcT   s22_fcC   s12_fcS
                   (m)         (m/m)         (m/m)         (rad)          (Pa)          (Pa)          (Pa)       (-)       (-)       (-)       (-)       (-)
                0.0000  -5.7824e-003   7.7879e-004   1.3547e-002  -1.1095e+008   5.2881e+005   5.3510e+007    0.0000    0.2232    0.0016   -0.0000    0.4653
                0.0356  -4.5185e-003   6.0856e-004   1.3824e-002  -8.6701e+007   4.1313e+005   5.4604e+007    0.0000    0.1744    0.0012   -0.0000    0.4748
                0.0713  -3.2546e-003   4.3833e-004   1.4034e-002  -6.2449e+007   2.9746e+005   5.5433e+007    0.0000    0.1257    0.0009   -0.0000    0.4820
                0.1069  -1.9907e-003   2.6809e-004   1.4176e-002  -3.8197e+007   1.8178e+005   5.5997e+007    0.0000    0.0769    0.0005   -0.0000    0.4869
                0.1425  -7.2675e-004   9.7862e-005   1.4252e-002  -1.3945e+007   6.6102e+004   5.6295e+007    0.0000    0.0281    0.0002   -0.0000    0.4895
                0.1781   5.3908e-004  -7.2621e-005   1.4261e-002   1.0344e+007  -4.9613e+004   5.6329e+007    0.0307   -0.0000    0.0000    0.0001    0.4898
                0.2138   1.8030e-003  -2.4285e-004   1.4202e-002   3.4596e+007  -1.6529e+005   5.6098e+007    0.1027   -0.0000    0.0000    0.0005    0.4878
                0.2494   3.0669e-003  -4.1308e-004   1.4076e-002   5.8848e+007  -2.8097e+005   5.5602e+007    0.1746   -0.0000    0.0000    0.0008    0.4835
                0.2850   4.3308e-003  -5.8331e-004   1.3884e-002   8.3100e+007  -3.9665e+005   5.4840e+007    0.2466   -0.0000    0.0000    0.0012    0.4769
                0.3206   5.5947e-003  -7.5355e-004   1.3624e-002   1.0735e+008  -5.1232e+005   5.3814e+007    0.3186   -0.0000    0.0000    0.0015    0.4679

            panel:  2     
           lam_num    nPlies        tPly      fibAng     matID  matName
               (-)       (-)         (m)       (deg)       (-)  (-)
                 1         1    0.002023      0.0000         7  (web-shell)
                 2         1    0.008047      0.0000         8  (web-core)
                 3         1    0.002023      0.0000         7  (web-shell)

               lamina:  1     
              matName:  (web-shell)
                     s           e11           e22           e12           s11           s22           s12   s11_fcT   s11_fcC   s22_fcT   s22_fcC   s12_fcS
                   (m)         (m/m)         (m/m)         (rad)          (Pa)          (Pa)          (Pa)       (-)       (-)       (-)       (-)       (-)
                0.0000  -5.4225e-003   7.3035e-004   1.5530e-002  -1.0405e+008   4.9655e+005   6.1345e+007    0.0000    0.2094    0.0015   -0.0000    0.5334
                0.0330  -4.2510e-003   5.7257e-004   1.5768e-002  -8.1569e+007   3.8933e+005   6.2283e+007    0.0000    0.1641    0.0012   -0.0000    0.5416
                0.0660  -3.0795e-003   4.1478e-004   1.5948e-002  -5.9090e+007   2.8211e+005   6.2993e+007    0.0000    0.1189    0.0008   -0.0000    0.5478
                0.0991  -1.9080e-003   2.5700e-004   1.6070e-002  -3.6611e+007   1.7489e+005   6.3475e+007    0.0000    0.0737    0.0005   -0.0000    0.5520
                0.1321  -7.3654e-004   9.9215e-005   1.6134e-002  -1.4133e+007   6.7676e+004   6.3730e+007    0.0000    0.0284    0.0002   -0.0000    0.5542
                0.1651   4.3681e-004  -5.8811e-005   1.6141e-002   8.3815e+006  -3.9579e+004   6.3757e+007    0.0249   -0.0000    0.0000    0.0001    0.5544
                0.1981   1.6083e-003  -2.1660e-004   1.6090e-002   3.0860e+007  -1.4680e+005   6.3557e+007    0.0916   -0.0000    0.0000    0.0004    0.5527
                0.2311   2.7798e-003  -3.7438e-004   1.5982e-002   5.3339e+007  -2.5402e+005   6.3128e+007    0.1583   -0.0000    0.0000    0.0008    0.5489
                0.2642   3.9513e-003  -5.3216e-004   1.5816e-002   7.5818e+007  -3.6124e+005   6.2472e+007    0.2250   -0.0000    0.0000    0.0011    0.5432
                0.2972   5.1228e-003  -6.8995e-004   1.5592e-002   9.8296e+007  -4.6845e+005   6.1588e+007    0.2917   -0.0000    0.0000    0.0014    0.5355

               lamina:  2     
              matName:  (web-core)
                     s           e11           e22           e12           s11           s22           s12   s11_fcT   s11_fcC   s22_fcT   s22_fcC   s12_fcS
                   (m)         (m/m)         (m/m)         (rad)          (Pa)          (Pa)          (Pa)       (-)       (-)       (-)       (-)       (-)
                0.0000  -5.4299e-003   7.3132e-004   1.5530e-002  -1.2228e+006  -2.4993e+005   1.5220e+006    0.0000    0.2850    0.0000    0.0583    0.5159
                0.0330  -4.2584e-003   5.7353e-004   1.5768e-002  -9.5894e+005  -1.9601e+005   1.5452e+006    0.0000    0.2235    0.0000    0.0457    0.5238
                0.0660  -3.0869e-003   4.1575e-004   1.5948e-002  -6.9514e+005  -1.4209e+005   1.5629e+006    0.0000    0.1620    0.0000    0.0331    0.5298
                0.0991  -1.9154e-003   2.5797e-004   1.6070e-002  -4.3133e+005  -8.8166e+004   1.5748e+006    0.0000    0.1005    0.0000    0.0206    0.5338
                0.1321  -7.4392e-004   1.0018e-004   1.6134e-002  -1.6752e+005  -3.4245e+004   1.5812e+006    0.0000    0.0390    0.0000    0.0080    0.5360
                0.1651   4.3495e-004  -5.8568e-005   1.6141e-002   9.7947e+004   2.0023e+004   1.5818e+006    0.0228   -0.0000    0.0047   -0.0000    0.5362
                0.1981   1.6064e-003  -2.1635e-004   1.6090e-002   3.6175e+005   7.3945e+004   1.5768e+006    0.0843   -0.0000    0.0172   -0.0000    0.5345
                0.2311   2.7779e-003  -3.7414e-004   1.5982e-002   6.2556e+005   1.2787e+005   1.5662e+006    0.1458   -0.0000    0.0298   -0.0000    0.5309
                0.2642   3.9494e-003  -5.3192e-004   1.5816e-002   8.8937e+005   1.8179e+005   1.5499e+006    0.2073   -0.0000    0.0424   -0.0000    0.5254
                0.2972   5.1209e-003  -6.8970e-004   1.5592e-002   1.1532e+006   2.3571e+005   1.5280e+006    0.2688   -0.0000    0.0549   -0.0000    0.5180

               lamina:  3     
              matName:  (web-shell)
                     s           e11           e22           e12           s11           s22           s12   s11_fcT   s11_fcC   s22_fcT   s22_fcC   s12_fcS
                   (m)         (m/m)         (m/m)         (rad)          (Pa)          (Pa)          (Pa)       (-)       (-)       (-)       (-)       (-)
                0.0000  -5.4317e-003   7.3156e-004   1.5530e-002  -1.0422e+008   4.9673e+005   6.1345e+007    0.0000    0.2097    0.0015   -0.0000    0.5334
                0.0330  -4.2602e-003   5.7378e-004   1.5768e-002  -8.1746e+007   3.8951e+005   6.2283e+007    0.0000    0.1645    0.0012   -0.0000    0.5416
                0.0660  -3.0888e-003   4.1599e-004   1.5948e-002  -5.9267e+007   2.8229e+005   6.2993e+007    0.0000    0.1193    0.0008   -0.0000    0.5478
                0.0991  -1.9173e-003   2.5821e-004   1.6070e-002  -3.6789e+007   1.7508e+005   6.3475e+007    0.0000    0.0740    0.0005   -0.0000    0.5520
                0.1321  -7.4577e-004   1.0043e-004   1.6134e-002  -1.4310e+007   6.7857e+004   6.3730e+007    0.0000    0.0288    0.0002   -0.0000    0.5542
                0.1651   4.2757e-004  -5.7602e-005   1.6141e-002   8.2042e+006  -3.9398e+004   6.3757e+007    0.0243   -0.0000    0.0000    0.0001    0.5544
                0.1981   1.5991e-003  -2.1539e-004   1.6090e-002   3.0683e+007  -1.4662e+005   6.3557e+007    0.0910   -0.0000    0.0000    0.0004    0.5527
                0.2311   2.7705e-003  -3.7317e-004   1.5982e-002   5.3162e+007  -2.5384e+005   6.3128e+007    0.1577   -0.0000    0.0000    0.0008    0.5489
                0.2642   3.9420e-003  -5.3095e-004   1.5816e-002   7.5640e+007  -3.6105e+005   6.2472e+007    0.2245   -0.0000    0.0000    0.0011    0.5432
                0.2972   5.1135e-003  -6.8874e-004   1.5592e-002   9.8119e+007  -4.6827e+005   6.1588e+007    0.2912   -0.0000    0.0000    0.0014    0.5355

================================================================================
sec        =  12     
zSec       =  3.3030  (m)
nPanelsTop =  3      
nPanelsBot =  3      
nWebs      =  2      

    Top:  panel  nNode   nLam     xc_St    xc_End         b         t         E_eff         G_eff      nu_eff     density  buckleCrit
            (-)    (-)    (-)       (-)       (-)       (m)       (m)          (Pa)          (Pa)         (-)    (kg/m^3)         (-)
              1     18      3    0.0000    0.2391    0.4101    0.0106   1.8754e+010   3.8595e+009      0.1301   1635.4508      0.2953
              2      9      5    0.2391    0.4609    0.3254    0.0172   6.0302e+010   4.2402e+009      0.1692   1586.8624      0.3991
              3     28      3    0.4609    1.0000    0.8153    0.0138   1.4475e+010   2.9911e+009      0.1308   1304.0797      0.8070

            panel:  1     
           lam_num    nPlies        tPly      fibAng     matID  matName
               (-)       (-)         (m)       (deg)       (-)  (-)
                 1         1    0.005177      0.0000         2  (blade-shell)
                 2         1    0.000249      0.0000         5  (LEP-core)
                 3         1    0.005177      0.0000         2  (blade-shell)

               lamina:  1     
              matName:  (blade-shell)
                     s           e11           e22           e12           s11           s22           s12   s11_fcT   s11_fcC   s22_fcT   s22_fcC   s12_fcS
                   (m)         (m/m)         (m/m)         (rad)          (Pa)          (Pa)          (Pa)       (-)       (-)       (-)       (-)       (-)
                0.0000   4.9139e-004  -6.3909e-005   6.7506e-003   9.4345e+006  -5.6224e+002   2.6665e+007    0.0280   -0.0000    0.0000    0.0000    0.2319
                0.0047   3.3046e-004  -4.2979e-005   6.7525e-003   6.3448e+006  -3.7974e+002   2.6672e+007    0.0188   -0.0000    0.0000    0.0000    0.2319
                0.0183  -3.5337e-004   4.5946e-005   6.7513e-003  -6.7847e+006   1.5569e+002   2.6668e+007    0.0000    0.0137    0.0000   -0.0000    0.2319
                0.0352  -1.0069e-003   1.3093e-004   6.7356e-003  -1.9331e+007   7.9292e+002   2.6606e+007    0.0000    0.0389    0.0000   -0.0000    0.2314
                0.0497  -1.4717e-003   1.9139e-004   6.7110e-003  -2.8257e+007   1.2376e+003   2.6508e+007    0.0000    0.0569    0.0000   -0.0000    0.2305
                0.0689  -2.0266e-003   2.6355e-004   6.6641e-003  -3.8910e+007   1.8296e+003   2.6323e+007    0.0000    0.0783    0.0000   -0.0000    0.2289
                0.0887  -2.5214e-003   3.2790e-004   6.6002e-003  -4.8410e+007   2.3446e+003   2.6071e+007    0.0000    0.0974    0.0000   -0.0000    0.2267
                0.1113  -3.0099e-003   3.9143e-004   6.5106e-003  -5.7789e+007   2.8838e+003   2.5717e+007    0.0000    0.1163    0.0000   -0.0000    0.2236
                0.1365  -3.5556e-003   4.6240e-004   6.3900e-003  -6.8266e+007   3.4733e+003   2.5240e+007    0.0000    0.1374    0.0000   -0.0000    0.2195
                0.1624  -3.9819e-003   5.1785e-004   6.2471e-003  -7.6453e+007   3.9342e+003   2.4676e+007    0.0000    0.1538    0.0000   -0.0000    0.2146
                0.1912  -4.4429e-003   5.7781e-004   6.0678e-003  -8.5304e+007   4.4489e+003   2.3968e+007    0.0000    0.1716    0.0000   -0.0000    0.2084
                0.2217  -4.8752e-003   6.3403e-004   5.8573e-003  -9.3604e+007   4.9241e+003   2.3136e+007    0.0000    0.1883    0.0000   -0.0000    0.2012
                0.2539  -5.2510e-003   6.8290e-004   5.6144e-003  -1.0082e+008   5.3434e+003   2.2177e+007    0.0000    0.2029    0.0000   -0.0000    0.1928
                0.2882  -5.6535e-003   7.3526e-004   5.3342e-003  -1.0855e+008   5.7913e+003   2.1070e+007    0.0000    0.2184    0.0000   -0.0000    0.1832
                0.3237  -5.9546e-003   7.7441e-004   5.0259e-003  -1.1433e+008   6.1244e+003   1.9852e+007    0.0000    0.2300    0.0000   -0.0000    0.1726
                0.3611  -6.2440e-003   8.1205e-004   4.6835e-003  -1.1988e+008   6.4500e+003   1.8500e+007    0.0000    0.2412    0.0000   -0.0000    0.1609
                0.4000  -6.5161e-003   8.4744e-004   4.3102e-003  -1.2511e+008   6.7554e+003   1.7025e+007    0.0000    0.2517    0.0000   -0.0000    0.1480
                0.4101  -6.5617e-003   8.5337e-004   4.2109e-003  -1.2598e+008   6.8013e+003   1.6633e+007    0.0000    0.2535    0.0000   -0.0000    0.1446

               lamina:  2     
              matName:  (LEP-core)
                     s           e11           e22           e12           s11           s22           s12   s11_fcT   s11_fcC   s22_fcT   s22_fcC   s12_fcS
                   (m)         (m/m)         (m/m)         (rad)          (Pa)          (Pa)          (Pa)       (-)       (-)       (-)       (-)       (-)
                0.0000   5.0015e-004  -6.5049e-005   6.7506e-003   1.1281e+005   2.3567e+004   6.6155e+005    0.0263   -0.0000    0.0055   -0.0000    0.2243
                0.0047   3.3923e-004  -4.4119e-005   6.7525e-003   7.6512e+004   1.5984e+004   6.6175e+005    0.0178   -0.0000    0.0037   -0.0000    0.2243
                0.0183  -1.4224e-004   1.8500e-005   6.7513e-003  -3.2083e+004  -6.7025e+003   6.6163e+005    0.0000    0.0075    0.0000    0.0016    0.2243
                0.0352  -7.0624e-004   9.1851e-005   6.7356e-003  -1.5929e+005  -3.3277e+004   6.6009e+005    0.0000    0.0371    0.0000    0.0078    0.2238
                0.0497  -1.1000e-003   1.4307e-004   6.7110e-003  -2.4811e+005  -5.1832e+004   6.5768e+005    0.0000    0.0578    0.0000    0.0121    0.2229
                0.0689  -1.6228e-003   2.1106e-004   6.6641e-003  -3.6602e+005  -7.6465e+004   6.5308e+005    0.0000    0.0853    0.0000    0.0178    0.2214
                0.0887  -2.0778e-003   2.7023e-004   6.6002e-003  -4.6865e+005  -9.7904e+004   6.4682e+005    0.0000    0.1092    0.0000    0.0228    0.2193
                0.1113  -2.5536e-003   3.3211e-004   6.5106e-003  -5.7596e+005  -1.2032e+005   6.3804e+005    0.0000    0.1343    0.0000    0.0280    0.2163
                0.1365  -3.0740e-003   3.9979e-004   6.3900e-003  -6.9333e+005  -1.4484e+005   6.2622e+005    0.0000    0.1616    0.0000    0.0338    0.2123
                0.1624  -3.4809e-003   4.5271e-004   6.2471e-003  -7.8511e+005  -1.6402e+005   6.1221e+005    0.0000    0.1830    0.0000    0.0382    0.2075
                0.1912  -3.9349e-003   5.1176e-004   6.0678e-003  -8.8751e+005  -1.8541e+005   5.9465e+005    0.0000    0.2069    0.0000    0.0432    0.2016
                0.2217  -4.3542e-003   5.6630e-004   5.8573e-003  -9.8209e+005  -2.0517e+005   5.7402e+005    0.0000    0.2289    0.0000    0.0478    0.1946
                0.2539  -4.7241e-003   6.1440e-004   5.6144e-003  -1.0655e+006  -2.2259e+005   5.5021e+005    0.0000    0.2484    0.0000    0.0519    0.1865
                0.2882  -5.1191e-003   6.6579e-004   5.3342e-003  -1.1546e+006  -2.4121e+005   5.2275e+005    0.0000    0.2691    0.0000    0.0562    0.1772
                0.3237  -5.4130e-003   7.0400e-004   5.0259e-003  -1.2209e+006  -2.5505e+005   4.9253e+005    0.0000    0.2846    0.0000    0.0595    0.1670
                0.3611  -5.7002e-003   7.4135e-004   4.6835e-003  -1.2857e+006  -2.6859e+005   4.5899e+005    0.0000    0.2997    0.0000    0.0626    0.1556
                0.4000  -5.9695e-003   7.7638e-004   4.3102e-003  -1.3464e+006  -2.8128e+005   4.2240e+005    0.0000    0.3138    0.0000    0.0656    0.1432
                0.4101  -6.0102e-003   7.8167e-004   4.2109e-003  -1.3556e+006  -2.8319e+005   4.1266e+005    0.0000    0.3160    0.0000    0.0660    0.1399

               lamina:  3     
              matName:  (blade-shell)
                     s           e11           e22           e12           s11           s22           s12   s11_fcT   s11_fcC   s22_fcT   s22_fcC   s12_fcS
                   (m)         (m/m)         (m/m)         (rad)          (Pa)          (Pa)          (Pa)       (-)       (-)       (-)       (-)       (-)
                0.0000   6.8228e-004  -8.8725e-005   6.7506e-003   1.3100e+007  -5.6236e+002   2.6665e+007    0.0389   -0.0000    0.0000    0.0000    0.2319
                0.0047   5.2135e-004  -6.7796e-005   6.7525e-003   1.0010e+007  -3.7986e+002   2.6672e+007    0.0297   -0.0000    0.0000    0.0000    0.2319
                0.0183  -1.3208e-004   1.7179e-005   6.7513e-003  -2.5360e+006   1.5555e+002   2.6668e+007    0.0000    0.0051    0.0000   -0.0000    0.2319
                0.0352  -6.9177e-004   8.9970e-005   6.7356e-003  -1.3282e+007   7.9273e+002   2.6606e+007    0.0000    0.0267    0.0000   -0.0000    0.2314
                0.0497  -1.0821e-003   1.4074e-004   6.7110e-003  -2.0777e+007   1.2374e+003   2.6508e+007    0.0000    0.0418    0.0000   -0.0000    0.2305
                0.0689  -1.6034e-003   2.0853e-004   6.6641e-003  -3.0784e+007   1.8294e+003   2.6323e+007    0.0000    0.0619    0.0000   -0.0000    0.2289
                0.0887  -2.0564e-003   2.6746e-004   6.6002e-003  -3.9483e+007   2.3443e+003   2.6071e+007    0.0000    0.0794    0.0000   -0.0000    0.2267
                0.1113  -2.5316e-003   3.2926e-004   6.5106e-003  -4.8607e+007   2.8835e+003   2.5717e+007    0.0000    0.0978    0.0000   -0.0000    0.2236
                0.1365  -3.0508e-003   3.9678e-004   6.3900e-003  -5.8575e+007   3.4730e+003   2.5240e+007    0.0000    0.1179    0.0000   -0.0000    0.2195
                0.1624  -3.4567e-003   4.4958e-004   6.2471e-003  -6.6369e+007   3.9339e+003   2.4676e+007    0.0000    0.1335    0.0000   -0.0000    0.2146
                0.1912  -3.9104e-003   5.0858e-004   6.0678e-003  -7.5079e+007   4.4486e+003   2.3968e+007    0.0000    0.1511    0.0000   -0.0000    0.2084
                0.2217  -4.3291e-003   5.6304e-004   5.8573e-003  -8.3118e+007   4.9238e+003   2.3136e+007    0.0000    0.1672    0.0000   -0.0000    0.2012
                0.2539  -4.6987e-003   6.1110e-004   5.6144e-003  -9.0214e+007   5.3431e+003   2.2177e+007    0.0000    0.1815    0.0000   -0.0000    0.1928
                0.2882  -5.0934e-003   6.6244e-004   5.3342e-003  -9.7793e+007   5.7910e+003   2.1070e+007    0.0000    0.1968    0.0000   -0.0000    0.1832
                0.3237  -5.3869e-003   7.0061e-004   5.0259e-003  -1.0343e+008   6.1240e+003   1.9852e+007    0.0000    0.2081    0.0000   -0.0000    0.1726
                0.3611  -5.6740e-003   7.3795e-004   4.6835e-003  -1.0894e+008   6.4496e+003   1.8500e+007    0.0000    0.2192    0.0000   -0.0000    0.1609
                0.4000  -5.9432e-003   7.7296e-004   4.3102e-003  -1.1411e+008   6.7550e+003   1.7025e+007    0.0000    0.2296    0.0000   -0.0000    0.1480
                0.4101  -5.9836e-003   7.7822e-004   4.2109e-003  -1.1488e+008   6.8010e+003   1.6633e+007    0.0000    0.2312    0.0000   -0.0000    0.1446

            panel:  2     
           lam_num    nPlies        tPly      fibAng     matID  matName
               (-)       (-)         (m)       (deg)       (-)  (-)
                 1         1    0.005177      0.0000         2  (blade-shell)
                 2         1    0.003405      0.0000         3  (spar-uni)
                 3         1    0.000047      0.0000         4  (spar-core)
                 4         1    0.003405      0.0000         3  (spar-uni)
                 5         1    0.005177      0.0000         2  (blade-shell)

               lamina:  1     
              matName:  (blade-shell)
                     s           e11           e22           e12           s11           s22           s12   s11_fcT   s11_fcC   s22_fcT   s22_fcC   s12_fcS
                   (m)         (m/m)         (m/m)         (rad)          (Pa)          (Pa)          (Pa)       (-)       (-)       (-)       (-)       (-)
                0.0000  -8.0723e-003   1.2905e-003   5.4844e-003  -1.5438e+008   4.7078e+006   2.1664e+007    0.0000    0.3106    0.0140   -0.0000    0.1884
                0.0297  -8.1924e-003   1.3108e-003   4.6369e-003  -1.5667e+008   4.7997e+006   1.8316e+007    0.0000    0.3152    0.0142   -0.0000    0.1593
                0.0709  -8.3662e-003   1.3399e-003   3.4321e-003  -1.5999e+008   4.9281e+006   1.3557e+007    0.0000    0.3219    0.0146   -0.0000    0.1179
                0.1129  -8.4461e-003   1.3532e-003   2.1822e-003  -1.6152e+008   4.9850e+006   8.6198e+006    0.0000    0.3250    0.0148   -0.0000    0.0750
                0.1562  -8.4506e-003   1.3540e-003   8.8913e-004  -1.6160e+008   4.9880e+006   3.5121e+006    0.0000    0.3252    0.0148   -0.0000    0.0305
                0.2002  -8.4525e-003   1.3544e-003   4.2237e-004  -1.6164e+008   4.9911e+006   1.6684e+006    0.0000    0.3252    0.0148   -0.0000    0.0145
                0.2450  -8.2870e-003   1.3267e-003   1.7402e-003  -1.5848e+008   4.8701e+006   6.8736e+006    0.0000    0.3189    0.0145   -0.0000    0.0598
                0.2906  -8.1150e-003   1.2977e-003   3.0462e-003  -1.5519e+008   4.7407e+006   1.2033e+007    0.0000    0.3123    0.0141   -0.0000    0.1046
                0.3254  -7.9508e-003   1.2700e-003   4.0099e-003  -1.5205e+008   4.6176e+006   1.5839e+007    0.0000    0.3059    0.0137   -0.0000    0.1377

               lamina:  2     
              matName:  (spar-uni)
                     s           e11           e22           e12           s11           s22           s12   s11_fcT   s11_fcC   s22_fcT   s22_fcC   s12_fcS
                   (m)         (m/m)         (m/m)         (rad)          (Pa)          (Pa)          (Pa)       (-)       (-)       (-)       (-)       (-)
                0.0000  -6.7515e-003   1.1122e-003   5.4844e-003  -8.3294e+008  -8.0944e+006   2.5832e+007    0.0000    0.8329    0.0000    0.1351    0.2508
                0.0297  -6.8716e-003   1.1325e-003   4.6369e-003  -8.4776e+008  -8.2340e+006   2.1840e+007    0.0000    0.8478    0.0000    0.1375    0.2120
                0.0709  -7.0414e-003   1.1611e-003   3.4321e-003  -8.6870e+008  -8.4321e+006   1.6165e+007    0.0000    0.8687    0.0000    0.1408    0.1569
                0.1129  -7.1175e-003   1.1739e-003   2.1822e-003  -8.7809e+008  -8.5213e+006   1.0278e+007    0.0000    0.8781    0.0000    0.1423    0.0998
                0.1562  -7.1216e-003   1.1746e-003   8.8913e-004  -8.7859e+008  -8.5262e+006   4.1878e+006    0.0000    0.8786    0.0000    0.1423    0.0407
                0.2002  -7.1249e-003   1.1752e-003   4.2237e-004  -8.7901e+008  -8.5298e+006   1.9894e+006    0.0000    0.8790    0.0000    0.1424    0.0193
                0.2450  -6.9644e-003   1.1481e-003   1.7402e-003  -8.5921e+008  -8.3423e+006   8.1962e+006    0.0000    0.8592    0.0000    0.1393    0.0796
                0.2906  -6.7943e-003   1.1194e-003   3.0462e-003  -8.3822e+008  -8.1442e+006   1.4348e+007    0.0000    0.8382    0.0000    0.1360    0.1393
                0.3254  -6.6324e-003   1.0921e-003   4.0099e-003  -8.1825e+008  -7.9556e+006   1.8887e+007    0.0000    0.8183    0.0000    0.1328    0.1834

               lamina:  3     
              matName:  (spar-core)
                     s           e11           e22           e12           s11           s22           s12   s11_fcT   s11_fcC   s22_fcT   s22_fcC   s12_fcS
                   (m)         (m/m)         (m/m)         (rad)          (Pa)          (Pa)          (Pa)       (-)       (-)       (-)       (-)       (-)
                0.0000  -5.8827e-003   9.9488e-004   5.4844e-003  -1.3090e+006  -2.2304e+005   5.3748e+005    0.0000    0.3051    0.0000    0.0520    0.1822
                0.0297  -6.0028e-003   1.0152e-003   4.6369e-003  -1.3357e+006  -2.2759e+005   4.5441e+005    0.0000    0.3114    0.0000    0.0531    0.1540
                0.0709  -6.1700e-003   1.0435e-003   3.4321e-003  -1.3729e+006  -2.3393e+005   3.3635e+005    0.0000    0.3200    0.0000    0.0545    0.1140
                0.1129  -6.2437e-003   1.0559e-003   2.1822e-003  -1.3893e+006  -2.3672e+005   2.1386e+005    0.0000    0.3238    0.0000    0.0552    0.0725
                0.1562  -6.2475e-003   1.0566e-003   8.8913e-004  -1.3901e+006  -2.3686e+005   8.7135e+004    0.0000    0.3240    0.0000    0.0552    0.0295
                0.2002  -6.2518e-003   1.0573e-003   4.2237e-004  -1.3911e+006  -2.3703e+005   4.1392e+004    0.0000    0.3243    0.0000    0.0553    0.0140
                0.2450  -6.0946e-003   1.0307e-003   1.7402e-003  -1.3561e+006  -2.3107e+005   1.7054e+005    0.0000    0.3161    0.0000    0.0539    0.0578
                0.2906  -5.9257e-003   1.0022e-003   3.0462e-003  -1.3185e+006  -2.2467e+005   2.9853e+005    0.0000    0.3074    0.0000    0.0524    0.1012
                0.3254  -5.7653e-003   9.7502e-004   4.0099e-003  -1.2828e+006  -2.1859e+005   3.9297e+005    0.0000    0.2990    0.0000    0.0510    0.1332

               lamina:  4     
              matName:  (spar-uni)
                     s           e11           e22           e12           s11           s22           s12   s11_fcT   s11_fcC   s22_fcT   s22_fcC   s12_fcS
                   (m)         (m/m)         (m/m)         (rad)          (Pa)          (Pa)          (Pa)       (-)       (-)       (-)       (-)       (-)
                0.0000  -5.8708e-003   9.9327e-004   5.4844e-003  -7.2422e+008  -6.8224e+006   2.5832e+007    0.0000    0.7242    0.0000    0.1139    0.2508
                0.0297  -5.9909e-003   1.0136e-003   4.6369e-003  -7.3904e+008  -6.9621e+006   2.1840e+007    0.0000    0.7390    0.0000    0.1162    0.2120
                0.0709  -6.1580e-003   1.0419e-003   3.4321e-003  -7.5965e+008  -7.1563e+006   1.6165e+007    0.0000    0.7597    0.0000    0.1195    0.1569
                0.1129  -6.2316e-003   1.0543e-003   2.1822e-003  -7.6874e+008  -7.2419e+006   1.0278e+007    0.0000    0.7687    0.0000    0.1209    0.0998
                0.1562  -6.2354e-003   1.0550e-003   8.8913e-004  -7.6921e+008  -7.2463e+006   4.1878e+006    0.0000    0.7692    0.0000    0.1210    0.0407
                0.2002  -6.2398e-003   1.0557e-003   4.2237e-004  -7.6974e+008  -7.2514e+006   1.9894e+006    0.0000    0.7697    0.0000    0.1211    0.0193
                0.2450  -6.0826e-003   1.0291e-003   1.7402e-003  -7.5035e+008  -7.0687e+006   8.1962e+006    0.0000    0.7504    0.0000    0.1180    0.0796
                0.2906  -5.9138e-003   1.0005e-003   3.0462e-003  -7.2952e+008  -6.8724e+006   1.4348e+007    0.0000    0.7295    0.0000    0.1147    0.1393
                0.3254  -5.7534e-003   9.7341e-004   4.0099e-003  -7.0974e+008  -6.6860e+006   1.8887e+007    0.0000    0.7097    0.0000    0.1116    0.1834

               lamina:  5     
              matName:  (blade-shell)
                     s           e11           e22           e12           s11           s22           s12   s11_fcT   s11_fcC   s22_fcT   s22_fcC   s12_fcS
                   (m)         (m/m)         (m/m)         (rad)          (Pa)          (Pa)          (Pa)       (-)       (-)       (-)       (-)       (-)
                0.0000  -5.0021e-003   8.7600e-004   5.4844e-003  -9.5466e+007   4.4085e+006   2.1664e+007    0.0000    0.1921    0.0131   -0.0000    0.1884
                0.0297  -5.1222e-003   8.9631e-004   4.6369e-003  -9.7761e+007   4.5003e+006   1.8316e+007    0.0000    0.1967    0.0134   -0.0000    0.1593
                0.0709  -5.2866e-003   9.2423e-004   3.4321e-003  -1.0090e+008   4.6279e+006   1.3557e+007    0.0000    0.2030    0.0137   -0.0000    0.1179
                0.1129  -5.3578e-003   9.3635e-004   2.1822e-003  -1.0226e+008   4.6840e+006   8.6198e+006    0.0000    0.2058    0.0139   -0.0000    0.0750
                0.1562  -5.3614e-003   9.3696e-004   8.8913e-004  -1.0233e+008   4.6868e+006   3.5121e+006    0.0000    0.2059    0.0139   -0.0000    0.0305
                0.2002  -5.3667e-003   9.3782e-004   4.2237e-004  -1.0243e+008   4.6902e+006   1.6684e+006    0.0000    0.2061    0.0139   -0.0000    0.0145
                0.2450  -5.2128e-003   9.1168e-004   1.7402e-003  -9.9491e+007   4.5704e+006   6.8736e+006    0.0000    0.2002    0.0136   -0.0000    0.0598
                0.2906  -5.0452e-003   8.8328e-004   3.0462e-003  -9.6290e+007   4.4414e+006   1.2033e+007    0.0000    0.1937    0.0132   -0.0000    0.1046
                0.3254  -4.8863e-003   8.5636e-004   4.0099e-003  -9.3255e+007   4.3189e+006   1.5839e+007    0.0000    0.1876    0.0128   -0.0000    0.1377

            panel:  3     
           lam_num    nPlies        tPly      fibAng     matID  matName
               (-)       (-)         (m)       (deg)       (-)  (-)
                 1         1    0.005177      0.0000         2  (blade-shell)
                 2         1    0.003432      0.0000         6  (TEP-core)
                 3         1    0.005177      0.0000         2  (blade-shell)

               lamina:  1     
              matName:  (blade-shell)
                     s           e11           e22           e12           s11           s22           s12   s11_fcT   s11_fcC   s22_fcT   s22_fcC   s12_fcS
                   (m)         (m/m)         (m/m)         (rad)          (Pa)          (Pa)          (Pa)       (-)       (-)       (-)       (-)       (-)
                0.0000  -6.3960e-003   8.3614e-004   7.7160e-004  -1.2279e+008   9.0999e+004   3.0478e+006    0.0000    0.2471    0.0003   -0.0000    0.0265
                0.0111  -6.3411e-003   8.2896e-004   8.7589e-004  -1.2174e+008   9.0200e+004   3.4598e+006    0.0000    0.2449    0.0003   -0.0000    0.0301
                0.0579  -6.0324e-003   7.8859e-004   1.2995e-003  -1.1581e+008   8.5413e+004   5.1329e+006    0.0000    0.2330    0.0003   -0.0000    0.0446
                0.1045  -5.7231e-003   7.4813e-004   1.6984e-003  -1.0987e+008   8.0633e+004   6.7086e+006    0.0000    0.2211    0.0002   -0.0000    0.0583
                0.1513  -5.3456e-003   6.9876e-004   2.0714e-003  -1.0263e+008   7.4812e+004   8.1821e+006    0.0000    0.2065    0.0002   -0.0000    0.0711
                0.1980  -4.9408e-003   6.4581e-004   2.4137e-003  -9.4854e+007   6.8533e+004   9.5340e+006    0.0000    0.1909    0.0002   -0.0000    0.0829
                0.2441  -4.5366e-003   5.9295e-004   2.7206e-003  -8.7095e+007   6.2284e+004   1.0746e+007    0.0000    0.1752    0.0002   -0.0000    0.0934
                0.2899  -4.0781e-003   5.3298e-004   2.9927e-003  -7.8292e+007   5.5191e+004   1.1821e+007    0.0000    0.1575    0.0002   -0.0000    0.1028
                0.3348  -3.6300e-003   4.7438e-004   3.2262e-003  -6.9691e+007   4.8228e+004   1.2743e+007    0.0000    0.1402    0.0001   -0.0000    0.1108
                0.3787  -3.1811e-003   4.1565e-004   3.4216e-003  -6.1071e+007   4.1262e+004   1.3515e+007    0.0000    0.1229    0.0001   -0.0000    0.1175
                0.4215  -2.7299e-003   3.5664e-004   3.5800e-003  -5.2410e+007   3.4255e+004   1.4141e+007    0.0000    0.1055    0.0001   -0.0000    0.1230
                0.4628  -2.2946e-003   2.9970e-004   3.7029e-003  -4.4053e+007   2.7480e+004   1.4626e+007    0.0000    0.0886    0.0001   -0.0000    0.1272
                0.5025  -1.8783e-003   2.4525e-004   3.7929e-003  -3.6060e+007   2.1000e+004   1.4982e+007    0.0000    0.0726    0.0001   -0.0000    0.1303
                0.5404  -1.4811e-003   1.9330e-004   3.8533e-003  -2.8435e+007   1.4818e+004   1.5221e+007    0.0000    0.0572    0.0000   -0.0000    0.1324
                0.5764  -1.1077e-003   1.4446e-004   3.8876e-003  -2.1267e+007   8.9905e+003   1.5356e+007    0.0000    0.0428    0.0000   -0.0000    0.1335
                0.6103  -7.7159e-004   1.0050e-004   3.8999e-003  -1.4814e+007   3.7460e+003   1.5405e+007    0.0000    0.0298    0.0000   -0.0000    0.1340
                0.6419  -4.5719e-004   5.9376e-005   3.8942e-003  -8.7782e+006  -1.4676e+003   1.5382e+007    0.0000    0.0177    0.0000    0.0000    0.1338
                0.6712   2.4177e-004  -3.1728e-005   3.8745e-003   4.6412e+006  -5.8267e+003   1.5304e+007    0.0138   -0.0000    0.0000    0.0000    0.1331
                0.6979   4.8760e-004  -6.3882e-005   3.8448e-003   9.3606e+006  -9.6544e+003   1.5187e+007    0.0278   -0.0000    0.0000    0.0000    0.1321
                0.7222   7.1035e-004  -9.3018e-005   3.8084e-003   1.3637e+007  -1.3125e+004   1.5043e+007    0.0405   -0.0000    0.0000    0.0000    0.1308
                0.7438   8.9228e-004  -1.1681e-004   3.7687e-003   1.7130e+007  -1.5962e+004   1.4886e+007    0.0508   -0.0000    0.0000    0.0000    0.1294
                0.7626   1.0494e-003  -1.3736e-004   3.7289e-003   2.0146e+007  -1.8408e+004   1.4729e+007    0.0598   -0.0000    0.0000    0.0001    0.1281
                0.7786   1.1813e-003  -1.5462e-004   3.6909e-003   2.2679e+007  -2.0464e+004   1.4579e+007    0.0673   -0.0000    0.0000    0.0001    0.1268
                0.7918   1.2845e-003  -1.6812e-004   3.6572e-003   2.4660e+007  -2.2073e+004   1.4446e+007    0.0732   -0.0000    0.0000    0.0001    0.1256
                0.8020   1.3650e-003  -1.7865e-004   3.6293e-003   2.6206e+007  -2.3324e+004   1.4336e+007    0.0778   -0.0000    0.0000    0.0001    0.1247
                0.8094   1.4252e-003  -1.8652e-004   3.6086e-003   2.7360e+007  -2.4256e+004   1.4254e+007    0.0812   -0.0000    0.0000    0.0001    0.1239
                0.8138   1.4624e-003  -1.9139e-004   3.5957e-003   2.8076e+007  -2.4833e+004   1.4203e+007    0.0833   -0.0000    0.0000    0.0001    0.1235
                0.8153   1.4749e-003  -1.9302e-004   3.5913e-003   2.8315e+007  -2.5027e+004   1.4186e+007    0.0840   -0.0000    0.0000    0.0001    0.1234

               lamina:  2     
              matName:  (TEP-core)
                     s           e11           e22           e12           s11           s22           s12   s11_fcT   s11_fcC   s22_fcT   s22_fcC   s12_fcS
                   (m)         (m/m)         (m/m)         (rad)          (Pa)          (Pa)          (Pa)       (-)       (-)       (-)       (-)       (-)
                0.0000  -5.9645e-003   7.8003e-004   7.7160e-004  -1.3450e+006  -2.8003e+005   7.5617e+004    0.0000    0.3135    0.0000    0.0653    0.0256
                0.0111  -5.9124e-003   7.7321e-004   8.7589e-004  -1.3332e+006  -2.7758e+005   8.5838e+004    0.0000    0.3108    0.0000    0.0647    0.0291
                0.0579  -5.6045e-003   7.3294e-004   1.2995e-003  -1.2638e+006  -2.6313e+005   1.2735e+005    0.0000    0.2946    0.0000    0.0613    0.0432
                0.1045  -5.2969e-003   6.9270e-004   1.6984e-003  -1.1944e+006  -2.4869e+005   1.6644e+005    0.0000    0.2784    0.0000    0.0580    0.0564
                0.1513  -4.9220e-003   6.4367e-004   2.0714e-003  -1.1099e+006  -2.3109e+005   2.0300e+005    0.0000    0.2587    0.0000    0.0539    0.0688
                0.1980  -4.5182e-003   5.9086e-004   2.4137e-003  -1.0188e+006  -2.1213e+005   2.3654e+005    0.0000    0.2375    0.0000    0.0494    0.0802
                0.2441  -4.1160e-003   5.3825e-004   2.7206e-003  -9.2813e+005  -1.9325e+005   2.6662e+005    0.0000    0.2163    0.0000    0.0450    0.0904
                0.2899  -3.6595e-003   4.7855e-004   2.9927e-003  -8.2520e+005  -1.7182e+005   2.9329e+005    0.0000    0.1924    0.0000    0.0401    0.0994
                0.3348  -3.2119e-003   4.2000e-004   3.2262e-003  -7.2426e+005  -1.5081e+005   3.1617e+005    0.0000    0.1688    0.0000    0.0352    0.1072
                0.3787  -2.7639e-003   3.6141e-004   3.4216e-003  -6.2325e+005  -1.2978e+005   3.3531e+005    0.0000    0.1453    0.0000    0.0303    0.1137
                0.4215  -2.3134e-003   3.0248e-004   3.5800e-003  -5.2165e+005  -1.0863e+005   3.5084e+005    0.0000    0.1216    0.0000    0.0253    0.1189
                0.4628  -1.8780e-003   2.4553e-004   3.7029e-003  -4.2347e+005  -8.8186e+004   3.6288e+005    0.0000    0.0987    0.0000    0.0206    0.1230
                0.5025  -1.4615e-003   1.9106e-004   3.7929e-003  -3.2957e+005  -6.8637e+004   3.7171e+005    0.0000    0.0768    0.0000    0.0160    0.1260
                0.5404  -1.0642e-003   1.3909e-004   3.8533e-003  -2.3998e+005  -4.9984e+004   3.7762e+005    0.0000    0.0559    0.0000    0.0117    0.1280
                0.5764  -6.8991e-004   9.0133e-005   3.8876e-003  -1.5558e+005  -3.2413e+004   3.8099e+005    0.0000    0.0363    0.0000    0.0076    0.1291
                0.6103  -3.5304e-004   4.6071e-005   3.8999e-003  -7.9616e+004  -1.6598e+004   3.8219e+005    0.0000    0.0186    0.0000    0.0039    0.1296
                0.6419   2.3985e-004  -3.1265e-005   3.8942e-003   5.4091e+004   1.1284e+004   3.8163e+005    0.0126   -0.0000    0.0026   -0.0000    0.1294
                0.6712   5.2044e-004  -6.7966e-005   3.8745e-003   1.1736e+005   2.4457e+004   3.7970e+005    0.0274   -0.0000    0.0057   -0.0000    0.1287
                0.6979   7.6667e-004  -1.0017e-004   3.8448e-003   1.7289e+005   3.6016e+004   3.7679e+005    0.0403   -0.0000    0.0084   -0.0000    0.1277
                0.7222   9.9012e-004  -1.2940e-004   3.8084e-003   2.2327e+005   4.6506e+004   3.7322e+005    0.0520   -0.0000    0.0108   -0.0000    0.1265
                0.7438   1.1729e-003  -1.5330e-004   3.7687e-003   2.6448e+005   5.5086e+004   3.6934e+005    0.0617   -0.0000    0.0128   -0.0000    0.1252
                0.7626   1.3302e-003  -1.7388e-004   3.7289e-003   2.9996e+005   6.2471e+004   3.6543e+005    0.0699   -0.0000    0.0146   -0.0000    0.1239
                0.7786   1.4626e-003  -1.9120e-004   3.6909e-003   3.2981e+005   6.8687e+004   3.6171e+005    0.0769   -0.0000    0.0160   -0.0000    0.1226
                0.7918   1.5662e-003  -2.0475e-004   3.6572e-003   3.5317e+005   7.3550e+004   3.5840e+005    0.0823   -0.0000    0.0171   -0.0000    0.1215
                0.8020   1.6464e-003  -2.1524e-004   3.6293e-003   3.7127e+005   7.7318e+004   3.5567e+005    0.0865   -0.0000    0.0180   -0.0000    0.1206
                0.8094   1.7061e-003  -2.2304e-004   3.6086e-003   3.8472e+005   8.0117e+004   3.5364e+005    0.0897   -0.0000    0.0187   -0.0000    0.1199
                0.8138   1.7431e-003  -2.2788e-004   3.5957e-003   3.9306e+005   8.1854e+004   3.5238e+005    0.0916   -0.0000    0.0191   -0.0000    0.1195
                0.8153   1.7556e-003  -2.2951e-004   3.5913e-003   3.9587e+005   8.2439e+004   3.5195e+005    0.0923   -0.0000    0.0192   -0.0000    0.1193

               lamina:  3     
              matName:  (blade-shell)
                     s           e11           e22           e12           s11           s22           s12   s11_fcT   s11_fcC   s22_fcT   s22_fcC   s12_fcS
                   (m)         (m/m)         (m/m)         (rad)          (Pa)          (Pa)          (Pa)       (-)       (-)       (-)       (-)       (-)
                0.0000  -5.6785e-003   7.4283e-004   7.7160e-004  -1.0902e+008   9.0470e+004   3.0478e+006    0.0000    0.2193    0.0003   -0.0000    0.0265
                0.0111  -5.6282e-003   7.3626e-004   8.7589e-004  -1.0805e+008   8.9674e+004   3.4598e+006    0.0000    0.2174    0.0003   -0.0000    0.0301
                0.0579  -5.3209e-003   6.9606e-004   1.2995e-003  -1.0215e+008   8.4888e+004   5.1329e+006    0.0000    0.2055    0.0003   -0.0000    0.0446
                0.1045  -5.0143e-003   6.5596e-004   1.6984e-003  -9.6264e+007   8.0110e+004   6.7086e+006    0.0000    0.1937    0.0002   -0.0000    0.0583
                0.1513  -4.6412e-003   6.0716e-004   2.0714e-003  -8.9102e+007   7.4292e+004   8.1821e+006    0.0000    0.1793    0.0002   -0.0000    0.0711
                0.1980  -4.2381e-003   5.5443e-004   2.4137e-003  -8.1362e+007   6.8015e+004   9.5340e+006    0.0000    0.1637    0.0002   -0.0000    0.0829
                0.2441  -3.8372e-003   5.0200e-004   2.7206e-003  -7.3666e+007   6.1768e+004   1.0746e+007    0.0000    0.1482    0.0002   -0.0000    0.0934
                0.2899  -3.3821e-003   4.4247e-004   2.9927e-003  -6.4929e+007   5.4677e+004   1.1821e+007    0.0000    0.1306    0.0002   -0.0000    0.1028
                0.3348  -2.9347e-003   3.8395e-004   3.2262e-003  -5.6340e+007   4.7714e+004   1.2743e+007    0.0000    0.1134    0.0001   -0.0000    0.1108
                0.3787  -2.4874e-003   3.2545e-004   3.4216e-003  -4.7753e+007   4.0750e+004   1.3515e+007    0.0000    0.0961    0.0001   -0.0000    0.1175
                0.4215  -2.0373e-003   2.6657e-004   3.5800e-003  -3.9111e+007   3.3743e+004   1.4141e+007    0.0000    0.0787    0.0001   -0.0000    0.1230
                0.4628  -1.6018e-003   2.0961e-004   3.7029e-003  -3.0751e+007   2.6968e+004   1.4626e+007    0.0000    0.0619    0.0001   -0.0000    0.1272
                0.5025  -1.1853e-003   1.5514e-004   3.7929e-003  -2.2755e+007   2.0489e+004   1.4982e+007    0.0000    0.0458    0.0001   -0.0000    0.1303
                0.5404  -7.8786e-004   1.0315e-004   3.8533e-003  -1.5125e+007   1.4306e+004   1.5221e+007    0.0000    0.0304    0.0000   -0.0000    0.1324
                0.5764  -4.1298e-004   5.4122e-005   3.8876e-003  -7.9281e+006   8.4776e+003   1.5356e+007    0.0000    0.0160    0.0000   -0.0000    0.1335
                0.6103   3.4295e-004  -4.4434e-005   3.8999e-003   6.5850e+006   3.2322e+003   1.5405e+007    0.0195   -0.0000    0.0000   -0.0000    0.1340
                0.6419   6.5903e-004  -8.5775e-005   3.8942e-003   1.2653e+007  -1.9822e+003   1.5382e+007    0.0375   -0.0000    0.0000    0.0000    0.1338
                0.6712   9.4086e-004  -1.2264e-004   3.8745e-003   1.8064e+007  -6.3428e+003   1.5304e+007    0.0536   -0.0000    0.0000    0.0000    0.1331
                0.6979   1.1877e-003  -1.5492e-004   3.8448e-003   2.2802e+007  -1.0171e+004   1.5187e+007    0.0677   -0.0000    0.0000    0.0000    0.1321
                0.7222   1.4122e-003  -1.8428e-004   3.8084e-003   2.7112e+007  -1.3644e+004   1.5043e+007    0.0805   -0.0000    0.0000    0.0000    0.1308
                0.7438   1.5962e-003  -2.0835e-004   3.7687e-003   3.0645e+007  -1.6482e+004   1.4886e+007    0.0909   -0.0000    0.0000    0.0000    0.1294
                0.7626   1.7538e-003  -2.2897e-004   3.7289e-003   3.3671e+007  -1.8928e+004   1.4729e+007    0.0999   -0.0000    0.0000    0.0001    0.1281
                0.7786   1.8869e-003  -2.4637e-004   3.6909e-003   3.6226e+007  -2.0985e+004   1.4579e+007    0.1075   -0.0000    0.0000    0.0001    0.1268
                0.7918   1.9911e-003  -2.6000e-004   3.6572e-003   3.8226e+007  -2.2595e+004   1.4446e+007    0.1134   -0.0000    0.0000    0.0001    0.1256
                0.8020   2.0710e-003  -2.7045e-004   3.6293e-003   3.9760e+007  -2.3845e+004   1.4336e+007    0.1180   -0.0000    0.0000    0.0001    0.1247
                0.8094   2.1299e-003  -2.7815e-004   3.6086e-003   4.0890e+007  -2.4776e+004   1.4254e+007    0.1213   -0.0000    0.0000    0.0001    0.1239
                0.8138   2.1665e-003  -2.8294e-004   3.5957e-003   4.1593e+007  -2.5353e+004   1.4203e+007    0.1234   -0.0000    0.0000    0.0001    0.1235
                0.8153   2.1789e-003  -2.8457e-004   3.5913e-003   4.1832e+007  -2.5547e+004   1.4186e+007    0.1241   -0.0000    0.0000    0.0001    0.1234

  Bottom:  panel  nNode   nLam     xc_St    xc_End         b         t         E_eff         G_eff      nu_eff     density  buckleCrit
            (-)    (-)    (-)       (-)       (-)       (m)       (m)          (Pa)          (Pa)         (-)    (kg/m^3)         (-)
              1     18      3    0.0000    0.2391    0.3918    0.0106   1.8754e+010   3.8595e+009      0.1301   1635.4508      0.0876
              2      9      5    0.2391    0.4609    0.3255    0.0172   6.0302e+010   4.2402e+009      0.1692   1586.8624      0.0014
              3     28      3    0.4609    1.0000    0.8087    0.0138   1.4475e+010   2.9911e+009      0.1308   1304.0797      0.1416

            panel:  1     
           lam_num    nPlies        tPly      fibAng     matID  matName
               (-)       (-)         (m)       (deg)       (-)  (-)
                 1         1    0.005177      0.0000         2  (blade-shell)
                 2         1    0.000249      0.0000         5  (LEP-core)
                 3         1    0.005177      0.0000         2  (blade-shell)

               lamina:  1     
              matName:  (blade-shell)
                     s           e11           e22           e12           s11           s22           s12   s11_fcT   s11_fcC   s22_fcT   s22_fcC   s12_fcS
                   (m)         (m/m)         (m/m)         (rad)          (Pa)          (Pa)          (Pa)       (-)       (-)       (-)       (-)       (-)
                0.0000   5.5533e-004  -7.2215e-005   6.7506e-003   1.0662e+007  -4.1779e+002   2.6665e+007    0.0316   -0.0000    0.0000    0.0000    0.2319
                0.0042   7.0044e-004  -9.1087e-005   6.7486e-003   1.3448e+007  -5.8236e+002   2.6657e+007    0.0399   -0.0000    0.0000    0.0000    0.2318
                0.0165   1.1570e-003  -1.5047e-004   6.7372e-003   2.2215e+007  -1.0626e+003   2.6612e+007    0.0659   -0.0000    0.0000    0.0000    0.2314
                0.0315   1.7564e-003  -2.2841e-004   6.7118e-003   3.3722e+007  -1.6283e+003   2.6512e+007    0.1001   -0.0000    0.0000    0.0000    0.2305
                0.0448   2.1770e-003  -2.8312e-004   6.6804e-003   4.1799e+007  -2.0183e+003   2.6388e+007    0.1240   -0.0000    0.0000    0.0000    0.2295
                0.0624   2.6742e-003  -3.4777e-004   6.6271e-003   5.1344e+007  -2.5410e+003   2.6177e+007    0.1524   -0.0000    0.0000    0.0000    0.2276
                0.0806   3.1002e-003  -4.0318e-004   6.5593e-003   5.9524e+007  -2.9750e+003   2.5909e+007    0.1766   -0.0000    0.0000    0.0000    0.2253
                0.1016   3.5069e-003  -4.5607e-004   6.4679e-003   6.7332e+007  -3.4215e+003   2.5548e+007    0.1998   -0.0000    0.0000    0.0000    0.2222
                0.1251   3.9595e-003  -5.1494e-004   6.3494e-003   7.6022e+007  -3.9095e+003   2.5080e+007    0.2256   -0.0000    0.0000    0.0000    0.2181
                0.1498   4.3066e-003  -5.6007e-004   6.2092e-003   8.2686e+007  -4.2846e+003   2.4527e+007    0.2454   -0.0000    0.0000    0.0000    0.2133
                0.1774   4.6816e-003  -6.0885e-004   6.0370e-003   8.9886e+007  -4.7035e+003   2.3846e+007    0.2667   -0.0000    0.0000    0.0000    0.2074
                0.2067   5.0301e-003  -6.5418e-004   5.8363e-003   9.6578e+007  -5.0872e+003   2.3054e+007    0.2866   -0.0000    0.0000    0.0000    0.2005
                0.2381   5.3293e-003  -6.9309e-004   5.6058e-003   1.0232e+008  -5.4214e+003   2.2143e+007    0.3036   -0.0000    0.0000    0.0000    0.1925
                0.2715   5.6495e-003  -7.3473e-004   5.3426e-003   1.0847e+008  -5.7785e+003   2.1103e+007    0.3219   -0.0000    0.0000    0.0000    0.1835
                0.3064   5.8870e-003  -7.6562e-004   5.0519e-003   1.1303e+008  -6.0421e+003   1.9955e+007    0.3354   -0.0000    0.0000    0.0000    0.1735
                0.3433   6.1152e-003  -7.9529e-004   4.7308e-003   1.1741e+008  -6.2991e+003   1.8687e+007    0.3484   -0.0000    0.0000    0.0000    0.1625
                0.3817   6.3283e-003  -8.2301e-004   4.3815e-003   1.2150e+008  -6.5386e+003   1.7307e+007    0.3605   -0.0000    0.0000    0.0000    0.1505
                0.3918   6.3621e-003  -8.2741e-004   4.2877e-003   1.2215e+008  -6.5732e+003   1.6936e+007    0.3625   -0.0000    0.0000    0.0000    0.1473

               lamina:  2     
              matName:  (LEP-core)
                     s           e11           e22           e12           s11           s22           s12   s11_fcT   s11_fcC   s22_fcT   s22_fcC   s12_fcS
                   (m)         (m/m)         (m/m)         (rad)          (Pa)          (Pa)          (Pa)       (-)       (-)       (-)       (-)       (-)
                0.0000   3.7269e-004  -4.8471e-005   6.7506e-003   8.4059e+004   1.7561e+004   6.6155e+005    0.0196   -0.0000    0.0041   -0.0000    0.2243
                0.0042   5.1780e-004  -6.7344e-005   6.7486e-003   1.1679e+005   2.4398e+004   6.6136e+005    0.0272   -0.0000    0.0057   -0.0000    0.2242
                0.0165   9.4203e-004  -1.2252e-004   6.7372e-003   2.1247e+005   4.4388e+004   6.6025e+005    0.0495   -0.0000    0.0103   -0.0000    0.2238
                0.0315   1.4431e-003  -1.8769e-004   6.7118e-003   3.2550e+005   6.7999e+004   6.5776e+005    0.0759   -0.0000    0.0159   -0.0000    0.2230
                0.0448   1.7888e-003  -2.3264e-004   6.6804e-003   4.0345e+005   8.4285e+004   6.5468e+005    0.0940   -0.0000    0.0196   -0.0000    0.2219
                0.0624   2.2505e-003  -2.9270e-004   6.6271e-003   5.0760e+005   1.0604e+005   6.4945e+005    0.1183   -0.0000    0.0247   -0.0000    0.2202
                0.0806   2.6342e-003  -3.4260e-004   6.5593e-003   5.9414e+005   1.2412e+005   6.4281e+005    0.1385   -0.0000    0.0289   -0.0000    0.2179
                0.1016   3.0283e-003  -3.9385e-004   6.4679e-003   6.8302e+005   1.4269e+005   6.3386e+005    0.1592   -0.0000    0.0333   -0.0000    0.2149
                0.1251   3.4591e-003  -4.4988e-004   6.3494e-003   7.8019e+005   1.6299e+005   6.2224e+005    0.1819   -0.0000    0.0380   -0.0000    0.2109
                0.1498   3.7901e-003  -4.9294e-004   6.2092e-003   8.5486e+005   1.7859e+005   6.0851e+005    0.1993   -0.0000    0.0416   -0.0000    0.2063
                0.1774   4.1596e-003  -5.4099e-004   6.0370e-003   9.3820e+005   1.9600e+005   5.9163e+005    0.2187   -0.0000    0.0457   -0.0000    0.2006
                0.2067   4.4982e-003  -5.8503e-004   5.8363e-003   1.0146e+006   2.1195e+005   5.7196e+005    0.2365   -0.0000    0.0494   -0.0000    0.1939
                0.2381   4.7930e-003  -6.2337e-004   5.6058e-003   1.0811e+006   2.2584e+005   5.4937e+005    0.2520   -0.0000    0.0526   -0.0000    0.1862
                0.2715   5.1080e-003  -6.6434e-004   5.3426e-003   1.1521e+006   2.4069e+005   5.2357e+005    0.2686   -0.0000    0.0561   -0.0000    0.1775
                0.3064   5.3406e-003  -6.9459e-004   5.0519e-003   1.2046e+006   2.5164e+005   4.9509e+005    0.2808   -0.0000    0.0587   -0.0000    0.1678
                0.3433   5.5672e-003  -7.2406e-004   4.7308e-003   1.2557e+006   2.6232e+005   4.6362e+005    0.2927   -0.0000    0.0611   -0.0000    0.1572
                0.3817   5.7785e-003  -7.5153e-004   4.3815e-003   1.3033e+006   2.7228e+005   4.2939e+005    0.3038   -0.0000    0.0635   -0.0000    0.1456
                0.3918   5.8090e-003  -7.5551e-004   4.2877e-003   1.3102e+006   2.7372e+005   4.2020e+005    0.3054   -0.0000    0.0638   -0.0000    0.1424

               lamina:  3     
              matName:  (blade-shell)
                     s           e11           e22           e12           s11           s22           s12   s11_fcT   s11_fcC   s22_fcT   s22_fcC   s12_fcS
                   (m)         (m/m)         (m/m)         (rad)          (Pa)          (Pa)          (Pa)       (-)       (-)       (-)       (-)       (-)
                0.0000   3.6390e-004  -4.7328e-005   6.7506e-003   6.9867e+006  -4.1767e+002   2.6665e+007    0.0207   -0.0000    0.0000    0.0000    0.2319
                0.0042   5.0901e-004  -6.6201e-005   6.7486e-003   9.7729e+006  -5.8224e+002   2.6657e+007    0.0290   -0.0000    0.0000    0.0000    0.2318
                0.0165   9.3168e-004  -1.2117e-004   6.7372e-003   1.7888e+007  -1.0625e+003   2.6612e+007    0.0531   -0.0000    0.0000    0.0000    0.2314
                0.0315   1.4281e-003  -1.8573e-004   6.7118e-003   2.7418e+007  -1.6281e+003   2.6512e+007    0.0814   -0.0000    0.0000    0.0000    0.2305
                0.0448   1.7701e-003  -2.3021e-004   6.6804e-003   3.3985e+007  -2.0180e+003   2.6388e+007    0.1008   -0.0000    0.0000    0.0000    0.2295
                0.0624   2.2301e-003  -2.9004e-004   6.6271e-003   4.2818e+007  -2.5407e+003   2.6177e+007    0.1271   -0.0000    0.0000    0.0000    0.2276
                0.0806   2.6118e-003  -3.3968e-004   6.5593e-003   5.0145e+007  -2.9747e+003   2.5909e+007    0.1488   -0.0000    0.0000    0.0000    0.2253
                0.1016   3.0052e-003  -3.9085e-004   6.4679e-003   5.7700e+007  -3.4212e+003   2.5548e+007    0.1712   -0.0000    0.0000    0.0000    0.2222
                0.1251   3.4350e-003  -4.4675e-004   6.3494e-003   6.5951e+007  -3.9092e+003   2.5080e+007    0.1957   -0.0000    0.0000    0.0000    0.2181
                0.1498   3.7653e-003  -4.8970e-004   6.2092e-003   7.2292e+007  -4.2842e+003   2.4527e+007    0.2145   -0.0000    0.0000    0.0000    0.2133
                0.1774   4.1345e-003  -5.3773e-004   6.0370e-003   7.9382e+007  -4.7031e+003   2.3846e+007    0.2356   -0.0000    0.0000    0.0000    0.2074
                0.2067   4.4726e-003  -5.8170e-004   5.8363e-003   8.5873e+007  -5.0868e+003   2.3054e+007    0.2548   -0.0000    0.0000    0.0000    0.2005
                0.2381   4.7672e-003  -6.2001e-004   5.6058e-003   9.1529e+007  -5.4210e+003   2.2143e+007    0.2716   -0.0000    0.0000    0.0000    0.1925
                0.2715   5.0820e-003  -6.6095e-004   5.3426e-003   9.7573e+007  -5.7782e+003   2.1103e+007    0.2895   -0.0000    0.0000    0.0000    0.1835
                0.3064   5.3143e-003  -6.9117e-004   5.0519e-003   1.0203e+008  -6.0418e+003   1.9955e+007    0.3028   -0.0000    0.0000    0.0000    0.1735
                0.3433   5.5409e-003  -7.2063e-004   4.7308e-003   1.0638e+008  -6.2988e+003   1.8687e+007    0.3157   -0.0000    0.0000    0.0000    0.1625
                0.3817   5.7520e-003  -7.4809e-004   4.3815e-003   1.1044e+008  -6.5383e+003   1.7307e+007    0.3277   -0.0000    0.0000    0.0000    0.1505
                0.3918   5.7824e-003  -7.5205e-004   4.2877e-003   1.1102e+008  -6.5728e+003   1.6936e+007    0.3294   -0.0000    0.0000    0.0000    0.1473

            panel:  2     
           lam_num    nPlies        tPly      fibAng     matID  matName
               (-)       (-)         (m)       (deg)       (-)  (-)
                 1         1    0.005177      0.0000         2  (blade-shell)
                 2         1    0.003405      0.0000         3  (spar-uni)
                 3         1    0.000047      0.0000         4  (spar-core)
                 4         1    0.003405      0.0000         3  (spar-uni)
                 5         1    0.005177      0.0000         2  (blade-shell)

               lamina:  1     
              matName:  (blade-shell)
                     s           e11           e22           e12           s11           s22           s12   s11_fcT   s11_fcC   s22_fcT   s22_fcC   s12_fcS
                   (m)         (m/m)         (m/m)         (rad)          (Pa)          (Pa)          (Pa)       (-)       (-)       (-)       (-)       (-)
                0.0000   7.8767e-003  -1.2572e-003   5.5466e-003   1.5064e+008  -4.5543e+006   2.1909e+007    0.4470   -0.0000    0.0000    0.0135    0.1905
                0.0295   7.9666e-003  -1.2724e-003   4.7524e-003   1.5236e+008  -4.6230e+006   1.8772e+007    0.4521   -0.0000    0.0000    0.0137    0.1632
                0.0705   8.0959e-003  -1.2941e-003   3.6245e-003   1.5483e+008  -4.7191e+006   1.4317e+007    0.4594   -0.0000    0.0000    0.0140    0.1245
                0.1125   8.1462e-003  -1.3025e-003   2.4501e-003   1.5579e+008  -4.7554e+006   9.6779e+006    0.4623   -0.0000    0.0000    0.0141    0.0842
                0.1559   8.1345e-003  -1.3005e-003   1.2333e-003   1.5557e+008  -4.7463e+006   4.8716e+006    0.4616   -0.0000    0.0000    0.0141    0.0424
                0.1999   8.1201e-003  -1.2982e-003   2.7283e-006   1.5529e+008  -4.7372e+006   1.0777e+004    0.4608   -0.0000    0.0000    0.0141    0.0001
                0.2449   7.9618e-003  -1.2716e-003   1.2509e-003   1.5227e+008  -4.6208e+006   4.9409e+006    0.4518   -0.0000    0.0000    0.0137    0.0430
                0.2907   7.7978e-003  -1.2440e-003   2.4911e-003   1.4913e+008  -4.4970e+006   9.8397e+006    0.4425   -0.0000    0.0000    0.0133    0.0856
                0.3255   7.6465e-003  -1.2185e-003   3.4098e-003   1.4624e+008  -4.3832e+006   1.3469e+007    0.4340   -0.0000    0.0000    0.0130    0.1171

               lamina:  2     
              matName:  (spar-uni)
                     s           e11           e22           e12           s11           s22           s12   s11_fcT   s11_fcC   s22_fcT   s22_fcC   s12_fcS
                   (m)         (m/m)         (m/m)         (rad)          (Pa)          (Pa)          (Pa)       (-)       (-)       (-)       (-)       (-)
                0.0000   6.5523e-003  -1.0784e-003   5.5466e-003   8.0837e+008   7.8636e+006   2.6125e+007    0.4085   -0.0000    0.1313   -0.0000    0.2536
                0.0295   6.6422e-003  -1.0936e-003   4.7524e-003   8.1946e+008   7.9681e+006   2.2384e+007    0.4141   -0.0000    0.1330   -0.0000    0.2173
                0.0705   6.7690e-003  -1.1150e-003   3.6245e-003   8.3510e+008   8.1159e+006   1.7072e+007    0.4220   -0.0000    0.1355   -0.0000    0.1657
                0.1125   6.8173e-003  -1.1231e-003   2.4501e-003   8.4106e+008   8.1724e+006   1.1540e+007    0.4250   -0.0000    0.1364   -0.0000    0.1120
                0.1559   6.8055e-003  -1.1211e-003   1.2333e-003   8.3961e+008   8.1588e+006   5.8089e+006    0.4243   -0.0000    0.1362   -0.0000    0.0564
                0.1999   6.7928e-003  -1.1190e-003   2.7283e-006   8.3804e+008   8.1437e+006   1.2850e+004    0.4235   -0.0000    0.1360   -0.0000    0.0001
                0.2449   6.6387e-003  -1.0930e-003   1.2509e-003   8.1903e+008   7.9638e+006   5.8916e+006    0.4139   -0.0000    0.1330   -0.0000    0.0572
                0.2907   6.4762e-003  -1.0656e-003   2.4911e-003   7.9898e+008   7.7746e+006   1.1733e+007    0.4037   -0.0000    0.1298   -0.0000    0.1139
                0.3255   6.3265e-003  -1.0403e-003   3.4098e-003   7.8051e+008   7.6003e+006   1.6060e+007    0.3944   -0.0000    0.1269   -0.0000    0.1559

               lamina:  3     
              matName:  (spar-core)
                     s           e11           e22           e12           s11           s22           s12   s11_fcT   s11_fcC   s22_fcT   s22_fcC   s12_fcS
                   (m)         (m/m)         (m/m)         (rad)          (Pa)          (Pa)          (Pa)       (-)       (-)       (-)       (-)       (-)
                0.0000   5.6813e-003  -9.6080e-004   5.5466e-003   1.2641e+006   2.1540e+005   5.4357e+005    0.2947   -0.0000    0.0502   -0.0000    0.1843
                0.0295   5.7711e-003  -9.7600e-004   4.7524e-003   1.2841e+006   2.1881e+005   4.6574e+005    0.2993   -0.0000    0.0510   -0.0000    0.1579
                0.0705   5.8963e-003  -9.9717e-004   3.6245e-003   1.3120e+006   2.2355e+005   3.5520e+005    0.3058   -0.0000    0.0521   -0.0000    0.1204
                0.1125   5.9432e-003  -1.0051e-003   2.4501e-003   1.3224e+006   2.2533e+005   2.4011e+005    0.3083   -0.0000    0.0525   -0.0000    0.0814
                0.1559   5.9314e-003  -1.0031e-003   1.2333e-003   1.3198e+006   2.2488e+005   1.2086e+005    0.3076   -0.0000    0.0524   -0.0000    0.0410
                0.1999   5.9198e-003  -1.0011e-003   2.7283e-006   1.3172e+006   2.2444e+005   2.6737e+002    0.3070   -0.0000    0.0523   -0.0000    0.0001
                0.2449   5.7685e-003  -9.7556e-004   1.2509e-003   1.2836e+006   2.1871e+005   1.2258e+005    0.2992   -0.0000    0.0510   -0.0000    0.0416
                0.2907   5.6069e-003  -9.4822e-004   2.4911e-003   1.2476e+006   2.1258e+005   2.4412e+005    0.2908   -0.0000    0.0496   -0.0000    0.0828
                0.3255   5.4583e-003  -9.2309e-004   3.4098e-003   1.2145e+006   2.0695e+005   3.3416e+005    0.2831   -0.0000    0.0482   -0.0000    0.1133

               lamina:  4     
              matName:  (spar-uni)
                     s           e11           e22           e12           s11           s22           s12   s11_fcT   s11_fcC   s22_fcT   s22_fcC   s12_fcS
                   (m)         (m/m)         (m/m)         (rad)          (Pa)          (Pa)          (Pa)       (-)       (-)       (-)       (-)       (-)
                0.0000   5.6693e-003  -9.5918e-004   5.5466e-003   6.9936e+008   6.5882e+006   2.6125e+007    0.3534   -0.0000    0.1100   -0.0000    0.2536
                0.0295   5.7591e-003  -9.7438e-004   4.7524e-003   7.1045e+008   6.6927e+006   2.2384e+007    0.3590   -0.0000    0.1117   -0.0000    0.2173
                0.0705   5.8843e-003  -9.9555e-004   3.6245e-003   7.2589e+008   6.8381e+006   1.7072e+007    0.3668   -0.0000    0.1142   -0.0000    0.1657
                0.1125   5.9312e-003  -1.0035e-003   2.4501e-003   7.3167e+008   6.8927e+006   1.1540e+007    0.3697   -0.0000    0.1151   -0.0000    0.1120
                0.1559   5.9194e-003  -1.0015e-003   1.2333e-003   7.3022e+008   6.8790e+006   5.8089e+006    0.3690   -0.0000    0.1148   -0.0000    0.0564
                0.1999   5.9078e-003  -9.9952e-004   2.7283e-006   7.2878e+008   6.8654e+006   1.2850e+004    0.3683   -0.0000    0.1146   -0.0000    0.0001
                0.2449   5.7565e-003  -9.7394e-004   1.2509e-003   7.1012e+008   6.6896e+006   5.8916e+006    0.3588   -0.0000    0.1117   -0.0000    0.0572
                0.2907   5.5949e-003  -9.4661e-004   2.4911e-003   6.9019e+008   6.5018e+006   1.1733e+007    0.3488   -0.0000    0.1085   -0.0000    0.1139
                0.3255   5.4464e-003  -9.2148e-004   3.4098e-003   6.7187e+008   6.3292e+006   1.6060e+007    0.3395   -0.0000    0.1057   -0.0000    0.1559

               lamina:  5     
              matName:  (blade-shell)
                     s           e11           e22           e12           s11           s22           s12   s11_fcT   s11_fcC   s22_fcT   s22_fcC   s12_fcS
                   (m)         (m/m)         (m/m)         (rad)          (Pa)          (Pa)          (Pa)       (-)       (-)       (-)       (-)       (-)
                0.0000   4.7982e-003  -8.4160e-004   5.5466e-003   9.1573e+007  -4.2542e+006   2.1909e+007    0.2717   -0.0000    0.0000    0.0126    0.1905
                0.0295   4.8881e-003  -8.5680e-004   4.7524e-003   9.3289e+007  -4.3229e+006   1.8772e+007    0.2768   -0.0000    0.0000    0.0128    0.1632
                0.0705   5.0116e-003  -8.7775e-004   3.6245e-003   9.5648e+007  -4.4184e+006   1.4317e+007    0.2838   -0.0000    0.0000    0.0131    0.1245
                0.1125   5.0572e-003  -8.8550e-004   2.4501e-003   9.6519e+007  -4.4542e+006   9.6779e+006    0.2864   -0.0000    0.0000    0.0132    0.0842
                0.1559   5.0453e-003  -8.8350e-004   1.2333e-003   9.6293e+007  -4.4452e+006   4.8716e+006    0.2857   -0.0000    0.0000    0.0132    0.0424
                0.1999   5.0348e-003  -8.8168e-004   2.7283e-006   9.6091e+007  -4.4364e+006   1.0777e+004    0.2851   -0.0000    0.0000    0.0132    0.0001
                0.2449   4.8863e-003  -8.5647e-004   1.2509e-003   9.3255e+007  -4.3210e+006   4.9409e+006    0.2767   -0.0000    0.0000    0.0128    0.0430
                0.2907   4.7257e-003  -8.2927e-004   2.4911e-003   9.0188e+007  -4.1975e+006   9.8397e+006    0.2676   -0.0000    0.0000    0.0125    0.0856
                0.3255   4.5783e-003  -8.0429e-004   3.4098e-003   8.7372e+007  -4.0840e+006   1.3469e+007    0.2593   -0.0000    0.0000    0.0121    0.1171

            panel:  3     
           lam_num    nPlies        tPly      fibAng     matID  matName
               (-)       (-)         (m)       (deg)       (-)  (-)
                 1         1    0.005177      0.0000         2  (blade-shell)
                 2         1    0.003432      0.0000         6  (TEP-core)
                 3         1    0.005177      0.0000         2  (blade-shell)

               lamina:  1     
              matName:  (blade-shell)
                     s           e11           e22           e12           s11           s22           s12   s11_fcT   s11_fcC   s22_fcT   s22_fcC   s12_fcS
                   (m)         (m/m)         (m/m)         (rad)          (Pa)          (Pa)          (Pa)       (-)       (-)       (-)       (-)       (-)
                0.0000   6.0898e-003  -7.9609e-004   3.1658e-004   1.1691e+008  -8.6225e+004   1.2505e+006    0.3469   -0.0000    0.0000    0.0003    0.0109
                0.0112   6.0394e-003  -7.8950e-004   2.1638e-004   1.1595e+008  -8.5481e+004   8.5468e+005    0.3441   -0.0000    0.0000    0.0003    0.0074
                0.0581   5.7653e-003  -7.5364e-004   1.9012e-004   1.1068e+008  -8.1227e+004   7.5097e+005    0.3284   -0.0000    0.0000    0.0002    0.0065
                0.1049   5.4909e-003  -7.1776e-004   5.7649e-004   1.0541e+008  -7.6976e+004   2.2771e+006    0.3128   -0.0000    0.0000    0.0002    0.0198
                0.1518   5.1716e-003  -6.7599e-004   9.4140e-004   9.9285e+007  -7.2038e+004   3.7185e+006    0.2946   -0.0000    0.0000    0.0002    0.0323
                0.1984   4.8346e-003  -6.3192e-004   1.2812e-003   9.2816e+007  -6.6806e+004   5.0607e+006    0.2754   -0.0000    0.0000    0.0002    0.0440
                0.2446   4.5002e-003  -5.8818e-004   1.5927e-003   8.6395e+007  -6.1615e+004   6.2913e+006    0.2564   -0.0000    0.0000    0.0002    0.0547
                0.2901   4.1465e-003  -5.4192e-004   1.8758e-003   7.9605e+007  -5.6126e+004   7.4095e+006    0.2362   -0.0000    0.0000    0.0002    0.0644
                0.3348   3.8006e-003  -4.9667e-004   2.1291e-003   7.2964e+007  -5.0740e+004   8.4098e+006    0.2165   -0.0000    0.0000    0.0002    0.0731
                0.3783   3.4685e-003  -4.5324e-004   2.3528e-003   6.6590e+007  -4.5568e+004   9.2936e+006    0.1976   -0.0000    0.0000    0.0001    0.0808
                0.4205   3.1532e-003  -4.1199e-004   2.5483e-003   6.0535e+007  -4.0657e+004   1.0066e+007    0.1796   -0.0000    0.0000    0.0001    0.0875
                0.4614   2.8491e-003  -3.7222e-004   2.7175e-003   5.4697e+007  -3.5907e+004   1.0734e+007    0.1623   -0.0000    0.0000    0.0001    0.0933
                0.5005   2.5899e-003  -3.3832e-004   2.8622e-003   4.9722e+007  -3.1852e+004   1.1306e+007    0.1475   -0.0000    0.0000    0.0001    0.0983
                0.5378   2.3504e-003  -3.0699e-004   2.9854e-003   4.5124e+007  -2.8116e+004   1.1793e+007    0.1339   -0.0000    0.0000    0.0001    0.1025
                0.5732   2.1327e-003  -2.7852e-004   3.0900e-003   4.0945e+007  -2.4698e+004   1.2205e+007    0.1215   -0.0000    0.0000    0.0001    0.1061
                0.6064   1.9732e-003  -2.5765e-004   3.1781e-003   3.7882e+007  -2.2192e+004   1.2554e+007    0.1124   -0.0000    0.0000    0.0001    0.1092
                0.6374   1.8237e-003  -2.3809e-004   3.2530e-003   3.5012e+007  -1.9851e+004   1.2849e+007    0.1039   -0.0000    0.0000    0.0001    0.1117
                0.6661   1.7165e-003  -2.2407e-004   3.3167e-003   3.2954e+007  -1.8158e+004   1.3101e+007    0.0978   -0.0000    0.0000    0.0001    0.1139
                0.6923   1.6443e-003  -2.1463e-004   3.3713e-003   3.1568e+007  -1.7024e+004   1.3317e+007    0.0937   -0.0000    0.0000    0.0001    0.1158
                0.7161   1.5791e-003  -2.0610e-004   3.4184e-003   3.0316e+007  -1.5995e+004   1.3503e+007    0.0900   -0.0000    0.0000    0.0000    0.1174
                0.7373   1.5671e-003  -2.0454e-004   3.4593e-003   3.0087e+007  -1.5800e+004   1.3664e+007    0.0893   -0.0000    0.0000    0.0000    0.1188
                0.7558   1.5615e-003  -2.0380e-004   3.4947e-003   2.9979e+007  -1.5712e+004   1.3804e+007    0.0890   -0.0000    0.0000    0.0000    0.1200
                0.7717   1.5675e-003  -2.0458e-004   3.5253e-003   3.0093e+007  -1.5810e+004   1.3925e+007    0.0893   -0.0000    0.0000    0.0000    0.1211
                0.7848   1.5997e-003  -2.0880e-004   3.5511e-003   3.0712e+007  -1.6327e+004   1.4027e+007    0.0911   -0.0000    0.0000    0.0000    0.1220
                0.7951   1.6247e-003  -2.1207e-004   3.5718e-003   3.1192e+007  -1.6733e+004   1.4109e+007    0.0926   -0.0000    0.0000    0.0000    0.1227
                0.8027   1.6570e-003  -2.1629e-004   3.5876e-003   3.1811e+007  -1.7286e+004   1.4171e+007    0.0944   -0.0000    0.0000    0.0001    0.1232
                0.8073   1.6829e-003  -2.1969e-004   3.5973e-003   3.2310e+007  -1.7726e+004   1.4209e+007    0.0959   -0.0000    0.0000    0.0001    0.1236
                0.8087   1.6921e-003  -2.2088e-004   3.6004e-003   3.2485e+007  -1.7867e+004   1.4222e+007    0.0964   -0.0000    0.0000    0.0001    0.1237

               lamina:  2     
              matName:  (TEP-core)
                     s           e11           e22           e12           s11           s22           s12   s11_fcT   s11_fcC   s22_fcT   s22_fcC   s12_fcS
                   (m)         (m/m)         (m/m)         (rad)          (Pa)          (Pa)          (Pa)       (-)       (-)       (-)       (-)       (-)
                0.0000   5.6578e-003  -7.3991e-004   3.1658e-004   1.2758e+006   2.6563e+005   3.1025e+004    0.2974   -0.0000    0.0619   -0.0000    0.0105
                0.0112   5.6094e-003  -7.3358e-004   2.1638e-004   1.2649e+006   2.6336e+005   2.1205e+004    0.2948   -0.0000    0.0614   -0.0000    0.0072
                0.0581   5.3358e-003  -6.9780e-004   1.9012e-004   1.2032e+006   2.5052e+005   1.8632e+004    0.2805   -0.0000    0.0584   -0.0000    0.0063
                0.1049   5.0624e-003  -6.6204e-004   5.7649e-004   1.1415e+006   2.3768e+005   5.6496e+004    0.2661   -0.0000    0.0554   -0.0000    0.0192
                0.1518   4.7446e-003  -6.2047e-004   9.4140e-004   1.0699e+006   2.2276e+005   9.2257e+004    0.2494   -0.0000    0.0519   -0.0000    0.0313
                0.1984   4.4082e-003  -5.7646e-004   1.2812e-003   9.9401e+005   2.0697e+005   1.2556e+005    0.2317   -0.0000    0.0482   -0.0000    0.0426
                0.2446   4.0744e-003  -5.3281e-004   1.5927e-003   9.1875e+005   1.9130e+005   1.5609e+005    0.2142   -0.0000    0.0446   -0.0000    0.0529
                0.2901   3.7214e-003  -4.8663e-004   1.8758e-003   8.3915e+005   1.7472e+005   1.8383e+005    0.1956   -0.0000    0.0407   -0.0000    0.0623
                0.3348   3.3753e-003  -4.4137e-004   2.1291e-003   7.6111e+005   1.5848e+005   2.0865e+005    0.1774   -0.0000    0.0369   -0.0000    0.0707
                0.3783   3.0429e-003  -3.9789e-004   2.3528e-003   6.8616e+005   1.4287e+005   2.3057e+005    0.1599   -0.0000    0.0333   -0.0000    0.0782
                0.4205   2.7273e-003  -3.5662e-004   2.5483e-003   6.1500e+005   1.2806e+005   2.4973e+005    0.1434   -0.0000    0.0299   -0.0000    0.0847
                0.4614   2.4223e-003  -3.1672e-004   2.7175e-003   5.4622e+005   1.1374e+005   2.6632e+005    0.1273   -0.0000    0.0265   -0.0000    0.0903
                0.5005   2.1620e-003  -2.8267e-004   2.8622e-003   4.8752e+005   1.0152e+005   2.8049e+005    0.1136   -0.0000    0.0237   -0.0000    0.0951
                0.5378   1.9220e-003  -2.5128e-004   2.9854e-003   4.3340e+005   9.0253e+004   2.9257e+005    0.1010   -0.0000    0.0210   -0.0000    0.0992
                0.5732   1.7028e-003  -2.2261e-004   3.0900e-003   3.8397e+005   7.9962e+004   3.0282e+005    0.0895   -0.0000    0.0186   -0.0000    0.1027
                0.6064   1.5420e-003  -2.0158e-004   3.1781e-003   3.4772e+005   7.2416e+004   3.1145e+005    0.0811   -0.0000    0.0169   -0.0000    0.1056
                0.6374   1.3918e-003  -1.8193e-004   3.2530e-003   3.1384e+005   6.5362e+004   3.1880e+005    0.0732   -0.0000    0.0152   -0.0000    0.1081
                0.6661   1.2833e-003  -1.6774e-004   3.3167e-003   2.8938e+005   6.0269e+004   3.2504e+005    0.0675   -0.0000    0.0140   -0.0000    0.1102
                0.6923   1.2105e-003  -1.5822e-004   3.3713e-003   2.7297e+005   5.6854e+004   3.3038e+005    0.0636   -0.0000    0.0133   -0.0000    0.1120
                0.7161   1.1446e-003  -1.4960e-004   3.4184e-003   2.5810e+005   5.3758e+004   3.3500e+005    0.0602   -0.0000    0.0125   -0.0000    0.1136
                0.7373   1.1322e-003  -1.4798e-004   3.4593e-003   2.5531e+005   5.3176e+004   3.3901e+005    0.0595   -0.0000    0.0124   -0.0000    0.1149
                0.7558   1.1265e-003  -1.4724e-004   3.4947e-003   2.5403e+005   5.2910e+004   3.4248e+005    0.0592   -0.0000    0.0123   -0.0000    0.1161
                0.7717   1.1328e-003  -1.4805e-004   3.5253e-003   2.5544e+005   5.3203e+004   3.4548e+005    0.0595   -0.0000    0.0124   -0.0000    0.1171
                0.7848   1.1658e-003  -1.5237e-004   3.5511e-003   2.6288e+005   5.4753e+004   3.4801e+005    0.0613   -0.0000    0.0128   -0.0000    0.1180
                0.7951   1.1917e-003  -1.5576e-004   3.5718e-003   2.6872e+005   5.5968e+004   3.5003e+005    0.0626   -0.0000    0.0130   -0.0000    0.1187
                0.8027   1.2265e-003  -1.6032e-004   3.5876e-003   2.7658e+005   5.7604e+004   3.5158e+005    0.0645   -0.0000    0.0134   -0.0000    0.1192
                0.8073   1.2543e-003  -1.6394e-004   3.5973e-003   2.8283e+005   5.8907e+004   3.5253e+005    0.0659   -0.0000    0.0137   -0.0000    0.1195
                0.8087   1.2634e-003  -1.6514e-004   3.6004e-003   2.8489e+005   5.9334e+004   3.5284e+005    0.0664   -0.0000    0.0138   -0.0000    0.1196

               lamina:  3     
              matName:  (blade-shell)
                     s           e11           e22           e12           s11           s22           s12   s11_fcT   s11_fcC   s22_fcT   s22_fcC   s12_fcS
                   (m)         (m/m)         (m/m)         (rad)          (Pa)          (Pa)          (Pa)       (-)       (-)       (-)       (-)       (-)
                0.0000   5.3714e-003  -7.0267e-004   3.1658e-004   1.0312e+008  -8.5695e+004   1.2505e+006    0.3060   -0.0000    0.0000    0.0003    0.0109
                0.0112   5.3244e-003  -6.9652e-004   2.1638e-004   1.0222e+008  -8.4953e+004   8.5468e+005    0.3033   -0.0000    0.0000    0.0003    0.0074
                0.0581   5.0512e-003  -6.6079e-004   1.9012e-004   9.6973e+007  -8.0700e+004   7.5097e+005    0.2878   -0.0000    0.0000    0.0002    0.0065
                0.1049   4.7784e-003  -6.2510e-004   5.7649e-004   9.1735e+007  -7.6450e+004   2.2771e+006    0.2722   -0.0000    0.0000    0.0002    0.0198
                0.1518   4.4616e-003  -5.8367e-004   9.4140e-004   8.5653e+007  -7.1514e+004   3.7185e+006    0.2542   -0.0000    0.0000    0.0002    0.0323
                0.1984   4.1255e-003  -5.3971e-004   1.2812e-003   7.9201e+007  -6.6282e+004   5.0607e+006    0.2350   -0.0000    0.0000    0.0002    0.0440
                0.2446   3.7921e-003  -4.9611e-004   1.5927e-003   7.2801e+007  -6.1093e+004   6.2913e+006    0.2160   -0.0000    0.0000    0.0002    0.0547
                0.2901   3.4396e-003  -4.4999e-004   1.8758e-003   6.6032e+007  -5.5604e+004   7.4095e+006    0.1959   -0.0000    0.0000    0.0002    0.0644
                0.3348   3.0934e-003  -4.0471e-004   2.1291e-003   5.9387e+007  -5.0218e+004   8.4098e+006    0.1762   -0.0000    0.0000    0.0001    0.0731
                0.3783   2.7608e-003  -3.6121e-004   2.3528e-003   5.3001e+007  -4.5045e+004   9.2936e+006    0.1573   -0.0000    0.0000    0.0001    0.0808
                0.4205   2.4451e-003  -3.1992e-004   2.5483e-003   4.6940e+007  -4.0134e+004   1.0066e+007    0.1393   -0.0000    0.0000    0.0001    0.0875
                0.4614   2.1394e-003  -2.7993e-004   2.7175e-003   4.1072e+007  -3.5383e+004   1.0734e+007    0.1219   -0.0000    0.0000    0.0001    0.0933
                0.5005   1.8783e-003  -2.4578e-004   2.8622e-003   3.6060e+007  -3.1326e+004   1.1306e+007    0.1070   -0.0000    0.0000    0.0001    0.0983
                0.5378   1.6380e-003  -2.1435e-004   2.9854e-003   3.1446e+007  -2.7590e+004   1.1793e+007    0.0933   -0.0000    0.0000    0.0001    0.1025
                0.5732   1.4178e-003  -1.8555e-004   3.0900e-003   2.7218e+007  -2.4171e+004   1.2205e+007    0.0808   -0.0000    0.0000    0.0001    0.1061
                0.6064   1.2562e-003  -1.6442e-004   3.1781e-003   2.4117e+007  -2.1663e+004   1.2554e+007    0.0716   -0.0000    0.0000    0.0001    0.1092
                0.6374   1.1055e-003  -1.4470e-004   3.2530e-003   2.1222e+007  -1.9321e+004   1.2849e+007    0.0630   -0.0000    0.0000    0.0001    0.1117
                0.6661   9.9613e-004  -1.3040e-004   3.3167e-003   1.9123e+007  -1.7626e+004   1.3101e+007    0.0567   -0.0000    0.0000    0.0001    0.1139
                0.6923   9.2303e-004  -1.2084e-004   3.3713e-003   1.7720e+007  -1.6492e+004   1.3317e+007    0.0526   -0.0000    0.0000    0.0000    0.1158
                0.7161   8.5657e-004  -1.1215e-004   3.4184e-003   1.6444e+007  -1.5461e+004   1.3503e+007    0.0488   -0.0000    0.0000    0.0000    0.1174
                0.7373   8.4388e-004  -1.1049e-004   3.4593e-003   1.6200e+007  -1.5266e+004   1.3664e+007    0.0481   -0.0000    0.0000    0.0000    0.1188
                0.7558   8.3818e-004  -1.0974e-004   3.4947e-003   1.6091e+007  -1.5178e+004   1.3804e+007    0.0477   -0.0000    0.0000    0.0000    0.1200
                0.7717   8.4463e-004  -1.1058e-004   3.5253e-003   1.6215e+007  -1.5277e+004   1.3925e+007    0.0481   -0.0000    0.0000    0.0000    0.1211
                0.7848   8.7814e-004  -1.1497e-004   3.5511e-003   1.6858e+007  -1.5794e+004   1.4027e+007    0.0500   -0.0000    0.0000    0.0000    0.1220
                0.7951   9.0461e-004  -1.1843e-004   3.5718e-003   1.7366e+007  -1.6202e+004   1.4109e+007    0.0515   -0.0000    0.0000    0.0000    0.1227
                0.8027   9.4118e-004  -1.2321e-004   3.5876e-003   1.8069e+007  -1.6758e+004   1.4171e+007    0.0536   -0.0000    0.0000    0.0000    0.1232
                0.8073   9.7010e-004  -1.2699e-004   3.5973e-003   1.8624e+007  -1.7199e+004   1.4209e+007    0.0553   -0.0000    0.0000    0.0001    0.1236
                0.8087   9.7922e-004  -1.2819e-004   3.6004e-003   1.8799e+007  -1.7341e+004   1.4222e+007    0.0558   -0.0000    0.0000    0.0001    0.1237

     Web:  panel  nNode   nLam     xc_St    xc_End         b         t         E_eff         G_eff      nu_eff     density  buckleCrit
            (-)    (-)    (-)       (-)       (-)       (m)       (m)          (Pa)          (Pa)         (-)    (kg/m^3)         (-)
              1     10      3    0.2391    0.2391    0.3119    0.0121   6.5707e+009   1.3870e+009      0.1347    691.8998      0.2251
              2     10      3    0.4609    0.4609    0.2894    0.0121   6.5707e+009   1.3870e+009      0.1347    691.8998      0.2056

            panel:  1     
           lam_num    nPlies        tPly      fibAng     matID  matName
               (-)       (-)         (m)       (deg)       (-)  (-)
                 1         1    0.002023      0.0000         7  (web-shell)
                 2         1    0.008047      0.0000         8  (web-core)
                 3         1    0.002023      0.0000         7  (web-shell)

               lamina:  1     
              matName:  (web-shell)
                     s           e11           e22           e12           s11           s22           s12   s11_fcT   s11_fcC   s22_fcT   s22_fcC   s12_fcS
                   (m)         (m/m)         (m/m)         (rad)          (Pa)          (Pa)          (Pa)       (-)       (-)       (-)       (-)       (-)
                0.0000  -5.8000e-003   7.8119e-004   1.3588e-002  -1.1129e+008   5.3113e+005   5.3673e+007    0.0000    0.2239    0.0016   -0.0000    0.4667
                0.0347  -4.5326e-003   6.1049e-004   1.3876e-002  -8.6971e+007   4.1513e+005   5.4810e+007    0.0000    0.1750    0.0012   -0.0000    0.4766
                0.0693  -3.2652e-003   4.3979e-004   1.4094e-002  -6.2652e+007   2.9914e+005   5.5672e+007    0.0000    0.1261    0.0009   -0.0000    0.4841
                0.1040  -1.9978e-003   2.6909e-004   1.4243e-002  -3.8333e+007   1.8314e+005   5.6259e+007    0.0000    0.0771    0.0005   -0.0000    0.4892
                0.1386  -7.3037e-004   9.8387e-005   1.4322e-002  -1.4014e+007   6.7146e+004   5.6570e+007    0.0000    0.0282    0.0002   -0.0000    0.4919
                0.1733   5.3911e-004  -7.2588e-005   1.4331e-002   1.0345e+007  -4.8891e+004   5.6607e+007    0.0307   -0.0000    0.0000    0.0001    0.4922
                0.2079   1.8065e-003  -2.4329e-004   1.4270e-002   3.4664e+007  -1.6489e+005   5.6368e+007    0.1029   -0.0000    0.0000    0.0005    0.4902
                0.2426   3.0739e-003  -4.1399e-004   1.4140e-002   5.8982e+007  -2.8088e+005   5.5854e+007    0.1750   -0.0000    0.0000    0.0008    0.4857
                0.2772   4.3413e-003  -5.8469e-004   1.3941e-002   8.3301e+007  -3.9688e+005   5.5065e+007    0.2472   -0.0000    0.0000    0.0012    0.4788
                0.3119   5.6087e-003  -7.5539e-004   1.3671e-002   1.0762e+008  -5.1288e+005   5.4001e+007    0.3193   -0.0000    0.0000    0.0015    0.4696

               lamina:  2     
              matName:  (web-core)
                     s           e11           e22           e12           s11           s22           s12   s11_fcT   s11_fcC   s22_fcT   s22_fcC   s12_fcS
                   (m)         (m/m)         (m/m)         (rad)          (Pa)          (Pa)          (Pa)       (-)       (-)       (-)       (-)       (-)
                0.0000  -5.8083e-003   7.8228e-004   1.3588e-002  -1.3080e+006  -2.6735e+005   1.3316e+006    0.0000    0.3049    0.0000    0.0623    0.4514
                0.0347  -4.5409e-003   6.1158e-004   1.3876e-002  -1.0226e+006  -2.0901e+005   1.3598e+006    0.0000    0.2384    0.0000    0.0487    0.4610
                0.0693  -3.2735e-003   4.4088e-004   1.4094e-002  -7.3716e+005  -1.5068e+005   1.3812e+006    0.0000    0.1718    0.0000    0.0351    0.4682
                0.1040  -2.0061e-003   2.7018e-004   1.4243e-002  -4.5175e+005  -9.2341e+004   1.3958e+006    0.0000    0.1053    0.0000    0.0215    0.4731
                0.1386  -7.3870e-004   9.9478e-005   1.4322e-002  -1.6635e+005  -3.4005e+004   1.4035e+006    0.0000    0.0388    0.0000    0.0079    0.4758
                0.1733   5.3702e-004  -7.2314e-005   1.4331e-002   1.2093e+005   2.4722e+004   1.4044e+006    0.0282   -0.0000    0.0058   -0.0000    0.4761
                0.2079   1.8044e-003  -2.4301e-004   1.4270e-002   4.0634e+005   8.3058e+004   1.3985e+006    0.0947   -0.0000    0.0194   -0.0000    0.4741
                0.2426   3.0718e-003  -4.1372e-004   1.4140e-002   6.9174e+005   1.4139e+005   1.3857e+006    0.1612   -0.0000    0.0330   -0.0000    0.4697
                0.2772   4.3392e-003  -5.8442e-004   1.3941e-002   9.7714e+005   1.9973e+005   1.3662e+006    0.2278   -0.0000    0.0466   -0.0000    0.4631
                0.3119   5.6066e-003  -7.5512e-004   1.3671e-002   1.2625e+006   2.5807e+005   1.3398e+006    0.2943   -0.0000    0.0602   -0.0000    0.4542

               lamina:  3     
              matName:  (web-shell)
                     s           e11           e22           e12           s11           s22           s12   s11_fcT   s11_fcC   s22_fcT   s22_fcC   s12_fcS
                   (m)         (m/m)         (m/m)         (rad)          (Pa)          (Pa)          (Pa)       (-)       (-)       (-)       (-)       (-)
                0.0000  -5.8104e-003   7.8255e-004   1.3588e-002  -1.1149e+008   5.3134e+005   5.3673e+007    0.0000    0.2243    0.0016   -0.0000    0.4667
                0.0347  -4.5430e-003   6.1185e-004   1.3876e-002  -8.7171e+007   4.1534e+005   5.4810e+007    0.0000    0.1754    0.0012   -0.0000    0.4766
                0.0693  -3.2756e-003   4.4115e-004   1.4094e-002  -6.2852e+007   2.9934e+005   5.5672e+007    0.0000    0.1265    0.0009   -0.0000    0.4841
                0.1040  -2.0082e-003   2.7045e-004   1.4243e-002  -3.8533e+007   1.8335e+005   5.6259e+007    0.0000    0.0775    0.0005   -0.0000    0.4892
                0.1386  -7.4080e-004   9.9752e-005   1.4322e-002  -1.4215e+007   6.7350e+004   5.6570e+007    0.0000    0.0286    0.0002   -0.0000    0.4919
                0.1733   5.2869e-004  -7.1223e-005   1.4331e-002   1.0145e+007  -4.8687e+004   5.6607e+007    0.0301   -0.0000    0.0000    0.0001    0.4922
                0.2079   1.7961e-003  -2.4192e-004   1.4270e-002   3.4463e+007  -1.6468e+005   5.6368e+007    0.1023   -0.0000    0.0000    0.0005    0.4902
                0.2426   3.0635e-003  -4.1262e-004   1.4140e-002   5.8782e+007  -2.8068e+005   5.5854e+007    0.1744   -0.0000    0.0000    0.0008    0.4857
                0.2772   4.3309e-003  -5.8332e-004   1.3941e-002   8.3101e+007  -3.9668e+005   5.5065e+007    0.2466   -0.0000    0.0000    0.0012    0.4788
                0.3119   5.5983e-003  -7.5403e-004   1.3671e-002   1.0742e+008  -5.1267e+005   5.4001e+007    0.3188   -0.0000    0.0000    0.0015    0.4696

            panel:  2     
           lam_num    nPlies        tPly      fibAng     matID  matName
               (-)       (-)         (m)       (deg)       (-)  (-)
                 1         1    0.002023      0.0000         7  (web-shell)
                 2         1    0.008047      0.0000         8  (web-core)
                 3         1    0.002023      0.0000         7  (web-shell)

               lamina:  1     
              matName:  (web-shell)
                     s           e11           e22           e12           s11           s22           s12   s11_fcT   s11_fcC   s22_fcT   s22_fcC   s12_fcS
                   (m)         (m/m)         (m/m)         (rad)          (Pa)          (Pa)          (Pa)       (-)       (-)       (-)       (-)       (-)
                0.0000  -5.4430e-003   7.3312e-004   1.5549e-002  -1.0444e+008   4.9845e+005   6.1420e+007    0.0000    0.2101    0.0015   -0.0000    0.5341
                0.0322  -4.2667e-003   5.7468e-004   1.5797e-002  -8.1870e+007   3.9079e+005   6.2396e+007    0.0000    0.1647    0.0012   -0.0000    0.5426
                0.0643  -3.0904e-003   4.1625e-004   1.5984e-002  -5.9299e+007   2.8313e+005   6.3135e+007    0.0000    0.1193    0.0008   -0.0000    0.5490
                0.0965  -1.9141e-003   2.5782e-004   1.6111e-002  -3.6728e+007   1.7548e+005   6.3638e+007    0.0000    0.0739    0.0005   -0.0000    0.5534
                0.1286  -7.3780e-004   9.9386e-005   1.6178e-002  -1.4157e+007   6.7815e+004   6.3903e+007    0.0000    0.0285    0.0002   -0.0000    0.5557
                0.1608   4.4054e-004  -5.9312e-005   1.6185e-002   8.4531e+006  -3.9884e+004   6.3931e+007    0.0251   -0.0000    0.0000    0.0001    0.5559
                0.1930   1.6168e-003  -2.1774e-004   1.6132e-002   3.1024e+007  -1.4754e+005   6.3722e+007    0.0921   -0.0000    0.0000    0.0004    0.5541
                0.2251   2.7932e-003  -3.7618e-004   1.6019e-002   5.3595e+007  -2.5520e+005   6.3276e+007    0.1590   -0.0000    0.0000    0.0008    0.5502
                0.2573   3.9695e-003  -5.3461e-004   1.5846e-002   7.6166e+007  -3.6286e+005   6.2593e+007    0.2260   -0.0000    0.0000    0.0011    0.5443
                0.2894   5.1458e-003  -6.9304e-004   1.5613e-002   9.8737e+007  -4.7052e+005   6.1673e+007    0.2930   -0.0000    0.0000    0.0014    0.5363

               lamina:  2     
              matName:  (web-core)
                     s           e11           e22           e12           s11           s22           s12   s11_fcT   s11_fcC   s22_fcT   s22_fcC   s12_fcS
                   (m)         (m/m)         (m/m)         (rad)          (Pa)          (Pa)          (Pa)       (-)       (-)       (-)       (-)       (-)
                0.0000  -5.4511e-003   7.3417e-004   1.5549e-002  -1.2275e+006  -2.5091e+005   1.5238e+006    0.0000    0.2861    0.0000    0.0585    0.5166
                0.0322  -4.2748e-003   5.7574e-004   1.5797e-002  -9.6263e+005  -1.9676e+005   1.5481e+006    0.0000    0.2244    0.0000    0.0459    0.5248
                0.0643  -3.0985e-003   4.1731e-004   1.5984e-002  -6.9774e+005  -1.4262e+005   1.5664e+006    0.0000    0.1626    0.0000    0.0332    0.5310
                0.0965  -1.9222e-003   2.5887e-004   1.6111e-002  -4.3285e+005  -8.8477e+004   1.5789e+006    0.0000    0.1009    0.0000    0.0206    0.5352
                0.1286  -7.4585e-004   1.0044e-004   1.6178e-002  -1.6796e+005  -3.4334e+004   1.5854e+006    0.0000    0.0392    0.0000    0.0080    0.5374
                0.1608   4.3851e-004  -5.9047e-005   1.6185e-002   9.8749e+004   2.0187e+004   1.5861e+006    0.0230   -0.0000    0.0047   -0.0000    0.5377
                0.1930   1.6148e-003  -2.1748e-004   1.6132e-002   3.6364e+005   7.4331e+004   1.5810e+006    0.0848   -0.0000    0.0173   -0.0000    0.5359
                0.2251   2.7911e-003  -3.7591e-004   1.6019e-002   6.2853e+005   1.2847e+005   1.5699e+006    0.1465   -0.0000    0.0299   -0.0000    0.5322
                0.2573   3.9674e-003  -5.3434e-004   1.5846e-002   8.9342e+005   1.8262e+005   1.5529e+006    0.2083   -0.0000    0.0426   -0.0000    0.5264
                0.2894   5.1437e-003  -6.9278e-004   1.5613e-002   1.1583e+006   2.3676e+005   1.5301e+006    0.2700   -0.0000    0.0552   -0.0000    0.5187

               lamina:  3     
              matName:  (web-shell)
                     s           e11           e22           e12           s11           s22           s12   s11_fcT   s11_fcC   s22_fcT   s22_fcC   s12_fcS
                   (m)         (m/m)         (m/m)         (rad)          (Pa)          (Pa)          (Pa)       (-)       (-)       (-)       (-)       (-)
                0.0000  -5.4531e-003   7.3444e-004   1.5549e-002  -1.0463e+008   4.9865e+005   6.1420e+007    0.0000    0.2105    0.0015   -0.0000    0.5341
                0.0322  -4.2768e-003   5.7600e-004   1.5797e-002  -8.2064e+007   3.9099e+005   6.2396e+007    0.0000    0.1651    0.0012   -0.0000    0.5426
                0.0643  -3.1005e-003   4.1757e-004   1.5984e-002  -5.9493e+007   2.8333e+005   6.3135e+007    0.0000    0.1197    0.0008   -0.0000    0.5490
                0.0965  -1.9242e-003   2.5914e-004   1.6111e-002  -3.6922e+007   1.7567e+005   6.3638e+007    0.0000    0.0743    0.0005   -0.0000    0.5534
                0.1286  -7.4788e-004   1.0071e-004   1.6178e-002  -1.4350e+007   6.8013e+004   6.3903e+007    0.0000    0.0289    0.0002   -0.0000    0.5557
                0.1608   4.3045e-004  -5.7991e-005   1.6185e-002   8.2595e+006  -3.9686e+004   6.3931e+007    0.0245   -0.0000    0.0000    0.0001    0.5559
                0.1930   1.6068e-003  -2.1642e-004   1.6132e-002   3.0831e+007  -1.4735e+005   6.3722e+007    0.0915   -0.0000    0.0000    0.0004    0.5541
                0.2251   2.7831e-003  -3.7486e-004   1.6019e-002   5.3402e+007  -2.5501e+005   6.3276e+007    0.1585   -0.0000    0.0000    0.0008    0.5502
                0.2573   3.9594e-003  -5.3329e-004   1.5846e-002   7.5973e+007  -3.6267e+005   6.2593e+007    0.2254   -0.0000    0.0000    0.0011    0.5443
                0.2894   5.1357e-003  -6.9172e-004   1.5613e-002   9.8544e+007  -4.7032e+005   6.1673e+007    0.2924   -0.0000    0.0000    0.0014    0.5363

================================================================================
sec        =  13     
zSec       =  3.6000  (m)
nPanelsTop =  3      
nPanelsBot =  3      
nWebs      =  2      

    Top:  panel  nNode   nLam     xc_St    xc_End         b         t         E_eff         G_eff      nu_eff     density  buckleCrit
            (-)    (-)    (-)       (-)       (-)       (m)       (m)          (Pa)          (Pa)         (-)    (kg/m^3)         (-)
              1     18      3    0.0000    0.2390    0.3982    0.0102   1.8750e+010   3.8586e+009      0.1301   1635.1157      0.3002
              2      9      5    0.2390    0.4610    0.3166    0.0165   5.9742e+010   4.2357e+009      0.1685   1587.7542      0.4101
              3     28      3    0.4610    1.0000    0.7918    0.0132   1.4547e+010   3.0056e+009      0.1308   1309.6131      0.8199

            panel:  1     
           lam_num    nPlies        tPly      fibAng     matID  matName
               (-)       (-)         (m)       (deg)       (-)  (-)
                 1         1    0.004996      0.0000         2  (blade-shell)
                 2         1    0.000243      0.0000         5  (LEP-core)
                 3         1    0.004996      0.0000         2  (blade-shell)

               lamina:  1     
              matName:  (blade-shell)
                     s           e11           e22           e12           s11           s22           s12   s11_fcT   s11_fcC   s22_fcT   s22_fcC   s12_fcS
                   (m)         (m/m)         (m/m)         (rad)          (Pa)          (Pa)          (Pa)       (-)       (-)       (-)       (-)       (-)
                0.0000   4.7208e-004  -6.1398e-005   6.8179e-003   9.0639e+006  -5.4575e+002   2.6931e+007    0.0269   -0.0000    0.0000    0.0000    0.2342
                0.0045   3.1100e-004  -4.0449e-005   6.8199e-003   5.9712e+006  -3.6126e+002   2.6939e+007    0.0177   -0.0000    0.0000    0.0000    0.2342
                0.0178  -3.7256e-004   4.8442e-005   6.8184e-003  -7.1532e+006   1.8007e+002   2.6933e+007    0.0000    0.0144    0.0000   -0.0000    0.2342
                0.0342  -1.0262e-003   1.3345e-004   6.8019e-003  -1.9703e+007   8.2441e+002   2.6868e+007    0.0000    0.0396    0.0000   -0.0000    0.2336
                0.0483  -1.4910e-003   1.9389e-004   6.7762e-003  -2.8627e+007   1.2739e+003   2.6766e+007    0.0000    0.0576    0.0000   -0.0000    0.2327
                0.0670  -2.0460e-003   2.6607e-004   6.7273e-003  -3.9282e+007   1.8722e+003   2.6573e+007    0.0000    0.0790    0.0000   -0.0000    0.2311
                0.0862  -2.5407e-003   3.3041e-004   6.6608e-003  -4.8780e+007   2.3925e+003   2.6310e+007    0.0000    0.0981    0.0000   -0.0000    0.2288
                0.1081  -3.0291e-003   3.9394e-004   6.5676e-003  -5.8159e+007   2.9371e+003   2.5942e+007    0.0000    0.1170    0.0000   -0.0000    0.2256
                0.1326  -3.5747e-003   4.6490e-004   6.4424e-003  -6.8634e+007   3.5326e+003   2.5447e+007    0.0000    0.1381    0.0000   -0.0000    0.2213
                0.1577  -4.0008e-003   5.2031e-004   6.2940e-003  -7.6815e+007   3.9979e+003   2.4861e+007    0.0000    0.1546    0.0000   -0.0000    0.2162
                0.1858  -4.4616e-003   5.8023e-004   6.1079e-003  -8.5661e+007   4.5175e+003   2.4126e+007    0.0000    0.1724    0.0000   -0.0000    0.2098
                0.2154  -4.8934e-003   6.3640e-004   5.8894e-003  -9.3954e+007   4.9971e+003   2.3263e+007    0.0000    0.1890    0.0000   -0.0000    0.2023
                0.2466  -5.2687e-003   6.8521e-004   5.6374e-003  -1.0116e+008   5.4200e+003   2.2268e+007    0.0000    0.2035    0.0000   -0.0000    0.1936
                0.2800  -5.6707e-003   7.3750e-004   5.3468e-003  -1.0888e+008   5.8718e+003   2.1120e+007    0.0000    0.2191    0.0000   -0.0000    0.1837
                0.3145  -5.9711e-003   7.7656e-004   5.0270e-003  -1.1464e+008   6.2074e+003   1.9856e+007    0.0000    0.2307    0.0000   -0.0000    0.1727
                0.3508  -6.2597e-003   8.1410e-004   4.6720e-003  -1.2019e+008   6.5354e+003   1.8454e+007    0.0000    0.2418    0.0000   -0.0000    0.1605
                0.3886  -6.5310e-003   8.4938e-004   4.2849e-003  -1.2539e+008   6.8429e+003   1.6925e+007    0.0000    0.2523    0.0000   -0.0000    0.1472
                0.3982  -6.5754e-003   8.5515e-004   4.1843e-003  -1.2625e+008   6.8880e+003   1.6528e+007    0.0000    0.2540    0.0000   -0.0000    0.1437

               lamina:  2     
              matName:  (LEP-core)
                     s           e11           e22           e12           s11           s22           s12   s11_fcT   s11_fcC   s22_fcT   s22_fcC   s12_fcS
                   (m)         (m/m)         (m/m)         (rad)          (Pa)          (Pa)          (Pa)       (-)       (-)       (-)       (-)       (-)
                0.0000   4.8090e-004  -6.2546e-005   6.8179e-003   1.0847e+005   2.2660e+004   6.6816e+005    0.0253   -0.0000    0.0053   -0.0000    0.2265
                0.0045   3.1983e-004  -4.1596e-005   6.8199e-003   7.2137e+004   1.5070e+004   6.6835e+005    0.0168   -0.0000    0.0035   -0.0000    0.2266
                0.0178  -1.6221e-004   2.1097e-005   6.8184e-003  -3.6587e+004  -7.6434e+003   6.6821e+005    0.0000    0.0085    0.0000    0.0018    0.2265
                0.0342  -7.2689e-004   9.4538e-005   6.8019e-003  -1.6395e+005  -3.4250e+004   6.6659e+005    0.0000    0.0382    0.0000    0.0080    0.2260
                0.0483  -1.1210e-003   1.4580e-004   6.7762e-003  -2.5285e+005  -5.2822e+004   6.6406e+005    0.0000    0.0589    0.0000    0.0123    0.2251
                0.0670  -1.6441e-003   2.1383e-004   6.7273e-003  -3.7083e+005  -7.7470e+004   6.5928e+005    0.0000    0.0864    0.0000    0.0181    0.2235
                0.0862  -2.0993e-003   2.7303e-004   6.6608e-003  -4.7350e+005  -9.8918e+004   6.5276e+005    0.0000    0.1104    0.0000    0.0231    0.2213
                0.1081  -2.5752e-003   3.3492e-004   6.5676e-003  -5.8083e+005  -1.2134e+005   6.4363e+005    0.0000    0.1354    0.0000    0.0283    0.2182
                0.1326  -3.0956e-003   4.0261e-004   6.4424e-003  -6.9822e+005  -1.4586e+005   6.3135e+005    0.0000    0.1628    0.0000    0.0340    0.2140
                0.1577  -3.5024e-003   4.5551e-004   6.2940e-003  -7.8996e+005  -1.6503e+005   6.1681e+005    0.0000    0.1841    0.0000    0.0385    0.2091
                0.1858  -3.9562e-003   5.1453e-004   6.1079e-003  -8.9231e+005  -1.8641e+005   5.9857e+005    0.0000    0.2080    0.0000    0.0435    0.2029
                0.2154  -4.3752e-003   5.6903e-004   5.8894e-003  -9.8682e+005  -2.0616e+005   5.7716e+005    0.0000    0.2300    0.0000    0.0481    0.1956
                0.2466  -4.7446e-003   6.1708e-004   5.6374e-003  -1.0701e+006  -2.2356e+005   5.5247e+005    0.0000    0.2495    0.0000    0.0521    0.1873
                0.2800  -5.1392e-003   6.6840e-004   5.3468e-003  -1.1592e+006  -2.4216e+005   5.2398e+005    0.0000    0.2702    0.0000    0.0564    0.1776
                0.3145  -5.4324e-003   7.0653e-004   5.0270e-003  -1.2253e+006  -2.5597e+005   4.9264e+005    0.0000    0.2856    0.0000    0.0597    0.1670
                0.3508  -5.7189e-003   7.4379e-004   4.6720e-003  -1.2899e+006  -2.6947e+005   4.5786e+005    0.0000    0.3007    0.0000    0.0628    0.1552
                0.3886  -5.9874e-003   7.7871e-004   4.2849e-003  -1.3505e+006  -2.8212e+005   4.1992e+005    0.0000    0.3148    0.0000    0.0658    0.1423
                0.3982  -6.0269e-003   7.8384e-004   4.1843e-003  -1.3594e+006  -2.8398e+005   4.1006e+005    0.0000    0.3169    0.0000    0.0662    0.1390

               lamina:  3     
              matName:  (blade-shell)
                     s           e11           e22           e12           s11           s22           s12   s11_fcT   s11_fcC   s22_fcT   s22_fcC   s12_fcS
                   (m)         (m/m)         (m/m)         (rad)          (Pa)          (Pa)          (Pa)       (-)       (-)       (-)       (-)       (-)
                0.0000   6.6243e-004  -8.6144e-005   6.8179e-003   1.2719e+007  -5.4587e+002   2.6931e+007    0.0377   -0.0000    0.0000    0.0000    0.2342
                0.0045   5.0135e-004  -6.5194e-005   6.8199e-003   9.6259e+006  -3.6138e+002   2.6939e+007    0.0286   -0.0000    0.0000    0.0000    0.2342
                0.0178  -1.5199e-004   1.9768e-005   6.8184e-003  -2.9181e+006   1.7993e+002   2.6933e+007    0.0000    0.0059    0.0000   -0.0000    0.2342
                0.0342  -7.1234e-004   9.2647e-005   6.8019e-003  -1.3677e+007   8.2421e+002   2.6868e+007    0.0000    0.0275    0.0000   -0.0000    0.2336
                0.0483  -1.1030e-003   1.4346e-004   6.7762e-003  -2.1178e+007   1.2737e+003   2.6766e+007    0.0000    0.0426    0.0000   -0.0000    0.2327
                0.0670  -1.6246e-003   2.1129e-004   6.7273e-003  -3.1192e+007   1.8719e+003   2.6573e+007    0.0000    0.0628    0.0000   -0.0000    0.2311
                0.0862  -2.0779e-003   2.7024e-004   6.6608e-003  -3.9895e+007   2.3922e+003   2.6310e+007    0.0000    0.0803    0.0000   -0.0000    0.2288
                0.1081  -2.5531e-003   3.3205e-004   6.5676e-003  -4.9019e+007   2.9368e+003   2.5942e+007    0.0000    0.0986    0.0000   -0.0000    0.2256
                0.1326  -3.0723e-003   3.9959e-004   6.4424e-003  -5.8989e+007   3.5322e+003   2.5447e+007    0.0000    0.1187    0.0000   -0.0000    0.2213
                0.1577  -3.4781e-003   4.5236e-004   6.2940e-003  -6.6780e+007   3.9976e+003   2.4861e+007    0.0000    0.1344    0.0000   -0.0000    0.2162
                0.1858  -3.9316e-003   5.1134e-004   6.1079e-003  -7.5486e+007   4.5171e+003   2.4126e+007    0.0000    0.1519    0.0000   -0.0000    0.2098
                0.2154  -4.3500e-003   5.6576e-004   5.8894e-003  -8.3519e+007   4.9967e+003   2.3263e+007    0.0000    0.1680    0.0000   -0.0000    0.2023
                0.2466  -4.7191e-003   6.1377e-004   5.6374e-003  -9.0607e+007   5.4197e+003   2.2268e+007    0.0000    0.1823    0.0000   -0.0000    0.1936
                0.2800  -5.1134e-003   6.6504e-004   5.3468e-003  -9.8176e+007   5.8714e+003   2.1120e+007    0.0000    0.1975    0.0000   -0.0000    0.1837
                0.3145  -5.4062e-003   7.0313e-004   5.0270e-003  -1.0380e+008   6.2070e+003   1.9856e+007    0.0000    0.2089    0.0000   -0.0000    0.1727
                0.3508  -5.6926e-003   7.4037e-004   4.6720e-003  -1.0930e+008   6.5351e+003   1.8454e+007    0.0000    0.2199    0.0000   -0.0000    0.1605
                0.3886  -5.9610e-003   7.7528e-004   4.2849e-003  -1.1445e+008   6.8426e+003   1.6925e+007    0.0000    0.2303    0.0000   -0.0000    0.1472
                0.3982  -6.0002e-003   7.8038e-004   4.1843e-003  -1.1520e+008   6.8876e+003   1.6528e+007    0.0000    0.2318    0.0000   -0.0000    0.1437

            panel:  2     
           lam_num    nPlies        tPly      fibAng     matID  matName
               (-)       (-)         (m)       (deg)       (-)  (-)
                 1         1    0.004996      0.0000         2  (blade-shell)
                 2         1    0.003213      0.0000         3  (spar-uni)
                 3         1    0.000047      0.0000         4  (spar-core)
                 4         1    0.003213      0.0000         3  (spar-uni)
                 5         1    0.004996      0.0000         2  (blade-shell)

               lamina:  1     
              matName:  (blade-shell)
                     s           e11           e22           e12           s11           s22           s12   s11_fcT   s11_fcC   s22_fcT   s22_fcC   s12_fcS
                   (m)         (m/m)         (m/m)         (rad)          (Pa)          (Pa)          (Pa)       (-)       (-)       (-)       (-)       (-)
                0.0000  -8.0632e-003   1.2855e-003   5.6407e-003  -1.5421e+008   4.6335e+006   2.2281e+007    0.0000    0.3103    0.0137   -0.0000    0.1937
                0.0290  -8.1836e-003   1.3057e-003   4.7618e-003  -1.5651e+008   4.7239e+006   1.8809e+007    0.0000    0.3149    0.0140   -0.0000    0.1636
                0.0691  -8.3562e-003   1.3346e-003   3.5224e-003  -1.5981e+008   4.8494e+006   1.3913e+007    0.0000    0.3215    0.0144   -0.0000    0.1210
                0.1099  -8.4347e-003   1.3476e-003   2.2365e-003  -1.6131e+008   4.9044e+006   8.8341e+006    0.0000    0.3246    0.0146   -0.0000    0.0768
                0.1520  -8.4379e-003   1.3481e-003   9.0641e-004  -1.6137e+008   4.9064e+006   3.5803e+006    0.0000    0.3247    0.0146   -0.0000    0.0311
                0.1947  -8.4384e-003   1.3483e-003   4.4259e-004  -1.6138e+008   4.9084e+006   1.7482e+006    0.0000    0.3247    0.0146   -0.0000    0.0152
                0.2382  -8.2715e-003   1.3205e-003   1.7980e-003  -1.5819e+008   4.7884e+006   7.1020e+006    0.0000    0.3183    0.0142   -0.0000    0.0618
                0.2826  -8.0979e-003   1.2913e-003   3.1411e-003  -1.5487e+008   4.6600e+006   1.2407e+007    0.0000    0.3116    0.0138   -0.0000    0.1079
                0.3166  -7.9314e-003   1.2634e-003   4.1387e-003  -1.5169e+008   4.5374e+006   1.6348e+007    0.0000    0.3052    0.0135   -0.0000    0.1422

               lamina:  2     
              matName:  (spar-uni)
                     s           e11           e22           e12           s11           s22           s12   s11_fcT   s11_fcC   s22_fcT   s22_fcC   s12_fcS
                   (m)         (m/m)         (m/m)         (rad)          (Pa)          (Pa)          (Pa)       (-)       (-)       (-)       (-)       (-)
                0.0000  -6.7485e-003   1.1083e-003   5.6407e-003  -8.3259e+008  -8.1190e+006   2.6568e+007    0.0000    0.8326    0.0000    0.1355    0.2579
                0.0290  -6.8689e-003   1.1285e-003   4.7618e-003  -8.4743e+008  -8.2596e+006   2.2428e+007    0.0000    0.8474    0.0000    0.1379    0.2177
                0.0691  -7.0376e-003   1.1569e-003   3.5224e-003  -8.6824e+008  -8.4573e+006   1.6590e+007    0.0000    0.8682    0.0000    0.1412    0.1611
                0.1099  -7.1124e-003   1.1694e-003   2.2365e-003  -8.7748e+008  -8.5454e+006   1.0534e+007    0.0000    0.8775    0.0000    0.1427    0.1023
                0.1520  -7.1152e-003   1.1699e-003   9.0641e-004  -8.7782e+008  -8.5487e+006   4.2692e+006    0.0000    0.8778    0.0000    0.1427    0.0414
                0.1947  -7.1172e-003   1.1702e-003   4.4259e-004  -8.7807e+008  -8.5509e+006   2.0846e+006    0.0000    0.8781    0.0000    0.1428    0.0202
                0.2382  -6.9553e-003   1.1431e-003   1.7980e-003  -8.5809e+008  -8.3608e+006   8.4685e+006    0.0000    0.8581    0.0000    0.1396    0.0822
                0.2826  -6.7836e-003   1.1142e-003   3.1411e-003  -8.3691e+008  -8.1599e+006   1.4794e+007    0.0000    0.8369    0.0000    0.1362    0.1436
                0.3166  -6.6194e-003   1.0866e-003   4.1387e-003  -8.1666e+008  -7.9677e+006   1.9493e+007    0.0000    0.8167    0.0000    0.1330    0.1893

               lamina:  3     
              matName:  (spar-core)
                     s           e11           e22           e12           s11           s22           s12   s11_fcT   s11_fcC   s22_fcT   s22_fcC   s12_fcS
                   (m)         (m/m)         (m/m)         (rad)          (Pa)          (Pa)          (Pa)       (-)       (-)       (-)       (-)       (-)
                0.0000  -5.9029e-003   9.9429e-004   5.6407e-003  -1.3138e+006  -2.2475e+005   5.5279e+005    0.0000    0.3062    0.0000    0.0524    0.1874
                0.0290  -6.0233e-003   1.0146e-003   4.7618e-003  -1.3406e+006  -2.2933e+005   4.6666e+005    0.0000    0.3125    0.0000    0.0535    0.1582
                0.0691  -6.1894e-003   1.0425e-003   3.5224e-003  -1.3775e+006  -2.3565e+005   3.4519e+005    0.0000    0.3211    0.0000    0.0549    0.1170
                0.1099  -6.2620e-003   1.0548e-003   2.2365e-003  -1.3937e+006  -2.3842e+005   2.1918e+005    0.0000    0.3249    0.0000    0.0556    0.0743
                0.1520  -6.2645e-003   1.0552e-003   9.0641e-004  -1.3942e+006  -2.3851e+005   8.8828e+004    0.0000    0.3250    0.0000    0.0556    0.0301
                0.1947  -6.2675e-003   1.0557e-003   4.4259e-004  -1.3949e+006  -2.3863e+005   4.3374e+004    0.0000    0.3252    0.0000    0.0556    0.0147
                0.2382  -6.1088e-003   1.0290e-003   1.7980e-003  -1.3596e+006  -2.3258e+005   1.7620e+005    0.0000    0.3169    0.0000    0.0542    0.0597
                0.2826  -5.9383e-003   1.0002e-003   3.1411e-003  -1.3217e+006  -2.2610e+005   3.0782e+005    0.0000    0.3081    0.0000    0.0527    0.1043
                0.3166  -5.7756e-003   9.7283e-004   4.1387e-003  -1.2854e+006  -2.1990e+005   4.0560e+005    0.0000    0.2996    0.0000    0.0513    0.1375

               lamina:  4     
              matName:  (spar-uni)
                     s           e11           e22           e12           s11           s22           s12   s11_fcT   s11_fcC   s22_fcT   s22_fcC   s12_fcS
                   (m)         (m/m)         (m/m)         (rad)          (Pa)          (Pa)          (Pa)       (-)       (-)       (-)       (-)       (-)
                0.0000  -5.8906e-003   9.9262e-004   5.6407e-003  -7.2668e+008  -6.8785e+006   2.6568e+007    0.0000    0.7267    0.0000    0.1148    0.2579
                0.0290  -6.0110e-003   1.0129e-003   4.7618e-003  -7.4152e+008  -7.0191e+006   2.2428e+007    0.0000    0.7415    0.0000    0.1172    0.2177
                0.0691  -6.1771e-003   1.0409e-003   3.5224e-003  -7.6201e+008  -7.2131e+006   1.6590e+007    0.0000    0.7620    0.0000    0.1204    0.1611
                0.1099  -6.2495e-003   1.0531e-003   2.2365e-003  -7.7096e+008  -7.2977e+006   1.0534e+007    0.0000    0.7710    0.0000    0.1218    0.1023
                0.1520  -6.2521e-003   1.0535e-003   9.0641e-004  -7.7127e+008  -7.3007e+006   4.2692e+006    0.0000    0.7713    0.0000    0.1219    0.0414
                0.1947  -6.2551e-003   1.0540e-003   4.4259e-004  -7.7164e+008  -7.3042e+006   2.0846e+006    0.0000    0.7716    0.0000    0.1219    0.0202
                0.2382  -6.0964e-003   1.0273e-003   1.7980e-003  -7.5207e+008  -7.1189e+006   8.4685e+006    0.0000    0.7521    0.0000    0.1188    0.0822
                0.2826  -5.9260e-003   9.9858e-004   3.1411e-003  -7.3104e+008  -6.9198e+006   1.4794e+007    0.0000    0.7310    0.0000    0.1155    0.1436
                0.3166  -5.7633e-003   9.7117e-004   4.1387e-003  -7.1097e+008  -6.7298e+006   1.9493e+007    0.0000    0.7110    0.0000    0.1123    0.1893

               lamina:  5     
              matName:  (blade-shell)
                     s           e11           e22           e12           s11           s22           s12   s11_fcT   s11_fcC   s22_fcT   s22_fcC   s12_fcS
                   (m)         (m/m)         (m/m)         (rad)          (Pa)          (Pa)          (Pa)       (-)       (-)       (-)       (-)       (-)
                0.0000  -5.0450e-003   8.7865e-004   5.6407e-003  -9.6299e+007   4.3512e+006   2.2281e+007    0.0000    0.1938    0.0129   -0.0000    0.1937
                0.0290  -5.1654e-003   8.9892e-004   4.7618e-003  -9.8598e+007   4.4416e+006   1.8809e+007    0.0000    0.1984    0.0132   -0.0000    0.1636
                0.0691  -5.3289e-003   9.2656e-004   3.5224e-003  -1.0172e+008   4.5662e+006   1.3913e+007    0.0000    0.2047    0.0135   -0.0000    0.1210
                0.1099  -5.3991e-003   9.3846e-004   2.2365e-003  -1.0306e+008   4.6204e+006   8.8341e+006    0.0000    0.2074    0.0137   -0.0000    0.0768
                0.1520  -5.4013e-003   9.3885e-004   9.0641e-004  -1.0310e+008   4.6223e+006   3.5803e+006    0.0000    0.2075    0.0137   -0.0000    0.0311
                0.1947  -5.4054e-003   9.3949e-004   4.4259e-004  -1.0318e+008   4.6247e+006   1.7482e+006    0.0000    0.2076    0.0137   -0.0000    0.0152
                0.2382  -5.2499e-003   9.1319e-004   1.7980e-003  -1.0021e+008   4.5057e+006   7.1020e+006    0.0000    0.2016    0.0134   -0.0000    0.0618
                0.2826  -5.0807e-003   8.8464e-004   3.1411e-003  -9.6980e+007   4.3778e+006   1.2407e+007    0.0000    0.1951    0.0130   -0.0000    0.1079
                0.3166  -4.9194e-003   8.5743e-004   4.1387e-003  -9.3900e+007   4.2556e+006   1.6348e+007    0.0000    0.1889    0.0126   -0.0000    0.1422

            panel:  3     
           lam_num    nPlies        tPly      fibAng     matID  matName
               (-)       (-)         (m)       (deg)       (-)  (-)
                 1         1    0.004996      0.0000         2  (blade-shell)
                 2         1    0.003245      0.0000         6  (TEP-core)
                 3         1    0.004996      0.0000         2  (blade-shell)

               lamina:  1     
              matName:  (blade-shell)
                     s           e11           e22           e12           s11           s22           s12   s11_fcT   s11_fcC   s22_fcT   s22_fcC   s12_fcS
                   (m)         (m/m)         (m/m)         (rad)          (Pa)          (Pa)          (Pa)       (-)       (-)       (-)       (-)       (-)
                0.0000  -6.4007e-003   8.3666e-004   7.0428e-004  -1.2288e+008   8.9297e+004   2.7819e+006    0.0000    0.2472    0.0003   -0.0000    0.0242
                0.0106  -6.3464e-003   8.2957e-004   8.1010e-004  -1.2184e+008   8.8524e+004   3.1999e+006    0.0000    0.2452    0.0003   -0.0000    0.0278
                0.0560  -6.0360e-003   7.8898e-004   1.2491e-003  -1.1588e+008   8.3806e+004   4.9341e+006    0.0000    0.2332    0.0002   -0.0000    0.0429
                0.1013  -5.7250e-003   7.4830e-004   1.6626e-003  -1.0991e+008   7.9095e+004   6.5672e+006    0.0000    0.2211    0.0002   -0.0000    0.0571
                0.1468  -5.3456e-003   6.9869e-004   2.0492e-003  -1.0263e+008   7.3362e+004   8.0942e+006    0.0000    0.2065    0.0002   -0.0000    0.0704
                0.1921  -4.9390e-003   6.4550e-004   2.4038e-003  -9.4819e+007   6.7180e+004   9.4952e+006    0.0000    0.1908    0.0002   -0.0000    0.0826
                0.2369  -4.5330e-003   5.9241e-004   2.7219e-003  -8.7025e+007   6.1028e+004   1.0752e+007    0.0000    0.1751    0.0002   -0.0000    0.0935
                0.2814  -4.0726e-003   5.3220e-004   3.0038e-003  -7.8187e+007   5.4047e+004   1.1865e+007    0.0000    0.1573    0.0002   -0.0000    0.1032
                0.3251  -3.6227e-003   4.7337e-004   3.2456e-003  -6.9550e+007   4.7195e+004   1.2820e+007    0.0000    0.1399    0.0001   -0.0000    0.1115
                0.3677  -3.1719e-003   4.1442e-004   3.4480e-003  -6.0896e+007   4.0341e+004   1.3620e+007    0.0000    0.1225    0.0001   -0.0000    0.1184
                0.4092  -2.7190e-003   3.5518e-004   3.6121e-003  -5.2201e+007   3.3446e+004   1.4268e+007    0.0000    0.1050    0.0001   -0.0000    0.1241
                0.4493  -2.2820e-003   2.9803e-004   3.7393e-003  -4.3810e+007   2.6780e+004   1.4770e+007    0.0000    0.0881    0.0001   -0.0000    0.1284
                0.4879  -1.8640e-003   2.4337e-004   3.8324e-003  -3.5786e+007   2.0405e+004   1.5138e+007    0.0000    0.0720    0.0001   -0.0000    0.1316
                0.5248  -1.4653e-003   1.9122e-004   3.8948e-003  -2.8131e+007   1.4322e+004   1.5384e+007    0.0000    0.0566    0.0000   -0.0000    0.1338
                0.5597  -1.0904e-003   1.4219e-004   3.9302e-003  -2.0934e+007   8.5884e+003   1.5524e+007    0.0000    0.0421    0.0000   -0.0000    0.1350
                0.5926  -7.5289e-004   9.8052e-005   3.9427e-003  -1.4455e+007   3.4276e+003   1.5574e+007    0.0000    0.0291    0.0000   -0.0000    0.1354
                0.6234  -4.3720e-004   5.6765e-005   3.9366e-003  -8.3945e+006  -1.6933e+003   1.5550e+007    0.0000    0.0169    0.0000    0.0000    0.1352
                0.6518   2.6234e-004  -3.4411e-005   3.9160e-003   5.0362e+006  -5.9834e+003   1.5468e+007    0.0149   -0.0000    0.0000    0.0000    0.1345
                0.6778   5.0924e-004  -6.6701e-005   3.8851e-003   9.7762e+006  -9.7511e+003   1.5346e+007    0.0290   -0.0000    0.0000    0.0000    0.1334
                0.7014   7.3297e-004  -9.5960e-005   3.8471e-003   1.4071e+007  -1.3167e+004   1.5196e+007    0.0418   -0.0000    0.0000    0.0000    0.1321
                0.7223   9.1575e-004  -1.1986e-004   3.8059e-003   1.7580e+007  -1.5960e+004   1.5033e+007    0.0522   -0.0000    0.0000    0.0000    0.1307
                0.7406   1.0736e-003  -1.4051e-004   3.7645e-003   2.0611e+007  -1.8369e+004   1.4870e+007    0.0612   -0.0000    0.0000    0.0001    0.1293
                0.7561   1.2062e-003  -1.5785e-004   3.7250e-003   2.3156e+007  -2.0393e+004   1.4714e+007    0.0687   -0.0000    0.0000    0.0001    0.1279
                0.7690   1.3099e-003  -1.7141e-004   3.6899e-003   2.5147e+007  -2.1978e+004   1.4575e+007    0.0746   -0.0000    0.0000    0.0001    0.1267
                0.7789   1.3908e-003  -1.8199e-004   3.6610e-003   2.6700e+007  -2.3210e+004   1.4461e+007    0.0792   -0.0000    0.0000    0.0001    0.1257
                0.7860   1.4512e-003  -1.8989e-004   3.6394e-003   2.7860e+007  -2.4127e+004   1.4376e+007    0.0827   -0.0000    0.0000    0.0001    0.1250
                0.7903   1.4886e-003  -1.9479e-004   3.6261e-003   2.8579e+007  -2.4696e+004   1.4323e+007    0.0848   -0.0000    0.0000    0.0001    0.1245
                0.7918   1.5012e-003  -1.9643e-004   3.6215e-003   2.8819e+007  -2.4887e+004   1.4305e+007    0.0855   -0.0000    0.0000    0.0001    0.1244

               lamina:  2     
              matName:  (TEP-core)
                     s           e11           e22           e12           s11           s22           s12   s11_fcT   s11_fcC   s22_fcT   s22_fcC   s12_fcS
                   (m)         (m/m)         (m/m)         (rad)          (Pa)          (Pa)          (Pa)       (-)       (-)       (-)       (-)       (-)
                0.0000  -5.9697e-003   7.8062e-004   7.0428e-004  -1.3461e+006  -2.8030e+005   6.9020e+004    0.0000    0.3138    0.0000    0.0653    0.0234
                0.0106  -5.9183e-003   7.7390e-004   8.1010e-004  -1.3345e+006  -2.7788e+005   7.9390e+004    0.0000    0.3111    0.0000    0.0648    0.0269
                0.0560  -5.6087e-003   7.3341e-004   1.2491e-003  -1.2647e+006  -2.6335e+005   1.2242e+005    0.0000    0.2948    0.0000    0.0614    0.0415
                0.1013  -5.2993e-003   6.9294e-004   1.6626e-003  -1.1950e+006  -2.4882e+005   1.6293e+005    0.0000    0.2785    0.0000    0.0580    0.0552
                0.1468  -4.9226e-003   6.4368e-004   2.0492e-003  -1.1100e+006  -2.3114e+005   2.0082e+005    0.0000    0.2587    0.0000    0.0539    0.0681
                0.1921  -4.5170e-003   5.9063e-004   2.4038e-003  -1.0186e+006  -2.1209e+005   2.3558e+005    0.0000    0.2374    0.0000    0.0494    0.0799
                0.2369  -4.1130e-003   5.3779e-004   2.7219e-003  -9.2745e+005  -1.9312e+005   2.6675e+005    0.0000    0.2162    0.0000    0.0450    0.0904
                0.2814  -3.6546e-003   4.7785e-004   3.0038e-003  -8.2410e+005  -1.7160e+005   2.9437e+005    0.0000    0.1921    0.0000    0.0400    0.0998
                0.3251  -3.2051e-003   4.1907e-004   3.2456e-003  -7.2275e+005  -1.5050e+005   3.1807e+005    0.0000    0.1685    0.0000    0.0351    0.1078
                0.3677  -2.7554e-003   3.6025e-004   3.4480e-003  -6.2132e+005  -1.2938e+005   3.3790e+005    0.0000    0.1448    0.0000    0.0302    0.1145
                0.4092  -2.3031e-003   3.0109e-004   3.6121e-003  -5.1933e+005  -1.0815e+005   3.5398e+005    0.0000    0.1211    0.0000    0.0252    0.1200
                0.4493  -1.8659e-003   2.4393e-004   3.7393e-003  -4.2076e+005  -8.7627e+004   3.6645e+005    0.0000    0.0981    0.0000    0.0204    0.1242
                0.4879  -1.4479e-003   1.8925e-004   3.8324e-003  -3.2649e+005  -6.7999e+004   3.7557e+005    0.0000    0.0761    0.0000    0.0159    0.1273
                0.5248  -1.0490e-003   1.3708e-004   3.8948e-003  -2.3654e+005  -4.9272e+004   3.8169e+005    0.0000    0.0551    0.0000    0.0115    0.1294
                0.5597  -6.7319e-004   8.7939e-005   3.9302e-003  -1.5181e+005  -3.1629e+004   3.8516e+005    0.0000    0.0354    0.0000    0.0074    0.1306
                0.5926  -3.3494e-004   4.3702e-005   3.9427e-003  -7.5534e+004  -1.5749e+004   3.8638e+005    0.0000    0.0176    0.0000    0.0037    0.1310
                0.6234   2.5329e-004  -3.3024e-005   3.9366e-003   5.7122e+004   1.1915e+004   3.8579e+005    0.0133   -0.0000    0.0028   -0.0000    0.1308
                0.6518   5.3505e-004  -6.9873e-005   3.9160e-003   1.2066e+005   2.5144e+004   3.8377e+005    0.0281   -0.0000    0.0059   -0.0000    0.1301
                0.6778   7.8235e-004  -1.0221e-004   3.8851e-003   1.7642e+005   3.6754e+004   3.8074e+005    0.0411   -0.0000    0.0086   -0.0000    0.1291
                0.7014   1.0068e-003  -1.3156e-004   3.8471e-003   2.2702e+005   4.7290e+004   3.7702e+005    0.0529   -0.0000    0.0110   -0.0000    0.1278
                0.7223   1.1903e-003  -1.5557e-004   3.8059e-003   2.6842e+005   5.5910e+004   3.7298e+005    0.0626   -0.0000    0.0130   -0.0000    0.1264
                0.7406   1.3484e-003  -1.7624e-004   3.7645e-003   3.0406e+005   6.3330e+004   3.6892e+005    0.0709   -0.0000    0.0148   -0.0000    0.1251
                0.7561   1.4814e-003  -1.9364e-004   3.7250e-003   3.3406e+005   6.9574e+004   3.6505e+005    0.0779   -0.0000    0.0162   -0.0000    0.1237
                0.7690   1.5855e-003  -2.0725e-004   3.6899e-003   3.5753e+005   7.4462e+004   3.6161e+005    0.0833   -0.0000    0.0174   -0.0000    0.1226
                0.7789   1.6662e-003  -2.1780e-004   3.6610e-003   3.7572e+005   7.8249e+004   3.5878e+005    0.0876   -0.0000    0.0182   -0.0000    0.1216
                0.7860   1.7261e-003  -2.2564e-004   3.6394e-003   3.8923e+005   8.1062e+004   3.5667e+005    0.0907   -0.0000    0.0189   -0.0000    0.1209
                0.7903   1.7633e-003  -2.3050e-004   3.6261e-003   3.9761e+005   8.2808e+004   3.5535e+005    0.0927   -0.0000    0.0193   -0.0000    0.1205
                0.7918   1.7758e-003  -2.3214e-004   3.6215e-003   4.0044e+005   8.3396e+004   3.5491e+005    0.0933   -0.0000    0.0194   -0.0000    0.1203

               lamina:  3     
              matName:  (blade-shell)
                     s           e11           e22           e12           s11           s22           s12   s11_fcT   s11_fcC   s22_fcT   s22_fcC   s12_fcS
                   (m)         (m/m)         (m/m)         (rad)          (Pa)          (Pa)          (Pa)       (-)       (-)       (-)       (-)       (-)
                0.0000  -5.6898e-003   7.4422e-004   7.0428e-004  -1.0923e+008   8.8796e+004   2.7819e+006    0.0000    0.2198    0.0003   -0.0000    0.0242
                0.0106  -5.6402e-003   7.3774e-004   8.1010e-004  -1.0828e+008   8.8026e+004   3.1999e+006    0.0000    0.2179    0.0003   -0.0000    0.0278
                0.0560  -5.3311e-003   6.9731e-004   1.2491e-003  -1.0235e+008   8.3309e+004   4.9341e+006    0.0000    0.2059    0.0002   -0.0000    0.0429
                0.1013  -5.0228e-003   6.5699e-004   1.6626e-003  -9.6427e+007   7.8600e+004   6.5672e+006    0.0000    0.1940    0.0002   -0.0000    0.0571
                0.1468  -4.6479e-003   6.0795e-004   2.0492e-003  -8.9229e+007   7.2870e+004   8.0942e+006    0.0000    0.1795    0.0002   -0.0000    0.0704
                0.1921  -4.2428e-003   5.5498e-004   2.4038e-003  -8.1454e+007   6.6689e+004   9.4952e+006    0.0000    0.1639    0.0002   -0.0000    0.0826
                0.2369  -3.8401e-003   5.0232e-004   2.7219e-003  -7.3723e+007   6.0539e+004   1.0752e+007    0.0000    0.1483    0.0002   -0.0000    0.0935
                0.2814  -3.3831e-003   4.4255e-004   3.0038e-003  -6.4949e+007   5.3561e+004   1.1865e+007    0.0000    0.1307    0.0002   -0.0000    0.1032
                0.3251  -2.9339e-003   3.8380e-004   3.2456e-003  -5.6325e+007   4.6709e+004   1.2820e+007    0.0000    0.1133    0.0001   -0.0000    0.1115
                0.3677  -2.4848e-003   3.2506e-004   3.4480e-003  -4.7703e+007   3.9856e+004   1.3620e+007    0.0000    0.0960    0.0001   -0.0000    0.1184
                0.4092  -2.0329e-003   2.6596e-004   3.6121e-003  -3.9027e+007   3.2962e+004   1.4268e+007    0.0000    0.0785    0.0001   -0.0000    0.1241
                0.4493  -1.5957e-003   2.0879e-004   3.7393e-003  -3.0634e+007   2.6297e+004   1.4770e+007    0.0000    0.0616    0.0001   -0.0000    0.1284
                0.4879  -1.1776e-003   1.5410e-004   3.8324e-003  -2.2606e+007   1.9921e+004   1.5138e+007    0.0000    0.0455    0.0001   -0.0000    0.1316
                0.5248  -7.7855e-004   1.0192e-004   3.8948e-003  -1.4946e+007   1.3838e+004   1.5384e+007    0.0000    0.0301    0.0000   -0.0000    0.1338
                0.5597  -4.0220e-004   5.2700e-005   3.9302e-003  -7.7211e+006   8.1034e+003   1.5524e+007    0.0000    0.0155    0.0000   -0.0000    0.1350
                0.5926   3.5451e-004  -4.5951e-005   3.9427e-003   6.8069e+006   2.9417e+003   1.5574e+007    0.0202   -0.0000    0.0000   -0.0000    0.1354
                0.6234   6.7187e-004  -8.7455e-005   3.9366e-003   1.2900e+007  -2.1800e+003   1.5550e+007    0.0383   -0.0000    0.0000    0.0000    0.1352
                0.6518   9.5487e-004  -1.2447e-004   3.9160e-003   1.8333e+007  -6.4714e+003   1.5468e+007    0.0544   -0.0000    0.0000    0.0000    0.1345
                0.6778   1.2028e-003  -1.5689e-004   3.8851e-003   2.3092e+007  -1.0240e+004   1.5346e+007    0.0685   -0.0000    0.0000    0.0000    0.1334
                0.7014   1.4282e-003  -1.8637e-004   3.8471e-003   2.7420e+007  -1.3657e+004   1.5196e+007    0.0814   -0.0000    0.0000    0.0000    0.1321
                0.7223   1.6131e-003  -2.1054e-004   3.8059e-003   3.0969e+007  -1.6452e+004   1.5033e+007    0.0919   -0.0000    0.0000    0.0000    0.1307
                0.7406   1.7714e-003  -2.3125e-004   3.7645e-003   3.4009e+007  -1.8861e+004   1.4870e+007    0.1009   -0.0000    0.0000    0.0001    0.1293
                0.7561   1.9051e-003  -2.4874e-004   3.7250e-003   3.6576e+007  -2.0886e+004   1.4714e+007    0.1085   -0.0000    0.0000    0.0001    0.1279
                0.7690   2.0098e-003  -2.6243e-004   3.6899e-003   3.8585e+007  -2.2471e+004   1.4575e+007    0.1145   -0.0000    0.0000    0.0001    0.1267
                0.7789   2.0901e-003  -2.7293e-004   3.6610e-003   4.0127e+007  -2.3702e+004   1.4461e+007    0.1191   -0.0000    0.0000    0.0001    0.1257
                0.7860   2.1493e-003  -2.8067e-004   3.6394e-003   4.1263e+007  -2.4619e+004   1.4376e+007    0.1224   -0.0000    0.0000    0.0001    0.1250
                0.7903   2.1861e-003  -2.8548e-004   3.6261e-003   4.1969e+007  -2.5188e+004   1.4323e+007    0.1245   -0.0000    0.0000    0.0001    0.1245
                0.7918   2.1986e-003  -2.8712e-004   3.6215e-003   4.2210e+007  -2.5379e+004   1.4305e+007    0.1253   -0.0000    0.0000    0.0001    0.1244

  Bottom:  panel  nNode   nLam     xc_St    xc_End         b         t         E_eff         G_eff      nu_eff     density  buckleCrit
            (-)    (-)    (-)       (-)       (-)       (m)       (m)          (Pa)          (Pa)         (-)    (kg/m^3)         (-)
              1     18      3    0.0000    0.2390    0.3804    0.0102   1.8750e+010   3.8586e+009      0.1301   1635.1157      0.0898
              2      9      5    0.2390    0.4610    0.3167    0.0165   5.9742e+010   4.2357e+009      0.1685   1587.7542      0.0016
              3     28      3    0.4610    1.0000    0.7854    0.0132   1.4547e+010   3.0056e+009      0.1308   1309.6131      0.1461

            panel:  1     
           lam_num    nPlies        tPly      fibAng     matID  matName
               (-)       (-)         (m)       (deg)       (-)  (-)
                 1         1    0.004996      0.0000         2  (blade-shell)
                 2         1    0.000243      0.0000         5  (LEP-core)
                 3         1    0.004996      0.0000         2  (blade-shell)

               lamina:  1     
              matName:  (blade-shell)
                     s           e11           e22           e12           s11           s22           s12   s11_fcT   s11_fcC   s22_fcT   s22_fcC   s12_fcS
                   (m)         (m/m)         (m/m)         (rad)          (Pa)          (Pa)          (Pa)       (-)       (-)       (-)       (-)       (-)
                0.0000   5.3527e-004  -6.9606e-005   6.8179e-003   1.0277e+007  -4.0062e+002   2.6931e+007    0.0305   -0.0000    0.0000    0.0000    0.2342
                0.0041   6.8060e-004  -8.8507e-005   6.8160e-003   1.3067e+007  -5.6707e+002   2.6923e+007    0.0388   -0.0000    0.0000    0.0000    0.2341
                0.0160   1.1377e-003  -1.4796e-004   6.8043e-003   2.1844e+007  -1.0529e+003   2.6877e+007    0.0648   -0.0000    0.0000    0.0000    0.2337
                0.0307   1.7376e-003  -2.2597e-004   6.7782e-003   3.3362e+007  -1.6254e+003   2.6774e+007    0.0990   -0.0000    0.0000    0.0000    0.2328
                0.0435   2.1588e-003  -2.8074e-004   6.7459e-003   4.1448e+007  -2.0202e+003   2.6646e+007    0.1230   -0.0000    0.0000    0.0000    0.2317
                0.0606   2.6568e-003  -3.4551e-004   6.6908e-003   5.1009e+007  -2.5493e+003   2.6429e+007    0.1514   -0.0000    0.0000    0.0000    0.2298
                0.0783   3.0836e-003  -4.0102e-004   6.6207e-003   5.9205e+007  -2.9887e+003   2.6152e+007    0.1757   -0.0000    0.0000    0.0000    0.2274
                0.0987   3.4913e-003  -4.5404e-004   6.5264e-003   6.7032e+007  -3.4409e+003   2.5779e+007    0.1989   -0.0000    0.0000    0.0000    0.2242
                0.1215   3.9450e-003  -5.1305e-004   6.4038e-003   7.5743e+007  -3.9351e+003   2.5295e+007    0.2248   -0.0000    0.0000    0.0000    0.2200
                0.1456   4.2931e-003  -5.5833e-004   6.2589e-003   8.2427e+007  -4.3152e+003   2.4723e+007    0.2446   -0.0000    0.0000    0.0000    0.2150
                0.1723   4.6693e-003  -6.0726e-004   6.0808e-003   8.9651e+007  -4.7396e+003   2.4019e+007    0.2660   -0.0000    0.0000    0.0000    0.2089
                0.2009   5.0191e-003  -6.5275e-004   5.8732e-003   9.6366e+007  -5.1286e+003   2.3199e+007    0.2860   -0.0000    0.0000    0.0000    0.2017
                0.2313   5.3195e-003  -6.9182e-004   5.6347e-003   1.0213e+008  -5.4676e+003   2.2257e+007    0.3031   -0.0000    0.0000    0.0000    0.1935
                0.2638   5.6411e-003  -7.3364e-004   5.3623e-003   1.0831e+008  -5.8298e+003   2.1181e+007    0.3214   -0.0000    0.0000    0.0000    0.1842
                0.2977   5.8799e-003  -7.6470e-004   5.0615e-003   1.1289e+008  -6.0976e+003   1.9993e+007    0.3350   -0.0000    0.0000    0.0000    0.1739
                0.3335   6.1094e-003  -7.9455e-004   4.7291e-003   1.1730e+008  -6.3587e+003   1.8680e+007    0.3481   -0.0000    0.0000    0.0000    0.1624
                0.3708   6.3239e-003  -8.2245e-004   4.3675e-003   1.2142e+008  -6.6022e+003   1.7252e+007    0.3603   -0.0000    0.0000    0.0000    0.1500
                0.3804   6.3574e-003  -8.2680e-004   4.2727e-003   1.2206e+008  -6.6366e+003   1.6877e+007    0.3622   -0.0000    0.0000    0.0000    0.1468

               lamina:  2     
              matName:  (LEP-core)
                     s           e11           e22           e12           s11           s22           s12   s11_fcT   s11_fcC   s22_fcT   s22_fcC   s12_fcS
                   (m)         (m/m)         (m/m)         (rad)          (Pa)          (Pa)          (Pa)       (-)       (-)       (-)       (-)       (-)
                0.0000   3.5408e-004  -4.6051e-005   6.8179e-003   7.9862e+004   1.6684e+004   6.6816e+005    0.0186   -0.0000    0.0039   -0.0000    0.2265
                0.0041   4.9941e-004  -6.4952e-005   6.8160e-003   1.1264e+005   2.3532e+004   6.6796e+005    0.0263   -0.0000    0.0055   -0.0000    0.2264
                0.0160   9.2436e-004  -1.2022e-004   6.8043e-003   2.0849e+005   4.3555e+004   6.6682e+005    0.0486   -0.0000    0.0102   -0.0000    0.2260
                0.0307   1.4265e-003  -1.8553e-004   6.7782e-003   3.2174e+005   6.7215e+004   6.6426e+005    0.0750   -0.0000    0.0157   -0.0000    0.2252
                0.0435   1.7730e-003  -2.3059e-004   6.7459e-003   3.9990e+005   8.3542e+004   6.6109e+005    0.0932   -0.0000    0.0195   -0.0000    0.2241
                0.0606   2.2358e-003  -2.9078e-004   6.6908e-003   5.0427e+005   1.0535e+005   6.5570e+005    0.1175   -0.0000    0.0246   -0.0000    0.2223
                0.0783   2.6204e-003  -3.4081e-004   6.6207e-003   5.9104e+005   1.2347e+005   6.4883e+005    0.1378   -0.0000    0.0288   -0.0000    0.2199
                0.0987   3.0156e-003  -3.9220e-004   6.5264e-003   6.8016e+005   1.4209e+005   6.3958e+005    0.1585   -0.0000    0.0331   -0.0000    0.2168
                0.1215   3.4476e-003  -4.4838e-004   6.4038e-003   7.7760e+005   1.6245e+005   6.2757e+005    0.1813   -0.0000    0.0379   -0.0000    0.2127
                0.1456   3.7797e-003  -4.9159e-004   6.2589e-003   8.5252e+005   1.7810e+005   6.1337e+005    0.1987   -0.0000    0.0415   -0.0000    0.2079
                0.1723   4.1505e-003  -5.3980e-004   6.0808e-003   9.3614e+005   1.9557e+005   5.9592e+005    0.2182   -0.0000    0.0456   -0.0000    0.2020
                0.2009   4.4903e-003  -5.8401e-004   5.8732e-003   1.0128e+006   2.1158e+005   5.7557e+005    0.2361   -0.0000    0.0493   -0.0000    0.1951
                0.2313   4.7864e-003  -6.2251e-004   5.6347e-003   1.0796e+006   2.2553e+005   5.5220e+005    0.2516   -0.0000    0.0526   -0.0000    0.1872
                0.2638   5.1028e-003  -6.6366e-004   5.3623e-003   1.1509e+006   2.4044e+005   5.2550e+005    0.2683   -0.0000    0.0560   -0.0000    0.1781
                0.2977   5.3367e-003  -6.9408e-004   5.0615e-003   1.2037e+006   2.5146e+005   4.9602e+005    0.2806   -0.0000    0.0586   -0.0000    0.1681
                0.3335   5.5647e-003  -7.2373e-004   4.7291e-003   1.2551e+006   2.6220e+005   4.6345e+005    0.2926   -0.0000    0.0611   -0.0000    0.1571
                0.3708   5.7773e-003  -7.5139e-004   4.3675e-003   1.3031e+006   2.7222e+005   4.2802e+005    0.3037   -0.0000    0.0635   -0.0000    0.1451
                0.3804   5.8075e-003  -7.5531e-004   4.2727e-003   1.3099e+006   2.7364e+005   4.1873e+005    0.3053   -0.0000    0.0638   -0.0000    0.1419

               lamina:  3     
              matName:  (blade-shell)
                     s           e11           e22           e12           s11           s22           s12   s11_fcT   s11_fcC   s22_fcT   s22_fcC   s12_fcS
                   (m)         (m/m)         (m/m)         (rad)          (Pa)          (Pa)          (Pa)       (-)       (-)       (-)       (-)       (-)
                0.0000   3.4527e-004  -4.4906e-005   6.8179e-003   6.6291e+006  -4.0050e+002   2.6931e+007    0.0197   -0.0000    0.0000    0.0000    0.2342
                0.0041   4.9060e-004  -6.3807e-005   6.8160e-003   9.4195e+006  -5.6695e+002   2.6923e+007    0.0280   -0.0000    0.0000    0.0000    0.2341
                0.0160   9.1398e-004  -1.1887e-004   6.8043e-003   1.7548e+007  -1.0528e+003   2.6877e+007    0.0521   -0.0000    0.0000    0.0000    0.2337
                0.0307   1.4114e-003  -1.8356e-004   6.7782e-003   2.7098e+007  -1.6252e+003   2.6774e+007    0.0804   -0.0000    0.0000    0.0000    0.2328
                0.0435   1.7542e-003  -2.2815e-004   6.7459e-003   3.3681e+007  -2.0200e+003   2.6646e+007    0.0999   -0.0000    0.0000    0.0000    0.2317
                0.0606   2.2153e-003  -2.8812e-004   6.6908e-003   4.2533e+007  -2.5490e+003   2.6429e+007    0.1262   -0.0000    0.0000    0.0000    0.2298
                0.0783   2.5979e-003  -3.3788e-004   6.6207e-003   4.9880e+007  -2.9884e+003   2.6152e+007    0.1480   -0.0000    0.0000    0.0000    0.2274
                0.0987   2.9924e-003  -3.8919e-004   6.5264e-003   5.7454e+007  -3.4406e+003   2.5779e+007    0.1705   -0.0000    0.0000    0.0000    0.2242
                0.1215   3.4234e-003  -4.4524e-004   6.4038e-003   6.5728e+007  -3.9348e+003   2.5295e+007    0.1950   -0.0000    0.0000    0.0000    0.2200
                0.1456   3.7548e-003  -4.8834e-004   6.2589e-003   7.2091e+007  -4.3148e+003   2.4723e+007    0.2139   -0.0000    0.0000    0.0000    0.2150
                0.1723   4.1253e-003  -5.3653e-004   6.0808e-003   7.9204e+007  -4.7393e+003   2.4019e+007    0.2350   -0.0000    0.0000    0.0000    0.2089
                0.2009   4.4646e-003  -5.8066e-004   5.8732e-003   8.5720e+007  -5.1283e+003   2.3199e+007    0.2544   -0.0000    0.0000    0.0000    0.2017
                0.2313   4.7605e-003  -6.1914e-004   5.6347e-003   9.1400e+007  -5.4672e+003   2.2257e+007    0.2712   -0.0000    0.0000    0.0000    0.1935
                0.2638   5.0766e-003  -6.6026e-004   5.3623e-003   9.7470e+007  -5.8295e+003   2.1181e+007    0.2892   -0.0000    0.0000    0.0000    0.1842
                0.2977   5.3103e-003  -6.9064e-004   5.0615e-003   1.0196e+008  -6.0972e+003   1.9993e+007    0.3025   -0.0000    0.0000    0.0000    0.1739
                0.3335   5.5382e-003  -7.2029e-004   4.7291e-003   1.0633e+008  -6.3583e+003   1.8680e+007    0.3155   -0.0000    0.0000    0.0000    0.1624
                0.3708   5.7507e-003  -7.4793e-004   4.3675e-003   1.1041e+008  -6.6018e+003   1.7252e+007    0.3276   -0.0000    0.0000    0.0000    0.1500
                0.3804   5.7807e-003  -7.5183e-004   4.2727e-003   1.1099e+008  -6.6363e+003   1.6877e+007    0.3293   -0.0000    0.0000    0.0000    0.1468

            panel:  2     
           lam_num    nPlies        tPly      fibAng     matID  matName
               (-)       (-)         (m)       (deg)       (-)  (-)
                 1         1    0.004996      0.0000         2  (blade-shell)
                 2         1    0.003213      0.0000         3  (spar-uni)
                 3         1    0.000047      0.0000         4  (spar-core)
                 4         1    0.003213      0.0000         3  (spar-uni)
                 5         1    0.004996      0.0000         2  (blade-shell)

               lamina:  1     
              matName:  (blade-shell)
                     s           e11           e22           e12           s11           s22           s12   s11_fcT   s11_fcC   s22_fcT   s22_fcC   s12_fcS
                   (m)         (m/m)         (m/m)         (rad)          (Pa)          (Pa)          (Pa)       (-)       (-)       (-)       (-)       (-)
                0.0000   7.8490e-003  -1.2492e-003   5.7120e-003   1.5012e+008  -4.4689e+006   2.2562e+007    0.4455   -0.0000    0.0000    0.0133    0.1962
                0.0289   7.9405e-003  -1.2646e-003   4.8896e-003   1.5187e+008  -4.5377e+006   1.9314e+007    0.4506   -0.0000    0.0000    0.0135    0.1679
                0.0687   8.0712e-003  -1.2865e-003   3.7307e-003   1.5436e+008  -4.6332e+006   1.4736e+007    0.4581   -0.0000    0.0000    0.0137    0.1281
                0.1096   8.1229e-003  -1.2951e-003   2.5238e-003   1.5535e+008  -4.6698e+006   9.9689e+006    0.4610   -0.0000    0.0000    0.0139    0.0867
                0.1516   8.1125e-003  -1.2933e-003   1.2733e-003   1.5515e+008  -4.6619e+006   5.0297e+006    0.4604   -0.0000    0.0000    0.0138    0.0437
                0.1944   8.0995e-003  -1.2912e-003   2.9173e-006   1.5491e+008  -4.6539e+006   1.1524e+004    0.4597   -0.0000    0.0000    0.0138    0.0001
                0.2381   7.9425e-003  -1.2650e-003   1.2800e-003   1.5191e+008  -4.5404e+006   5.0562e+006    0.4508   -0.0000    0.0000    0.0135    0.0440
                0.2826   7.7797e-003  -1.2377e-003   2.5549e-003   1.4880e+008  -4.4196e+006   1.0092e+007    0.4415   -0.0000    0.0000    0.0131    0.0878
                0.3167   7.6283e-003  -1.2122e-003   3.5057e-003   1.4590e+008  -4.3076e+006   1.3848e+007    0.4329   -0.0000    0.0000    0.0128    0.1204

               lamina:  2     
              matName:  (spar-uni)
                     s           e11           e22           e12           s11           s22           s12   s11_fcT   s11_fcC   s22_fcT   s22_fcC   s12_fcS
                   (m)         (m/m)         (m/m)         (rad)          (Pa)          (Pa)          (Pa)       (-)       (-)       (-)       (-)       (-)
                0.0000   6.5309e-003  -1.0715e-003   5.7120e-003   8.0574e+008   7.8655e+006   2.6904e+007    0.4071   -0.0000    0.1313   -0.0000    0.2612
                0.0289   6.6225e-003  -1.0870e-003   4.8896e-003   8.1704e+008   7.9724e+006   2.3030e+007    0.4129   -0.0000    0.1331   -0.0000    0.2236
                0.0687   6.7507e-003  -1.1085e-003   3.7307e-003   8.3285e+008   8.1226e+006   1.7572e+007    0.4208   -0.0000    0.1356   -0.0000    0.1706
                0.1096   6.8003e-003  -1.1168e-003   2.5238e-003   8.3897e+008   8.1809e+006   1.1887e+007    0.4239   -0.0000    0.1366   -0.0000    0.1154
                0.1516   6.7898e-003  -1.1150e-003   1.2733e-003   8.3768e+008   8.1687e+006   5.9974e+006    0.4233   -0.0000    0.1364   -0.0000    0.0582
                0.1944   6.7784e-003  -1.1132e-003   2.9173e-006   8.3627e+008   8.1551e+006   1.3741e+004    0.4226   -0.0000    0.1361   -0.0000    0.0001
                0.2381   6.6256e-003  -1.0875e-003   1.2800e-003   8.1742e+008   7.9758e+006   6.0290e+006    0.4130   -0.0000    0.1332   -0.0000    0.0585
                0.2826   6.4642e-003  -1.0603e-003   2.5549e-003   7.9751e+008   7.7871e+006   1.2033e+007    0.4030   -0.0000    0.1300   -0.0000    0.1168
                0.3167   6.3144e-003  -1.0351e-003   3.5057e-003   7.7904e+008   7.6119e+006   1.6512e+007    0.3937   -0.0000    0.1271   -0.0000    0.1603

               lamina:  3     
              matName:  (spar-core)
                     s           e11           e22           e12           s11           s22           s12   s11_fcT   s11_fcC   s22_fcT   s22_fcC   s12_fcS
                   (m)         (m/m)         (m/m)         (rad)          (Pa)          (Pa)          (Pa)       (-)       (-)       (-)       (-)       (-)
                0.0000   5.6832e-003  -9.5727e-004   5.7120e-003   1.2649e+006   2.1639e+005   5.5978e+005    0.2948   -0.0000    0.0504   -0.0000    0.1898
                0.0289   5.7748e-003  -9.7270e-004   4.8896e-003   1.2853e+006   2.1987e+005   4.7918e+005    0.2996   -0.0000    0.0513   -0.0000    0.1624
                0.0687   5.9014e-003  -9.9402e-004   3.7307e-003   1.3134e+006   2.2469e+005   3.6561e+005    0.3062   -0.0000    0.0524   -0.0000    0.1239
                0.1096   5.9496e-003  -1.0021e-003   2.5238e-003   1.3242e+006   2.2653e+005   2.4733e+005    0.3087   -0.0000    0.0528   -0.0000    0.0838
                0.1516   5.9391e-003  -1.0004e-003   1.2733e-003   1.3218e+006   2.2613e+005   1.2479e+005    0.3081   -0.0000    0.0527   -0.0000    0.0423
                0.1944   5.9287e-003  -9.9863e-004   2.9173e-006   1.3195e+006   2.2573e+005   2.8590e+002    0.3076   -0.0000    0.0526   -0.0000    0.0001
                0.2381   5.7786e-003  -9.7333e-004   1.2800e-003   1.2861e+006   2.2002e+005   1.2544e+005    0.2998   -0.0000    0.0513   -0.0000    0.0425
                0.2826   5.6181e-003  -9.4630e-004   2.5549e-003   1.2504e+006   2.1391e+005   2.5038e+005    0.2915   -0.0000    0.0499   -0.0000    0.0849
                0.3167   5.4694e-003  -9.2125e-004   3.5057e-003   1.2173e+006   2.0825e+005   3.4356e+005    0.2838   -0.0000    0.0485   -0.0000    0.1165

               lamina:  4     
              matName:  (spar-uni)
                     s           e11           e22           e12           s11           s22           s12   s11_fcT   s11_fcC   s22_fcT   s22_fcC   s12_fcS
                   (m)         (m/m)         (m/m)         (rad)          (Pa)          (Pa)          (Pa)       (-)       (-)       (-)       (-)       (-)
                0.0000   5.6709e-003  -9.5560e-004   5.7120e-003   6.9957e+008   6.6218e+006   2.6904e+007    0.3535   -0.0000    0.1105   -0.0000    0.2612
                0.0289   5.7624e-003  -9.7103e-004   4.8896e-003   7.1087e+008   6.7288e+006   2.3030e+007    0.3592   -0.0000    0.1123   -0.0000    0.2236
                0.0687   5.8890e-003  -9.9235e-004   3.7307e-003   7.2647e+008   6.8766e+006   1.7572e+007    0.3671   -0.0000    0.1148   -0.0000    0.1706
                0.1096   5.9372e-003  -1.0005e-003   2.5238e-003   7.3242e+008   6.9329e+006   1.1887e+007    0.3701   -0.0000    0.1157   -0.0000    0.1154
                0.1516   5.9267e-003  -9.9870e-004   1.2733e-003   7.3113e+008   6.9206e+006   5.9974e+006    0.3694   -0.0000    0.1155   -0.0000    0.0582
                0.1944   5.9163e-003  -9.9696e-004   2.9173e-006   7.2985e+008   6.9085e+006   1.3741e+004    0.3688   -0.0000    0.1153   -0.0000    0.0001
                0.2381   5.7662e-003  -9.7167e-004   1.2800e-003   7.1133e+008   6.7332e+006   6.0290e+006    0.3594   -0.0000    0.1124   -0.0000    0.0585
                0.2826   5.6058e-003  -9.4464e-004   2.5549e-003   6.9154e+008   6.5458e+006   1.2033e+007    0.3494   -0.0000    0.1093   -0.0000    0.1168
                0.3167   5.4571e-003  -9.1959e-004   3.5057e-003   6.7320e+008   6.3722e+006   1.6512e+007    0.3402   -0.0000    0.1064   -0.0000    0.1603

               lamina:  5     
              matName:  (blade-shell)
                     s           e11           e22           e12           s11           s22           s12   s11_fcT   s11_fcC   s22_fcT   s22_fcC   s12_fcS
                   (m)         (m/m)         (m/m)         (rad)          (Pa)          (Pa)          (Pa)       (-)       (-)       (-)       (-)       (-)
                0.0000   4.8232e-003  -8.4134e-004   5.7120e-003   9.2061e+007  -4.1858e+006   2.2562e+007    0.2732   -0.0000    0.0000    0.0124    0.1962
                0.0289   4.9147e-003  -8.5677e-004   4.8896e-003   9.3810e+007  -4.2547e+006   1.9314e+007    0.2784   -0.0000    0.0000    0.0126    0.1679
                0.0687   5.0396e-003  -8.7787e-004   3.7307e-003   9.6196e+007  -4.3496e+006   1.4736e+007    0.2854   -0.0000    0.0000    0.0129    0.1281
                0.1096   5.0865e-003  -8.8581e-004   2.5238e-003   9.7091e+007  -4.3857e+006   9.9689e+006    0.2881   -0.0000    0.0000    0.0130    0.0867
                0.1516   5.0760e-003  -8.8403e-004   1.2733e-003   9.6890e+007  -4.3778e+006   5.0297e+006    0.2875   -0.0000    0.0000    0.0130    0.0437
                0.1944   5.0666e-003  -8.8243e-004   2.9173e-006   9.6711e+007  -4.3701e+006   1.1524e+004    0.2870   -0.0000    0.0000    0.0130    0.0001
                0.2381   4.9192e-003  -8.5750e-004   1.2800e-003   9.3895e+007  -4.2576e+006   5.0562e+006    0.2786   -0.0000    0.0000    0.0126    0.0440
                0.2826   4.7597e-003  -8.3059e-004   2.5549e-003   9.0849e+007  -4.1371e+006   1.0092e+007    0.2696   -0.0000    0.0000    0.0123    0.0878
                0.3167   4.6121e-003  -8.0569e-004   3.5057e-003   8.8029e+007  -4.0255e+006   1.3848e+007    0.2612   -0.0000    0.0000    0.0119    0.1204

            panel:  3     
           lam_num    nPlies        tPly      fibAng     matID  matName
               (-)       (-)         (m)       (deg)       (-)  (-)
                 1         1    0.004996      0.0000         2  (blade-shell)
                 2         1    0.003245      0.0000         6  (TEP-core)
                 3         1    0.004996      0.0000         2  (blade-shell)

               lamina:  1     
              matName:  (blade-shell)
                     s           e11           e22           e12           s11           s22           s12   s11_fcT   s11_fcC   s22_fcT   s22_fcC   s12_fcS
                   (m)         (m/m)         (m/m)         (rad)          (Pa)          (Pa)          (Pa)       (-)       (-)       (-)       (-)       (-)
                0.0000   6.0954e-003  -7.9674e-004   4.3350e-004   1.1702e+008  -8.4630e+004   1.7123e+006    0.3472   -0.0000    0.0000    0.0003    0.0149
                0.0107   6.0463e-003  -7.9032e-004   3.3183e-004   1.1608e+008  -8.3920e+004   1.3107e+006    0.3444   -0.0000    0.0000    0.0002    0.0114
                0.0562   5.7732e-003  -7.5460e-004   8.9461e-005   1.1084e+008  -7.9767e+004   3.5337e+005    0.3289   -0.0000    0.0000    0.0002    0.0031
                0.1017   5.4999e-003  -7.1886e-004   4.8994e-004   1.0559e+008  -7.5617e+004   1.9353e+006    0.3133   -0.0000    0.0000    0.0002    0.0168
                0.1472   5.1816e-003  -6.7723e-004   8.6825e-004   9.9477e+007  -7.0792e+004   3.4296e+006    0.2952   -0.0000    0.0000    0.0002    0.0298
                0.1925   4.8456e-003  -6.3328e-004   1.2205e-003   9.3026e+007  -6.5679e+004   4.8212e+006    0.2760   -0.0000    0.0000    0.0002    0.0419
                0.2373   4.5121e-003  -5.8967e-004   1.5436e-003   8.6624e+007  -6.0606e+004   6.0974e+006    0.2570   -0.0000    0.0000    0.0002    0.0530
                0.2816   4.1593e-003  -5.4354e-004   1.8373e-003   7.9851e+007  -5.5239e+004   7.2573e+006    0.2369   -0.0000    0.0000    0.0002    0.0631
                0.3250   3.8142e-003  -4.9841e-004   2.1000e-003   7.3227e+007  -4.9975e+004   8.2951e+006    0.2173   -0.0000    0.0000    0.0001    0.0721
                0.3673   3.4831e-003  -4.5510e-004   2.3322e-003   6.6869e+007  -4.4919e+004   9.2124e+006    0.1984   -0.0000    0.0000    0.0001    0.0801
                0.4083   3.1685e-003  -4.1396e-004   2.5352e-003   6.0830e+007  -4.0119e+004   1.0014e+007    0.1805   -0.0000    0.0000    0.0001    0.0871
                0.4480   2.8652e-003  -3.7430e-004   2.7110e-003   5.5008e+007  -3.5476e+004   1.0709e+007    0.1632   -0.0000    0.0000    0.0001    0.0931
                0.4860   2.6069e-003  -3.4051e-004   2.8613e-003   5.0049e+007  -3.1515e+004   1.1302e+007    0.1485   -0.0000    0.0000    0.0001    0.0983
                0.5222   2.3682e-003  -3.0930e-004   2.9895e-003   4.5466e+007  -2.7865e+004   1.1809e+007    0.1349   -0.0000    0.0000    0.0001    0.1027
                0.5566   2.1513e-003  -2.8092e-004   3.0983e-003   4.1301e+007  -2.4528e+004   1.2238e+007    0.1226   -0.0000    0.0000    0.0001    0.1064
                0.5888   1.9925e-003  -2.6015e-004   3.1901e-003   3.8253e+007  -2.2084e+004   1.2601e+007    0.1135   -0.0000    0.0000    0.0001    0.1096
                0.6189   1.8437e-003  -2.4070e-004   3.2682e-003   3.5397e+007  -1.9801e+004   1.2909e+007    0.1050   -0.0000    0.0000    0.0001    0.1123
                0.6468   1.7372e-003  -2.2677e-004   3.3346e-003   3.3353e+007  -1.8153e+004   1.3172e+007    0.0990   -0.0000    0.0000    0.0001    0.1145
                0.6723   1.6657e-003  -2.1741e-004   3.3915e-003   3.1979e+007  -1.7052e+004   1.3397e+007    0.0949   -0.0000    0.0000    0.0001    0.1165
                0.6954   1.6011e-003  -2.0897e-004   3.4408e-003   3.0739e+007  -1.6053e+004   1.3591e+007    0.0912   -0.0000    0.0000    0.0000    0.1182
                0.7160   1.5898e-003  -2.0749e-004   3.4835e-003   3.0522e+007  -1.5871e+004   1.3760e+007    0.0906   -0.0000    0.0000    0.0000    0.1197
                0.7339   1.5847e-003  -2.0682e-004   3.5205e-003   3.0424e+007  -1.5793e+004   1.3906e+007    0.0903   -0.0000    0.0000    0.0000    0.1209
                0.7494   1.5911e-003  -2.0766e-004   3.5525e-003   3.0547e+007  -1.5897e+004   1.4032e+007    0.0906   -0.0000    0.0000    0.0000    0.1220
                0.7622   1.6238e-003  -2.1193e-004   3.5794e-003   3.1174e+007  -1.6410e+004   1.4139e+007    0.0925   -0.0000    0.0000    0.0000    0.1229
                0.7721   1.6491e-003  -2.1524e-004   3.6011e-003   3.1661e+007  -1.6813e+004   1.4224e+007    0.0939   -0.0000    0.0000    0.0000    0.1237
                0.7795   1.6816e-003  -2.1950e-004   3.6175e-003   3.2285e+007  -1.7359e+004   1.4289e+007    0.0958   -0.0000    0.0000    0.0001    0.1243
                0.7840   1.7077e-003  -2.2292e-004   3.6277e-003   3.2786e+007  -1.7792e+004   1.4329e+007    0.0973   -0.0000    0.0000    0.0001    0.1246
                0.7854   1.7169e-003  -2.2412e-004   3.6310e-003   3.2962e+007  -1.7931e+004   1.4342e+007    0.0978   -0.0000    0.0000    0.0001    0.1247

               lamina:  2     
              matName:  (TEP-core)
                     s           e11           e22           e12           s11           s22           s12   s11_fcT   s11_fcC   s22_fcT   s22_fcC   s12_fcS
                   (m)         (m/m)         (m/m)         (rad)          (Pa)          (Pa)          (Pa)       (-)       (-)       (-)       (-)       (-)
                0.0000   5.6639e-003  -7.4062e-004   4.3350e-004   1.2772e+006   2.6594e+005   4.2483e+004    0.2977   -0.0000    0.0620   -0.0000    0.0144
                0.0107   5.6168e-003  -7.3446e-004   3.3183e-004   1.2666e+006   2.6372e+005   3.2520e+004    0.2952   -0.0000    0.0615   -0.0000    0.0110
                0.0562   5.3443e-003  -6.9882e-004   8.9461e-005   1.2051e+006   2.5093e+005   8.7672e+003    0.2809   -0.0000    0.0585   -0.0000    0.0030
                0.1017   5.0718e-003  -6.6320e-004   4.8994e-004   1.1437e+006   2.3814e+005   4.8014e+004    0.2666   -0.0000    0.0555   -0.0000    0.0163
                0.1472   4.7550e-003  -6.2176e-004   8.6825e-004   1.0722e+006   2.2327e+005   8.5088e+004    0.2499   -0.0000    0.0520   -0.0000    0.0288
                0.1925   4.4196e-003  -5.7789e-004   1.2205e-003   9.9659e+005   2.0752e+005   1.1961e+005    0.2323   -0.0000    0.0484   -0.0000    0.0405
                0.2373   4.0867e-003  -5.3436e-004   1.5436e-003   9.2153e+005   1.9189e+005   1.5128e+005    0.2148   -0.0000    0.0447   -0.0000    0.0513
                0.2816   3.7346e-003  -4.8831e-004   1.8373e-003   8.4213e+005   1.7536e+005   1.8005e+005    0.1963   -0.0000    0.0409   -0.0000    0.0610
                0.3250   3.3894e-003  -4.4316e-004   2.1000e-003   7.6429e+005   1.5915e+005   2.0580e+005    0.1782   -0.0000    0.0371   -0.0000    0.0698
                0.3673   3.0579e-003  -3.9981e-004   2.3322e-003   6.8954e+005   1.4359e+005   2.2856e+005    0.1607   -0.0000    0.0335   -0.0000    0.0775
                0.4083   2.7431e-003  -3.5865e-004   2.5352e-003   6.1857e+005   1.2881e+005   2.4845e+005    0.1442   -0.0000    0.0300   -0.0000    0.0842
                0.4480   2.4389e-003  -3.1886e-004   2.7110e-003   5.4997e+005   1.1453e+005   2.6568e+005    0.1282   -0.0000    0.0267   -0.0000    0.0901
                0.4860   2.1794e-003  -2.8492e-004   2.8613e-003   4.9145e+005   1.0235e+005   2.8041e+005    0.1146   -0.0000    0.0239   -0.0000    0.0951
                0.5222   1.9402e-003  -2.5364e-004   2.9895e-003   4.3752e+005   9.1116e+004   2.9297e+005    0.1020   -0.0000    0.0212   -0.0000    0.0993
                0.5566   1.7218e-003  -2.2507e-004   3.0983e-003   3.8826e+005   8.0860e+004   3.0364e+005    0.0905   -0.0000    0.0188   -0.0000    0.1029
                0.5888   1.5618e-003  -2.0415e-004   3.1901e-003   3.5219e+005   7.3350e+004   3.1263e+005    0.0821   -0.0000    0.0171   -0.0000    0.1060
                0.6189   1.4123e-003  -1.8460e-004   3.2682e-003   3.1847e+005   6.6330e+004   3.2028e+005    0.0742   -0.0000    0.0155   -0.0000    0.1086
                0.6468   1.3045e-003  -1.7050e-004   3.3346e-003   2.9417e+005   6.1270e+004   3.2679e+005    0.0686   -0.0000    0.0143   -0.0000    0.1108
                0.6723   1.2325e-003  -1.6108e-004   3.3915e-003   2.7792e+005   5.7887e+004   3.3237e+005    0.0648   -0.0000    0.0135   -0.0000    0.1127
                0.6954   1.1671e-003  -1.5253e-004   3.4408e-003   2.6319e+005   5.4820e+004   3.3720e+005    0.0613   -0.0000    0.0128   -0.0000    0.1143
                0.7160   1.1553e-003  -1.5099e-004   3.4835e-003   2.6053e+005   5.4267e+004   3.4138e+005    0.0607   -0.0000    0.0126   -0.0000    0.1157
                0.7339   1.1502e-003  -1.5032e-004   3.5205e-003   2.5937e+005   5.4026e+004   3.4501e+005    0.0605   -0.0000    0.0126   -0.0000    0.1170
                0.7494   1.1569e-003  -1.5120e-004   3.5525e-003   2.6089e+005   5.4342e+004   3.4814e+005    0.0608   -0.0000    0.0127   -0.0000    0.1180
                0.7622   1.1904e-003  -1.5557e-004   3.5794e-003   2.6843e+005   5.5912e+004   3.5078e+005    0.0626   -0.0000    0.0130   -0.0000    0.1189
                0.7721   1.2166e-003  -1.5900e-004   3.6011e-003   2.7434e+005   5.7143e+004   3.5290e+005    0.0639   -0.0000    0.0133   -0.0000    0.1196
                0.7795   1.2517e-003  -1.6360e-004   3.6175e-003   2.8226e+005   5.8791e+004   3.5452e+005    0.0658   -0.0000    0.0137   -0.0000    0.1202
                0.7840   1.2796e-003  -1.6725e-004   3.6277e-003   2.8856e+005   6.0101e+004   3.5551e+005    0.0673   -0.0000    0.0140   -0.0000    0.1205
                0.7854   1.2888e-003  -1.6845e-004   3.6310e-003   2.9062e+005   6.0532e+004   3.5584e+005    0.0677   -0.0000    0.0141   -0.0000    0.1206

               lamina:  3     
              matName:  (blade-shell)
                     s           e11           e22           e12           s11           s22           s12   s11_fcT   s11_fcC   s22_fcT   s22_fcC   s12_fcS
                   (m)         (m/m)         (m/m)         (rad)          (Pa)          (Pa)          (Pa)       (-)       (-)       (-)       (-)       (-)
                0.0000   5.3835e-003  -7.0417e-004   4.3350e-004   1.0335e+008  -8.4128e+004   1.7123e+006    0.3067   -0.0000    0.0000    0.0002    0.0149
                0.0107   5.3378e-003  -6.9818e-004   3.3183e-004   1.0247e+008  -8.3421e+004   1.3107e+006    0.3041   -0.0000    0.0000    0.0002    0.0114
                0.0562   5.0656e-003  -6.6259e-004   8.9461e-005   9.7250e+007  -7.9268e+004   3.5337e+005    0.2886   -0.0000    0.0000    0.0002    0.0031
                0.1017   4.7938e-003  -6.2704e-004   4.8994e-004   9.2031e+007  -7.5119e+004   1.9353e+006    0.2731   -0.0000    0.0000    0.0002    0.0168
                0.1472   4.4780e-003  -5.8574e-004   8.6825e-004   8.5968e+007  -7.0296e+004   3.4296e+006    0.2551   -0.0000    0.0000    0.0002    0.0298
                0.1925   4.1428e-003  -5.4191e-004   1.2205e-003   7.9534e+007  -6.5183e+004   4.8212e+006    0.2360   -0.0000    0.0000    0.0002    0.0419
                0.2373   3.8104e-003  -4.9843e-004   1.5436e-003   7.3152e+007  -6.0112e+004   6.0974e+006    0.2171   -0.0000    0.0000    0.0002    0.0530
                0.2816   3.4587e-003  -4.5244e-004   1.8373e-003   6.6400e+007  -5.4746e+004   7.2573e+006    0.1970   -0.0000    0.0000    0.0002    0.0631
                0.3250   3.1134e-003  -4.0728e-004   2.1000e-003   5.9771e+007  -4.9481e+004   8.2951e+006    0.1774   -0.0000    0.0000    0.0001    0.0721
                0.3673   2.7817e-003  -3.6389e-004   2.3322e-003   5.3403e+007  -4.4424e+004   9.2124e+006    0.1585   -0.0000    0.0000    0.0001    0.0801
                0.4083   2.4668e-003  -3.2272e-004   2.5352e-003   4.7358e+007  -3.9624e+004   1.0014e+007    0.1405   -0.0000    0.0000    0.0001    0.0871
                0.4480   2.1620e-003  -2.8285e-004   2.7110e-003   4.1506e+007  -3.4980e+004   1.0709e+007    0.1232   -0.0000    0.0000    0.0001    0.0931
                0.4860   1.9017e-003  -2.4881e-004   2.8613e-003   3.6509e+007  -3.1018e+004   1.1302e+007    0.1083   -0.0000    0.0000    0.0001    0.0983
                0.5222   1.6622e-003  -2.1749e-004   2.9895e-003   3.1911e+007  -2.7368e+004   1.1809e+007    0.0947   -0.0000    0.0000    0.0001    0.1027
                0.5566   1.4428e-003  -1.8879e-004   3.0983e-003   2.7699e+007  -2.4029e+004   1.2238e+007    0.0822   -0.0000    0.0000    0.0001    0.1064
                0.5888   1.2821e-003  -1.6777e-004   3.1901e-003   2.4613e+007  -2.1584e+004   1.2601e+007    0.0730   -0.0000    0.0000    0.0001    0.1096
                0.6189   1.1320e-003  -1.4815e-004   3.2682e-003   2.1733e+007  -1.9300e+004   1.2909e+007    0.0645   -0.0000    0.0000    0.0001    0.1123
                0.6468   1.0234e-003  -1.3395e-004   3.3346e-003   1.9648e+007  -1.7650e+004   1.3172e+007    0.0583   -0.0000    0.0000    0.0001    0.1145
                0.6723   9.5104e-004  -1.2448e-004   3.3915e-003   1.8258e+007  -1.6548e+004   1.3397e+007    0.0542   -0.0000    0.0000    0.0000    0.1165
                0.6954   8.8521e-004  -1.1587e-004   3.4408e-003   1.6994e+007  -1.5548e+004   1.3591e+007    0.0504   -0.0000    0.0000    0.0000    0.1182
                0.7160   8.7315e-004  -1.1430e-004   3.4835e-003   1.6762e+007  -1.5366e+004   1.3760e+007    0.0497   -0.0000    0.0000    0.0000    0.1197
                0.7339   8.6800e-004  -1.1362e-004   3.5205e-003   1.6664e+007  -1.5288e+004   1.3906e+007    0.0494   -0.0000    0.0000    0.0000    0.1209
                0.7494   8.7492e-004  -1.1453e-004   3.5525e-003   1.6797e+007  -1.5392e+004   1.4032e+007    0.0498   -0.0000    0.0000    0.0000    0.1220
                0.7622   9.0886e-004  -1.1897e-004   3.5794e-003   1.7448e+007  -1.5906e+004   1.4139e+007    0.0518   -0.0000    0.0000    0.0000    0.1229
                0.7721   9.3566e-004  -1.2247e-004   3.6011e-003   1.7962e+007  -1.6310e+004   1.4224e+007    0.0533   -0.0000    0.0000    0.0000    0.1237
                0.7795   9.7247e-004  -1.2728e-004   3.6175e-003   1.8669e+007  -1.6859e+004   1.4289e+007    0.0554   -0.0000    0.0000    0.0001    0.1243
                0.7840   1.0015e-003  -1.3109e-004   3.6277e-003   1.9227e+007  -1.7294e+004   1.4329e+007    0.0571   -0.0000    0.0000    0.0001    0.1246
                0.7854   1.0107e-003  -1.3228e-004   3.6310e-003   1.9403e+007  -1.7434e+004   1.4342e+007    0.0576   -0.0000    0.0000    0.0001    0.1247

     Web:  panel  nNode   nLam     xc_St    xc_End         b         t         E_eff         G_eff      nu_eff     density  buckleCrit
            (-)    (-)    (-)       (-)       (-)       (m)       (m)          (Pa)          (Pa)         (-)    (kg/m^3)         (-)
              1     10      3    0.2390    0.2390    0.3030    0.0121   6.5707e+009   1.3870e+009      0.1347    691.8994      0.2017
              2     10      3    0.4610    0.4610    0.2816    0.0121   6.5707e+009   1.3870e+009      0.1347    691.8994      0.1845

            panel:  1     
           lam_num    nPlies        tPly      fibAng     matID  matName
               (-)       (-)         (m)       (deg)       (-)  (-)
                 1         1    0.002023      0.0000         7  (web-shell)
                 2         1    0.008047      0.0000         8  (web-core)
                 3         1    0.002023      0.0000         7  (web-shell)

               lamina:  1     
              matName:  (web-shell)
                     s           e11           e22           e12           s11           s22           s12   s11_fcT   s11_fcC   s22_fcT   s22_fcC   s12_fcS
                   (m)         (m/m)         (m/m)         (rad)          (Pa)          (Pa)          (Pa)       (-)       (-)       (-)       (-)       (-)
                0.0000  -5.8173e-003   7.8352e-004   1.3601e-002  -1.1162e+008   5.3274e+005   5.3725e+007    0.0000    0.2246    0.0016   -0.0000    0.4672
                0.0337  -4.5480e-003   6.1257e-004   1.3900e-002  -8.7267e+007   4.1657e+005   5.4905e+007    0.0000    0.1756    0.0012   -0.0000    0.4774
                0.0673  -3.2787e-003   4.4161e-004   1.4126e-002  -6.2912e+007   3.0040e+005   5.5799e+007    0.0000    0.1266    0.0009   -0.0000    0.4852
                0.1010  -2.0094e-003   2.7066e-004   1.4281e-002  -3.8557e+007   1.8423e+005   5.6408e+007    0.0000    0.0776    0.0005   -0.0000    0.4905
                0.1347  -7.4013e-004   9.9702e-005   1.4363e-002  -1.4202e+007   6.8061e+004   5.6732e+007    0.0000    0.0286    0.0002   -0.0000    0.4933
                0.1684   5.3140e-004  -7.1547e-005   1.4372e-002   1.0197e+007  -4.8152e+004   5.6771e+007    0.0303   -0.0000    0.0000    0.0001    0.4937
                0.2020   1.8007e-003  -2.4250e-004   1.4310e-002   3.4552e+007  -1.6432e+005   5.6524e+007    0.1025   -0.0000    0.0000    0.0005    0.4915
                0.2357   3.0700e-003  -4.1346e-004   1.4175e-002   5.8907e+007  -2.8049e+005   5.5993e+007    0.1748   -0.0000    0.0000    0.0008    0.4869
                0.2694   4.3393e-003  -5.8441e-004   1.3969e-002   8.3262e+007  -3.9666e+005   5.5176e+007    0.2471   -0.0000    0.0000    0.0012    0.4798
                0.3030   5.6085e-003  -7.5537e-004   1.3690e-002   1.0762e+008  -5.1283e+005   5.4074e+007    0.3193   -0.0000    0.0000    0.0015    0.4702

               lamina:  2     
              matName:  (web-core)
                     s           e11           e22           e12           s11           s22           s12   s11_fcT   s11_fcC   s22_fcT   s22_fcC   s12_fcS
                   (m)         (m/m)         (m/m)         (rad)          (Pa)          (Pa)          (Pa)       (-)       (-)       (-)       (-)       (-)
                0.0000  -5.8262e-003   7.8470e-004   1.3601e-002  -1.3120e+006  -2.6818e+005   1.3329e+006    0.0000    0.3058    0.0000    0.0625    0.4518
                0.0337  -4.5569e-003   6.1374e-004   1.3900e-002  -1.0262e+006  -2.0975e+005   1.3622e+006    0.0000    0.2392    0.0000    0.0489    0.4618
                0.0673  -3.2876e-003   4.4278e-004   1.4126e-002  -7.4034e+005  -1.5133e+005   1.3844e+006    0.0000    0.1726    0.0000    0.0353    0.4693
                0.1010  -2.0184e-003   2.7183e-004   1.4281e-002  -4.5451e+005  -9.2906e+004   1.3995e+006    0.0000    0.1059    0.0000    0.0217    0.4744
                0.1347  -7.4907e-004   1.0087e-004   1.4363e-002  -1.6868e+005  -3.4482e+004   1.4075e+006    0.0000    0.0393    0.0000    0.0080    0.4771
                0.1684   5.2915e-004  -7.1253e-005   1.4372e-002   1.1916e+005   2.4360e+004   1.4085e+006    0.0278   -0.0000    0.0057   -0.0000    0.4775
                0.2020   1.7984e-003  -2.4221e-004   1.4310e-002   4.0499e+005   8.2783e+004   1.4024e+006    0.0944   -0.0000    0.0193   -0.0000    0.4754
                0.2357   3.0677e-003  -4.1316e-004   1.4175e-002   6.9082e+005   1.4121e+005   1.3892e+006    0.1610   -0.0000    0.0329   -0.0000    0.4709
                0.2694   4.3370e-003  -5.8412e-004   1.3969e-002   9.7665e+005   1.9963e+005   1.3689e+006    0.2277   -0.0000    0.0465   -0.0000    0.4640
                0.3030   5.6063e-003  -7.5508e-004   1.3690e-002   1.2625e+006   2.5805e+005   1.3416e+006    0.2943   -0.0000    0.0602   -0.0000    0.4548

               lamina:  3     
              matName:  (web-shell)
                     s           e11           e22           e12           s11           s22           s12   s11_fcT   s11_fcC   s22_fcT   s22_fcC   s12_fcS
                   (m)         (m/m)         (m/m)         (rad)          (Pa)          (Pa)          (Pa)       (-)       (-)       (-)       (-)       (-)
                0.0000  -5.8285e-003   7.8499e-004   1.3601e-002  -1.1184e+008   5.3296e+005   5.3725e+007    0.0000    0.2250    0.0016   -0.0000    0.4672
                0.0337  -4.5592e-003   6.1403e-004   1.3900e-002  -8.7482e+007   4.1679e+005   5.4905e+007    0.0000    0.1760    0.0012   -0.0000    0.4774
                0.0673  -3.2899e-003   4.4308e-004   1.4126e-002  -6.3127e+007   3.0062e+005   5.5799e+007    0.0000    0.1270    0.0009   -0.0000    0.4852
                0.1010  -2.0206e-003   2.7212e-004   1.4281e-002  -3.8772e+007   1.8445e+005   5.6408e+007    0.0000    0.0780    0.0005   -0.0000    0.4905
                0.1347  -7.5132e-004   1.0117e-004   1.4363e-002  -1.4416e+007   6.8280e+004   5.6732e+007    0.0000    0.0290    0.0002   -0.0000    0.4933
                0.1684   5.2022e-004  -7.0083e-005   1.4372e-002   9.9819e+006  -4.7934e+004   5.6771e+007    0.0296   -0.0000    0.0000    0.0001    0.4937
                0.2020   1.7895e-003  -2.4104e-004   1.4310e-002   3.4337e+007  -1.6410e+005   5.6524e+007    0.1019   -0.0000    0.0000    0.0005    0.4915
                0.2357   3.0588e-003  -4.1199e-004   1.4175e-002   5.8692e+007  -2.8027e+005   5.5993e+007    0.1742   -0.0000    0.0000    0.0008    0.4869
                0.2694   4.3281e-003  -5.8295e-004   1.3969e-002   8.3048e+007  -3.9644e+005   5.5176e+007    0.2464   -0.0000    0.0000    0.0012    0.4798
                0.3030   5.5974e-003  -7.5390e-004   1.3690e-002   1.0740e+008  -5.1261e+005   5.4074e+007    0.3187   -0.0000    0.0000    0.0015    0.4702

            panel:  2     
           lam_num    nPlies        tPly      fibAng     matID  matName
               (-)       (-)         (m)       (deg)       (-)  (-)
                 1         1    0.002023      0.0000         7  (web-shell)
                 2         1    0.008047      0.0000         8  (web-core)
                 3         1    0.002023      0.0000         7  (web-shell)

               lamina:  1     
              matName:  (web-shell)
                     s           e11           e22           e12           s11           s22           s12   s11_fcT   s11_fcC   s22_fcT   s22_fcC   s12_fcS
                   (m)         (m/m)         (m/m)         (rad)          (Pa)          (Pa)          (Pa)       (-)       (-)       (-)       (-)       (-)
                0.0000  -5.4572e-003   7.3503e-004   1.5537e-002  -1.0471e+008   4.9977e+005   6.1373e+007    0.0000    0.2107    0.0015   -0.0000    0.5337
                0.0313  -4.2776e-003   5.7615e-004   1.5794e-002  -8.2079e+007   3.9181e+005   6.2387e+007    0.0000    0.1651    0.0012   -0.0000    0.5425
                0.0626  -3.0980e-003   4.1727e-004   1.5989e-002  -5.9444e+007   2.8385e+005   6.3155e+007    0.0000    0.1196    0.0008   -0.0000    0.5492
                0.0939  -1.9184e-003   2.5840e-004   1.6121e-002  -3.6810e+007   1.7589e+005   6.3677e+007    0.0000    0.0741    0.0005   -0.0000    0.5537
                0.1252  -7.3877e-004   9.9518e-005   1.6191e-002  -1.4176e+007   6.7926e+004   6.3953e+007    0.0000    0.0285    0.0002   -0.0000    0.5561
                0.1565   4.4301e-004  -5.9644e-005   1.6198e-002   8.5006e+006  -4.0078e+004   6.3982e+007    0.0252   -0.0000    0.0000    0.0001    0.5564
                0.1878   1.6226e-003  -2.1852e-004   1.6143e-002   3.1135e+007  -1.4804e+005   6.3765e+007    0.0924   -0.0000    0.0000    0.0004    0.5545
                0.2190   2.8022e-003  -3.7740e-004   1.6026e-002   5.3769e+007  -2.5600e+005   6.3302e+007    0.1596   -0.0000    0.0000    0.0008    0.5505
                0.2503   3.9818e-003  -5.3627e-004   1.5846e-002   7.6404e+007  -3.6396e+005   6.2592e+007    0.2267   -0.0000    0.0000    0.0011    0.5443
                0.2816   5.1614e-003  -6.9515e-004   1.5604e-002   9.9038e+007  -4.7193e+005   6.1636e+007    0.2939   -0.0000    0.0000    0.0014    0.5360

               lamina:  2     
              matName:  (web-core)
                     s           e11           e22           e12           s11           s22           s12   s11_fcT   s11_fcC   s22_fcT   s22_fcC   s12_fcS
                   (m)         (m/m)         (m/m)         (rad)          (Pa)          (Pa)          (Pa)       (-)       (-)       (-)       (-)       (-)
                0.0000  -5.4659e-003   7.3616e-004   1.5537e-002  -1.2309e+006  -2.5159e+005   1.5227e+006    0.0000    0.2869    0.0000    0.0586    0.5162
                0.0313  -4.2862e-003   5.7728e-004   1.5794e-002  -9.6522e+005  -1.9729e+005   1.5478e+006    0.0000    0.2250    0.0000    0.0460    0.5247
                0.0626  -3.1066e-003   4.1841e-004   1.5989e-002  -6.9958e+005  -1.4300e+005   1.5669e+006    0.0000    0.1631    0.0000    0.0333    0.5312
                0.0939  -1.9270e-003   2.5953e-004   1.6121e-002  -4.3395e+005  -8.8702e+004   1.5798e+006    0.0000    0.1012    0.0000    0.0207    0.5355
                0.1252  -7.4742e-004   1.0065e-004   1.6191e-002  -1.6831e+005  -3.4406e+004   1.5867e+006    0.0000    0.0392    0.0000    0.0080    0.5379
                0.1565   4.4084e-004  -5.9359e-005   1.6198e-002   9.9273e+004   2.0295e+004   1.5874e+006    0.0231   -0.0000    0.0047   -0.0000    0.5381
                0.1878   1.6204e-003  -2.1824e-004   1.6143e-002   3.6491e+005   7.4590e+004   1.5820e+006    0.0851   -0.0000    0.0174   -0.0000    0.5363
                0.2190   2.8001e-003  -3.7711e-004   1.6026e-002   6.3054e+005   1.2889e+005   1.5705e+006    0.1470   -0.0000    0.0300   -0.0000    0.5324
                0.2503   3.9797e-003  -5.3599e-004   1.5846e-002   8.9618e+005   1.8318e+005   1.5529e+006    0.2089   -0.0000    0.0427   -0.0000    0.5264
                0.2816   5.1593e-003  -6.9487e-004   1.5604e-002   1.1618e+006   2.3748e+005   1.5292e+006    0.2708   -0.0000    0.0554   -0.0000    0.5184

               lamina:  3     
              matName:  (web-shell)
                     s           e11           e22           e12           s11           s22           s12   s11_fcT   s11_fcC   s22_fcT   s22_fcC   s12_fcS
                   (m)         (m/m)         (m/m)         (rad)          (Pa)          (Pa)          (Pa)       (-)       (-)       (-)       (-)       (-)
                0.0000  -5.4680e-003   7.3644e-004   1.5537e-002  -1.0492e+008   4.9999e+005   6.1373e+007    0.0000    0.2111    0.0015   -0.0000    0.5337
                0.0313  -4.2884e-003   5.7757e-004   1.5794e-002  -8.2287e+007   3.9202e+005   6.2387e+007    0.0000    0.1656    0.0012   -0.0000    0.5425
                0.0626  -3.1088e-003   4.1869e-004   1.5989e-002  -5.9652e+007   2.8406e+005   6.3155e+007    0.0000    0.1200    0.0008   -0.0000    0.5492
                0.0939  -1.9292e-003   2.5981e-004   1.6121e-002  -3.7018e+007   1.7610e+005   6.3677e+007    0.0000    0.0745    0.0005   -0.0000    0.5537
                0.1252  -7.4960e-004   1.0094e-004   1.6191e-002  -1.4383e+007   6.8138e+004   6.3953e+007    0.0000    0.0289    0.0002   -0.0000    0.5561
                0.1565   4.3218e-004  -5.8225e-005   1.6198e-002   8.2927e+006  -3.9866e+004   6.3982e+007    0.0246   -0.0000    0.0000    0.0001    0.5564
                0.1878   1.6118e-003  -2.1710e-004   1.6143e-002   3.0927e+007  -1.4783e+005   6.3765e+007    0.0918   -0.0000    0.0000    0.0004    0.5545
                0.2190   2.7914e-003  -3.7598e-004   1.6026e-002   5.3562e+007  -2.5579e+005   6.3302e+007    0.1589   -0.0000    0.0000    0.0008    0.5505
                0.2503   3.9710e-003  -5.3486e-004   1.5846e-002   7.6196e+007  -3.6375e+005   6.2592e+007    0.2261   -0.0000    0.0000    0.0011    0.5443
                0.2816   5.1506e-003  -6.9373e-004   1.5604e-002   9.8830e+007  -4.7171e+005   6.1636e+007    0.2933   -0.0000    0.0000    0.0014    0.5360

================================================================================
sec        =  14     
zSec       =  3.8970  (m)
nPanelsTop =  3      
nPanelsBot =  3      
nWebs      =  2      

    Top:  panel  nNode   nLam     xc_St    xc_End         b         t         E_eff         G_eff      nu_eff     density  buckleCrit
            (-)    (-)    (-)       (-)       (-)       (m)       (m)          (Pa)          (Pa)         (-)    (kg/m^3)         (-)
              1     18      3    0.0000    0.2387    0.3859    0.0099   1.8745e+010   3.8576e+009      0.1301   1634.7555      0.3042
              2      9      5    0.2387    0.4613    0.3078    0.0157   5.9129e+010   4.2307e+009      0.1677   1588.7306      0.4213
              3     28      3    0.4613    1.0000    0.7676    0.0127   1.4624e+010   3.0214e+009      0.1308   1315.6259      0.8330

            panel:  1     
           lam_num    nPlies        tPly      fibAng     matID  matName
               (-)       (-)         (m)       (deg)       (-)  (-)
                 1         1    0.004815      0.0000         2  (blade-shell)
                 2         1    0.000237      0.0000         5  (LEP-core)
                 3         1    0.004815      0.0000         2  (blade-shell)

               lamina:  1     
              matName:  (blade-shell)
                     s           e11           e22           e12           s11           s22           s12   s11_fcT   s11_fcC   s22_fcT   s22_fcC   s12_fcS
                   (m)         (m/m)         (m/m)         (rad)          (Pa)          (Pa)          (Pa)       (-)       (-)       (-)       (-)       (-)
                0.0000   4.5651e-004  -5.9374e-005   6.8748e-003   8.7650e+006  -5.3353e+002   2.7155e+007    0.0260   -0.0000    0.0000    0.0000    0.2361
                0.0044   2.9551e-004  -3.8435e-005   6.8768e-003   5.6738e+006  -3.4718e+002   2.7163e+007    0.0168   -0.0000    0.0000    0.0000    0.2362
                0.0173  -3.8675e-004   5.0287e-005   6.8752e-003  -7.4255e+006   1.9968e+002   2.7157e+007    0.0000    0.0149    0.0000   -0.0000    0.2361
                0.0332  -1.0396e-003   1.3519e-004   6.8579e-003  -1.9961e+007   8.5069e+002   2.7089e+007    0.0000    0.0402    0.0000   -0.0000    0.2356
                0.0469  -1.5037e-003   1.9555e-004   6.8311e-003  -2.8871e+007   1.3047e+003   2.6983e+007    0.0000    0.0581    0.0000   -0.0000    0.2346
                0.0650  -2.0581e-003   2.6765e-004   6.7804e-003  -3.9515e+007   1.9089e+003   2.6783e+007    0.0000    0.0795    0.0000   -0.0000    0.2329
                0.0836  -2.5521e-003   3.3190e-004   6.7113e-003  -4.9000e+007   2.4343e+003   2.6510e+007    0.0000    0.0986    0.0000   -0.0000    0.2305
                0.1049  -3.0400e-003   3.9535e-004   6.6146e-003  -5.8367e+007   2.9841e+003   2.6128e+007    0.0000    0.1174    0.0000   -0.0000    0.2272
                0.1286  -3.5848e-003   4.6621e-004   6.4847e-003  -6.8828e+007   3.5852e+003   2.5614e+007    0.0000    0.1385    0.0000   -0.0000    0.2227
                0.1530  -4.0102e-003   5.2153e-004   6.3308e-003  -7.6994e+007   4.0547e+003   2.5007e+007    0.0000    0.1549    0.0000   -0.0000    0.2174
                0.1802  -4.4702e-003   5.8136e-004   6.1379e-003  -8.5826e+007   4.5790e+003   2.4245e+007    0.0000    0.1727    0.0000   -0.0000    0.2108
                0.2089  -4.9012e-003   6.3742e-004   5.9114e-003  -9.4103e+007   5.0628e+003   2.3350e+007    0.0000    0.1893    0.0000   -0.0000    0.2030
                0.2392  -5.2757e-003   6.8612e-004   5.6502e-003  -1.0129e+008   5.4894e+003   2.2318e+007    0.0000    0.2038    0.0000   -0.0000    0.1941
                0.2716  -5.6768e-003   7.3829e-004   5.3490e-003  -1.0899e+008   5.9450e+003   2.1128e+007    0.0000    0.2193    0.0000   -0.0000    0.1837
                0.3050  -5.9762e-003   7.7723e-004   5.0175e-003  -1.1474e+008   6.2832e+003   1.9819e+007    0.0000    0.2309    0.0000   -0.0000    0.1723
                0.3403  -6.2640e-003   8.1466e-004   4.6497e-003  -1.2027e+008   6.6136e+003   1.8366e+007    0.0000    0.2420    0.0000   -0.0000    0.1597
                0.3769  -6.5343e-003   8.4981e-004   4.2486e-003  -1.2546e+008   6.9233e+003   1.6782e+007    0.0000    0.2524    0.0000   -0.0000    0.1459
                0.3859  -6.5769e-003   8.5536e-004   4.1483e-003  -1.2628e+008   6.9669e+003   1.6386e+007    0.0000    0.2541    0.0000   -0.0000    0.1425

               lamina:  2     
              matName:  (LEP-core)
                     s           e11           e22           e12           s11           s22           s12   s11_fcT   s11_fcC   s22_fcT   s22_fcC   s12_fcS
                   (m)         (m/m)         (m/m)         (rad)          (Pa)          (Pa)          (Pa)       (-)       (-)       (-)       (-)       (-)
                0.0000   4.6538e-004  -6.0527e-005   6.8748e-003   1.0497e+005   2.1928e+004   6.7373e+005    0.0245   -0.0000    0.0051   -0.0000    0.2284
                0.0044   3.0439e-004  -3.9588e-005   6.8768e-003   6.8654e+004   1.4342e+004   6.7393e+005    0.0160   -0.0000    0.0033   -0.0000    0.2285
                0.0173  -1.7754e-004   2.3090e-005   6.8752e-003  -4.0043e+004  -8.3654e+003   6.7377e+005    0.0000    0.0093    0.0000    0.0019    0.2284
                0.0332  -7.4210e-004   9.6516e-005   6.8579e-003  -1.6738e+005  -3.4967e+004   6.7208e+005    0.0000    0.0390    0.0000    0.0082    0.2278
                0.0469  -1.1361e-003   1.4776e-004   6.8311e-003  -2.5624e+005  -5.3530e+004   6.6945e+005    0.0000    0.0597    0.0000    0.0125    0.2269
                0.0650  -1.6588e-003   2.1574e-004   6.7804e-003  -3.7414e+005  -7.8161e+004   6.6448e+005    0.0000    0.0872    0.0000    0.0182    0.2252
                0.0836  -2.1136e-003   2.7489e-004   6.7113e-003  -4.7672e+005  -9.9591e+004   6.5771e+005    0.0000    0.1111    0.0000    0.0232    0.2230
                0.1049  -2.5890e-003   3.3672e-004   6.6146e-003  -5.8394e+005  -1.2199e+005   6.4823e+005    0.0000    0.1361    0.0000    0.0284    0.2197
                0.1286  -3.1089e-003   4.0434e-004   6.4847e-003  -7.0120e+005  -1.4649e+005   6.3550e+005    0.0000    0.1635    0.0000    0.0341    0.2154
                0.1530  -3.5150e-003   4.5716e-004   6.3308e-003  -7.9281e+005  -1.6562e+005   6.2042e+005    0.0000    0.1848    0.0000    0.0386    0.2103
                0.1802  -3.9681e-003   5.1609e-004   6.1379e-003  -8.9501e+005  -1.8697e+005   6.0151e+005    0.0000    0.2086    0.0000    0.0436    0.2039
                0.2089  -4.3864e-003   5.7049e-004   5.9114e-003  -9.8935e+005  -2.0668e+005   5.7931e+005    0.0000    0.2306    0.0000    0.0482    0.1964
                0.2392  -4.7551e-003   6.1844e-004   5.6502e-003  -1.0725e+006  -2.2405e+005   5.5372e+005    0.0000    0.2500    0.0000    0.0522    0.1877
                0.2716  -5.1489e-003   6.6966e-004   5.3490e-003  -1.1613e+006  -2.4261e+005   5.2420e+005    0.0000    0.2707    0.0000    0.0566    0.1777
                0.3050  -5.4412e-003   7.0768e-004   5.0175e-003  -1.2273e+006  -2.5638e+005   4.9172e+005    0.0000    0.2861    0.0000    0.0598    0.1667
                0.3403  -5.7268e-003   7.4482e-004   4.6497e-003  -1.2917e+006  -2.6984e+005   4.5567e+005    0.0000    0.3011    0.0000    0.0629    0.1545
                0.3769  -5.9944e-003   7.7963e-004   4.2486e-003  -1.3520e+006  -2.8245e+005   4.1637e+005    0.0000    0.3152    0.0000    0.0658    0.1411
                0.3859  -6.0321e-003   7.8453e-004   4.1483e-003  -1.3605e+006  -2.8423e+005   4.0654e+005    0.0000    0.3171    0.0000    0.0663    0.1378

               lamina:  3     
              matName:  (blade-shell)
                     s           e11           e22           e12           s11           s22           s12   s11_fcT   s11_fcC   s22_fcT   s22_fcC   s12_fcS
                   (m)         (m/m)         (m/m)         (rad)          (Pa)          (Pa)          (Pa)       (-)       (-)       (-)       (-)       (-)
                0.0000   6.4598e-004  -8.4004e-005   6.8748e-003   1.2403e+007  -5.3365e+002   2.7155e+007    0.0368   -0.0000    0.0000    0.0000    0.2361
                0.0044   4.8498e-004  -6.3065e-005   6.8768e-003   9.3115e+006  -3.4730e+002   2.7163e+007    0.0276   -0.0000    0.0000    0.0000    0.2362
                0.0173  -1.6726e-004   2.1754e-005   6.8752e-003  -3.2113e+006   1.9954e+002   2.7157e+007    0.0000    0.0065    0.0000   -0.0000    0.2361
                0.0332  -7.2748e-004   9.4616e-005   6.8579e-003  -1.3968e+007   8.5049e+002   2.7089e+007    0.0000    0.0281    0.0000   -0.0000    0.2356
                0.0469  -1.1180e-003   1.4541e-004   6.8311e-003  -2.1465e+007   1.3045e+003   2.6983e+007    0.0000    0.0432    0.0000   -0.0000    0.2346
                0.0650  -1.6392e-003   2.1319e-004   6.7804e-003  -3.1472e+007   1.9087e+003   2.6783e+007    0.0000    0.0633    0.0000   -0.0000    0.2329
                0.0836  -2.0921e-003   2.7209e-004   6.7113e-003  -4.0167e+007   2.4340e+003   2.6510e+007    0.0000    0.0808    0.0000   -0.0000    0.2305
                0.1049  -2.5668e-003   3.3384e-004   6.6146e-003  -4.9282e+007   2.9838e+003   2.6128e+007    0.0000    0.0992    0.0000   -0.0000    0.2272
                0.1286  -3.0855e-003   4.0130e-004   6.4847e-003  -5.9241e+007   3.5849e+003   2.5614e+007    0.0000    0.1192    0.0000   -0.0000    0.2227
                0.1530  -3.4907e-003   4.5400e-004   6.3308e-003  -6.7020e+007   4.0544e+003   2.5007e+007    0.0000    0.1348    0.0000   -0.0000    0.2174
                0.1802  -3.9434e-003   5.1288e-004   6.1379e-003  -7.5714e+007   4.5787e+003   2.4245e+007    0.0000    0.1523    0.0000   -0.0000    0.2108
                0.2089  -4.3611e-003   5.6721e-004   5.9114e-003  -8.3733e+007   5.0625e+003   2.3350e+007    0.0000    0.1685    0.0000   -0.0000    0.2030
                0.2392  -4.7295e-003   6.1511e-004   5.6502e-003  -9.0805e+007   5.4890e+003   2.2318e+007    0.0000    0.1827    0.0000   -0.0000    0.1941
                0.2716  -5.1229e-003   6.6628e-004   5.3490e-003  -9.8359e+007   5.9446e+003   2.1128e+007    0.0000    0.1979    0.0000   -0.0000    0.1837
                0.3050  -5.4149e-003   7.0426e-004   5.0175e-003  -1.0397e+008   6.2828e+003   1.9819e+007    0.0000    0.2092    0.0000   -0.0000    0.1723
                0.3403  -5.7004e-003   7.4139e-004   4.6497e-003  -1.0945e+008   6.6132e+003   1.8366e+007    0.0000    0.2202    0.0000   -0.0000    0.1597
                0.3769  -5.9679e-003   7.7618e-004   4.2486e-003  -1.1458e+008   6.9230e+003   1.6782e+007    0.0000    0.2305    0.0000   -0.0000    0.1459
                0.3859  -6.0054e-003   7.8106e-004   4.1483e-003  -1.1530e+008   6.9665e+003   1.6386e+007    0.0000    0.2320    0.0000   -0.0000    0.1425

            panel:  2     
           lam_num    nPlies        tPly      fibAng     matID  matName
               (-)       (-)         (m)       (deg)       (-)  (-)
                 1         1    0.004815      0.0000         2  (blade-shell)
                 2         1    0.003022      0.0000         3  (spar-uni)
                 3         1    0.000047      0.0000         4  (spar-core)
                 4         1    0.003022      0.0000         3  (spar-uni)
                 5         1    0.004815      0.0000         2  (blade-shell)

               lamina:  1     
              matName:  (blade-shell)
                     s           e11           e22           e12           s11           s22           s12   s11_fcT   s11_fcC   s22_fcT   s22_fcC   s12_fcS
                   (m)         (m/m)         (m/m)         (rad)          (Pa)          (Pa)          (Pa)       (-)       (-)       (-)       (-)       (-)
                0.0000  -8.0387e-003   1.2776e-003   5.7998e-003  -1.5375e+008   4.5431e+006   2.2909e+007    0.0000    0.3094    0.0135   -0.0000    0.1992
                0.0285  -8.1598e-003   1.2980e-003   4.8859e-003  -1.5607e+008   4.6323e+006   1.9299e+007    0.0000    0.3140    0.0137   -0.0000    0.1678
                0.0674  -8.3314e-003   1.3265e-003   3.6126e-003  -1.5934e+008   4.7546e+006   1.4270e+007    0.0000    0.3206    0.0141   -0.0000    0.1241
                0.1070  -8.4088e-003   1.3393e-003   2.2916e-003  -1.6082e+008   4.8079e+006   9.0519e+006    0.0000    0.3236    0.0143   -0.0000    0.0787
                0.1478  -8.4109e-003   1.3397e-003   9.2540e-004  -1.6086e+008   4.8091e+006   3.6553e+006    0.0000    0.3237    0.0143   -0.0000    0.0318
                0.1892  -8.4104e-003   1.3397e-003   4.6033e-004  -1.6086e+008   4.8104e+006   1.8183e+006    0.0000    0.3237    0.0143   -0.0000    0.0158
                0.2314  -8.2426e-003   1.3118e-003   1.8526e-003  -1.5765e+008   4.6920e+006   7.3177e+006    0.0000    0.3172    0.0139   -0.0000    0.0636
                0.2745  -8.0680e-003   1.2826e-003   3.2320e-003  -1.5431e+008   4.5654e+006   1.2766e+007    0.0000    0.3105    0.0135   -0.0000    0.1110
                0.3078  -7.8991e-003   1.2544e-003   4.2674e-003  -1.5109e+008   4.4433e+006   1.6856e+007    0.0000    0.3040    0.0132   -0.0000    0.1466

               lamina:  2     
              matName:  (spar-uni)
                     s           e11           e22           e12           s11           s22           s12   s11_fcT   s11_fcC   s22_fcT   s22_fcC   s12_fcS
                   (m)         (m/m)         (m/m)         (rad)          (Pa)          (Pa)          (Pa)       (-)       (-)       (-)       (-)       (-)
                0.0000  -6.7320e-003   1.1018e-003   5.7998e-003  -8.3056e+008  -8.1301e+006   2.7317e+007    0.0000    0.8306    0.0000    0.1357    0.2652
                0.0285  -6.8532e-003   1.1221e-003   4.8859e-003  -8.4550e+008  -8.2723e+006   2.3013e+007    0.0000    0.8455    0.0000    0.1381    0.2234
                0.0674  -7.0208e-003   1.1502e-003   3.6126e-003  -8.6619e+008  -8.4698e+006   1.7016e+007    0.0000    0.8662    0.0000    0.1414    0.1652
                0.1070  -7.0946e-003   1.1625e-003   2.2916e-003  -8.7529e+008  -8.5572e+006   1.0794e+007    0.0000    0.8753    0.0000    0.1429    0.1048
                0.1478  -7.0964e-003   1.1628e-003   9.2540e-004  -8.7551e+008  -8.5593e+006   4.3586e+006    0.0000    0.8755    0.0000    0.1429    0.0423
                0.1892  -7.0975e-003   1.1630e-003   4.6033e-004  -8.7565e+008  -8.5603e+006   2.1681e+006    0.0000    0.8756    0.0000    0.1429    0.0210
                0.2314  -6.9346e-003   1.1358e-003   1.8526e-003  -8.5555e+008  -8.3682e+006   8.7257e+006    0.0000    0.8556    0.0000    0.1397    0.0847
                0.2745  -6.7620e-003   1.1068e-003   3.2320e-003  -8.3426e+008  -8.1652e+006   1.5223e+007    0.0000    0.8343    0.0000    0.1363    0.1478
                0.3078  -6.5954e-003   1.0789e-003   4.2674e-003  -8.1370e+008  -7.9692e+006   2.0099e+007    0.0000    0.8137    0.0000    0.1330    0.1951

               lamina:  3     
              matName:  (spar-core)
                     s           e11           e22           e12           s11           s22           s12   s11_fcT   s11_fcC   s22_fcT   s22_fcC   s12_fcS
                   (m)         (m/m)         (m/m)         (rad)          (Pa)          (Pa)          (Pa)       (-)       (-)       (-)       (-)       (-)
                0.0000  -5.9121e-003   9.9145e-004   5.7998e-003  -1.3162e+006  -2.2612e+005   5.6838e+005    0.0000    0.3068    0.0000    0.0527    0.1927
                0.0285  -6.0332e-003   1.0118e-003   4.8859e-003  -1.3431e+006  -2.3076e+005   4.7882e+005    0.0000    0.3131    0.0000    0.0538    0.1623
                0.0674  -6.1984e-003   1.0395e-003   3.6126e-003  -1.3799e+006  -2.3707e+005   3.5404e+005    0.0000    0.3217    0.0000    0.0553    0.1200
                0.1070  -6.2699e-003   1.0515e-003   2.2916e-003  -1.3958e+006  -2.3981e+005   2.2458e+005    0.0000    0.3254    0.0000    0.0559    0.0761
                0.1478  -6.2715e-003   1.0517e-003   9.2540e-004  -1.3962e+006  -2.3987e+005   9.0689e+004    0.0000    0.3254    0.0000    0.0559    0.0307
                0.1892  -6.2735e-003   1.0521e-003   4.6033e-004  -1.3966e+006  -2.3995e+005   4.5112e+004    0.0000    0.3256    0.0000    0.0559    0.0153
                0.2314  -6.1138e-003   1.0253e-003   1.8526e-003  -1.3611e+006  -2.3384e+005   1.8155e+005    0.0000    0.3173    0.0000    0.0545    0.0615
                0.2745  -5.9424e-003   9.9655e-004   3.2320e-003  -1.3229e+006  -2.2729e+005   3.1674e+005    0.0000    0.3084    0.0000    0.0530    0.1074
                0.3078  -5.7772e-003   9.6884e-004   4.2674e-003  -1.2861e+006  -2.2097e+005   4.1820e+005    0.0000    0.2998    0.0000    0.0515    0.1418

               lamina:  4     
              matName:  (spar-uni)
                     s           e11           e22           e12           s11           s22           s12   s11_fcT   s11_fcC   s22_fcT   s22_fcC   s12_fcS
                   (m)         (m/m)         (m/m)         (rad)          (Pa)          (Pa)          (Pa)       (-)       (-)       (-)       (-)       (-)
                0.0000  -5.8993e-003   9.8974e-004   5.7998e-003  -7.2776e+008  -6.9246e+006   2.7317e+007    0.0000    0.7278    0.0000    0.1156    0.2652
                0.0285  -6.0205e-003   1.0101e-003   4.8859e-003  -7.4271e+008  -7.0668e+006   2.3013e+007    0.0000    0.7427    0.0000    0.1180    0.2234
                0.0674  -6.1856e-003   1.0378e-003   3.6126e-003  -7.6308e+008  -7.2607e+006   1.7016e+007    0.0000    0.7631    0.0000    0.1212    0.1652
                0.1070  -6.2572e-003   1.0498e-003   2.2916e-003  -7.7191e+008  -7.3447e+006   1.0794e+007    0.0000    0.7719    0.0000    0.1226    0.1048
                0.1478  -6.2587e-003   1.0500e-003   9.2540e-004  -7.7210e+008  -7.3465e+006   4.3586e+006    0.0000    0.7721    0.0000    0.1226    0.0423
                0.1892  -6.2608e-003   1.0504e-003   4.6033e-004  -7.7235e+008  -7.3489e+006   2.1681e+006    0.0000    0.7724    0.0000    0.1227    0.0210
                0.2314  -6.1011e-003   1.0236e-003   1.8526e-003  -7.5266e+008  -7.1615e+006   8.7257e+006    0.0000    0.7527    0.0000    0.1196    0.0847
                0.2745  -5.9297e-003   9.9484e-004   3.2320e-003  -7.3151e+008  -6.9602e+006   1.5223e+007    0.0000    0.7315    0.0000    0.1162    0.1478
                0.3078  -5.7645e-003   9.6713e-004   4.2674e-003  -7.1113e+008  -6.7663e+006   2.0099e+007    0.0000    0.7111    0.0000    0.1130    0.1951

               lamina:  5     
              matName:  (blade-shell)
                     s           e11           e22           e12           s11           s22           s12   s11_fcT   s11_fcC   s22_fcT   s22_fcC   s12_fcS
                   (m)         (m/m)         (m/m)         (rad)          (Pa)          (Pa)          (Pa)       (-)       (-)       (-)       (-)       (-)
                0.0000  -5.0794e-003   8.7939e-004   5.7998e-003  -9.6967e+007   4.2786e+006   2.2909e+007    0.0000    0.1951    0.0127   -0.0000    0.1992
                0.0285  -5.2005e-003   8.9971e-004   4.8859e-003  -9.9281e+007   4.3678e+006   1.9299e+007    0.0000    0.1998    0.0130   -0.0000    0.1678
                0.0674  -5.3632e-003   9.2708e-004   3.6126e-003  -1.0239e+008   4.4894e+006   1.4270e+007    0.0000    0.2060    0.0133   -0.0000    0.1241
                0.1070  -5.4325e-003   9.3878e-004   2.2916e-003  -1.0371e+008   4.5419e+006   9.0519e+006    0.0000    0.2087    0.0135   -0.0000    0.0787
                0.1478  -5.4338e-003   9.3901e-004   9.2540e-004  -1.0374e+008   4.5430e+006   3.6553e+006    0.0000    0.2087    0.0135   -0.0000    0.0318
                0.1892  -5.4368e-003   9.3948e-004   4.6033e-004  -1.0380e+008   4.5446e+006   1.8183e+006    0.0000    0.2088    0.0135   -0.0000    0.0158
                0.2314  -5.2803e-003   9.1313e-004   1.8526e-003  -1.0081e+008   4.4272e+006   7.3177e+006    0.0000    0.2028    0.0131   -0.0000    0.0636
                0.2745  -5.1101e-003   8.8454e-004   3.2320e-003  -9.7555e+007   4.3010e+006   1.2766e+007    0.0000    0.1963    0.0128   -0.0000    0.1110
                0.3078  -4.9463e-003   8.5702e-004   4.2674e-003  -9.4426e+007   4.1794e+006   1.6856e+007    0.0000    0.1900    0.0124   -0.0000    0.1466

            panel:  3     
           lam_num    nPlies        tPly      fibAng     matID  matName
               (-)       (-)         (m)       (deg)       (-)  (-)
                 1         1    0.004815      0.0000         2  (blade-shell)
                 2         1    0.003059      0.0000         6  (TEP-core)
                 3         1    0.004815      0.0000         2  (blade-shell)

               lamina:  1     
              matName:  (blade-shell)
                     s           e11           e22           e12           s11           s22           s12   s11_fcT   s11_fcC   s22_fcT   s22_fcC   s12_fcS
                   (m)         (m/m)         (m/m)         (rad)          (Pa)          (Pa)          (Pa)       (-)       (-)       (-)       (-)       (-)
                0.0000  -6.3959e-003   8.3594e-004   6.2577e-004  -1.2279e+008   8.7319e+004   2.4718e+006    0.0000    0.2471    0.0003   -0.0000    0.0215
                0.0099  -6.3431e-003   8.2904e-004   7.3171e-004  -1.2178e+008   8.6586e+004   2.8902e+006    0.0000    0.2450    0.0003   -0.0000    0.0251
                0.0540  -6.0318e-003   7.8833e-004   1.1867e-003  -1.1580e+008   8.1957e+004   4.6874e+006    0.0000    0.2330    0.0002   -0.0000    0.0408
                0.0979  -5.7198e-003   7.4754e-004   1.6151e-003  -1.0981e+008   7.7335e+004   6.3796e+006    0.0000    0.2209    0.0002   -0.0000    0.0555
                0.1420  -5.3395e-003   6.9781e-004   2.0157e-003  -1.0251e+008   7.1714e+004   7.9620e+006    0.0000    0.2063    0.0002   -0.0000    0.0692
                0.1860  -4.9320e-003   6.4452e-004   2.3832e-003  -9.4685e+007   6.5654e+004   9.4136e+006    0.0000    0.1905    0.0002   -0.0000    0.0819
                0.2295  -4.5251e-003   5.9131e-004   2.7128e-003  -8.6874e+007   5.9623e+004   1.0716e+007    0.0000    0.1748    0.0002   -0.0000    0.0932
                0.2726  -4.0638e-003   5.3100e-004   3.0049e-003  -7.8019e+007   5.2782e+004   1.1869e+007    0.0000    0.1570    0.0002   -0.0000    0.1032
                0.3149  -3.6131e-003   4.7206e-004   3.2555e-003  -6.9366e+007   4.6067e+004   1.2859e+007    0.0000    0.1396    0.0001   -0.0000    0.1118
                0.3563  -3.1615e-003   4.1301e-004   3.4652e-003  -6.0696e+007   3.9351e+004   1.3688e+007    0.0000    0.1221    0.0001   -0.0000    0.1190
                0.3966  -2.7078e-003   3.5369e-004   3.6353e-003  -5.1986e+007   3.2596e+004   1.4359e+007    0.0000    0.1046    0.0001   -0.0000    0.1249
                0.4355  -2.2700e-003   2.9644e-004   3.7671e-003  -4.3581e+007   2.6065e+004   1.4880e+007    0.0000    0.0877    0.0001   -0.0000    0.1294
                0.4729  -1.8513e-003   2.4169e-004   3.8636e-003  -3.5543e+007   1.9818e+004   1.5261e+007    0.0000    0.0715    0.0001   -0.0000    0.1327
                0.5086  -1.4519e-003   1.8945e-004   3.9283e-003  -2.7874e+007   1.3858e+004   1.5517e+007    0.0000    0.0561    0.0000   -0.0000    0.1349
                0.5426  -1.0763e-003   1.4034e-004   3.9651e-003  -2.0664e+007   8.2397e+003   1.5662e+007    0.0000    0.0416    0.0000   -0.0000    0.1362
                0.5744  -7.3820e-004   9.6130e-005   3.9781e-003  -1.4173e+007   3.1825e+003   1.5713e+007    0.0000    0.0285    0.0000   -0.0000    0.1366
                0.6043  -4.2192e-004   5.4771e-005   3.9719e-003  -8.1011e+006  -1.8262e+003   1.5689e+007    0.0000    0.0163    0.0000    0.0000    0.1364
                0.6318   2.7725e-004  -3.6351e-005   3.9506e-003   5.3224e+006  -6.0304e+003   1.5605e+007    0.0158   -0.0000    0.0000    0.0000    0.1357
                0.6571   5.2466e-004  -6.8703e-005   3.9185e-003   1.0072e+007  -9.7231e+003   1.5478e+007    0.0299   -0.0000    0.0000    0.0000    0.1346
                0.6799   7.4885e-004  -9.8019e-005   3.8793e-003   1.4376e+007  -1.3072e+004   1.5323e+007    0.0427   -0.0000    0.0000    0.0000    0.1332
                0.7002   9.3204e-004  -1.2197e-004   3.8366e-003   1.7893e+007  -1.5809e+004   1.5155e+007    0.0531   -0.0000    0.0000    0.0000    0.1318
                0.7179   1.0903e-003  -1.4266e-004   3.7937e-003   2.0931e+007  -1.8170e+004   1.4985e+007    0.0621   -0.0000    0.0000    0.0001    0.1303
                0.7331   1.2231e-003  -1.6004e-004   3.7529e-003   2.3482e+007  -2.0155e+004   1.4824e+007    0.0697   -0.0000    0.0000    0.0001    0.1289
                0.7455   1.3271e-003  -1.7364e-004   3.7165e-003   2.5478e+007  -2.1709e+004   1.4680e+007    0.0756   -0.0000    0.0000    0.0001    0.1277
                0.7551   1.4082e-003  -1.8424e-004   3.6866e-003   2.7035e+007  -2.2917e+004   1.4562e+007    0.0802   -0.0000    0.0000    0.0001    0.1266
                0.7621   1.4688e-003  -1.9216e-004   3.6643e-003   2.8197e+007  -2.3817e+004   1.4474e+007    0.0837   -0.0000    0.0000    0.0001    0.1259
                0.7662   1.5063e-003  -1.9707e-004   3.6504e-003   2.8918e+007  -2.4374e+004   1.4419e+007    0.0858   -0.0000    0.0000    0.0001    0.1254
                0.7676   1.5189e-003  -1.9871e-004   3.6457e-003   2.9159e+007  -2.4562e+004   1.4400e+007    0.0865   -0.0000    0.0000    0.0001    0.1252

               lamina:  2     
              matName:  (TEP-core)
                     s           e11           e22           e12           s11           s22           s12   s11_fcT   s11_fcC   s22_fcT   s22_fcC   s12_fcS
                   (m)         (m/m)         (m/m)         (rad)          (Pa)          (Pa)          (Pa)       (-)       (-)       (-)       (-)       (-)
                0.0000  -5.9659e-003   7.8002e-004   6.2577e-004  -1.3453e+006  -2.8014e+005   6.1326e+004    0.0000    0.3136    0.0000    0.0653    0.0208
                0.0099  -5.9160e-003   7.7349e-004   7.3171e-004  -1.3340e+006  -2.7779e+005   7.1707e+004    0.0000    0.3110    0.0000    0.0648    0.0243
                0.0540  -5.6054e-003   7.3288e-004   1.1867e-003  -1.2640e+006  -2.6321e+005   1.1629e+005    0.0000    0.2946    0.0000    0.0614    0.0394
                0.0979  -5.2951e-003   6.9230e-004   1.6151e-003  -1.1940e+006  -2.4864e+005   1.5828e+005    0.0000    0.2783    0.0000    0.0580    0.0537
                0.1420  -4.9175e-003   6.4293e-004   2.0157e-003  -1.1089e+006  -2.3091e+005   1.9754e+005    0.0000    0.2585    0.0000    0.0538    0.0670
                0.1860  -4.5109e-003   5.8976e-004   2.3832e-003  -1.0172e+006  -2.1182e+005   2.3355e+005    0.0000    0.2371    0.0000    0.0494    0.0792
                0.2295  -4.1060e-003   5.3682e-004   2.7128e-003  -9.2589e+005  -1.9281e+005   2.6585e+005    0.0000    0.2158    0.0000    0.0449    0.0901
                0.2726  -3.6468e-003   4.7677e-004   3.0049e-003  -8.2234e+005  -1.7125e+005   2.9448e+005    0.0000    0.1917    0.0000    0.0399    0.0998
                0.3149  -3.1965e-003   4.1789e-004   3.2555e-003  -7.2080e+005  -1.5011e+005   3.1904e+005    0.0000    0.1680    0.0000    0.0350    0.1081
                0.3563  -2.7459e-003   3.5897e-004   3.4652e-003  -6.1919e+005  -1.2895e+005   3.3959e+005    0.0000    0.1443    0.0000    0.0301    0.1151
                0.3966  -2.2928e-003   2.9972e-004   3.6353e-003  -5.1702e+005  -1.0768e+005   3.5626e+005    0.0000    0.1205    0.0000    0.0251    0.1208
                0.4355  -1.8549e-003   2.4246e-004   3.7671e-003  -4.1828e+005  -8.7116e+004   3.6918e+005    0.0000    0.0975    0.0000    0.0203    0.1251
                0.4729  -1.4361e-003   1.8770e-004   3.8636e-003  -3.2384e+005  -6.7452e+004   3.7863e+005    0.0000    0.0755    0.0000    0.0157    0.1284
                0.5086  -1.0365e-003   1.3544e-004   3.9283e-003  -2.3374e+005  -4.8690e+004   3.8498e+005    0.0000    0.0545    0.0000    0.0113    0.1305
                0.5426  -6.6006e-004   8.6216e-005   3.9651e-003  -1.4885e+005  -3.1015e+004   3.8858e+005    0.0000    0.0347    0.0000    0.0072    0.1317
                0.5744  -3.2118e-004   4.1902e-005   3.9781e-003  -7.2432e+004  -1.5103e+004   3.8985e+005    0.0000    0.0169    0.0000    0.0035    0.1322
                0.6043   2.6107e-004  -3.4041e-005   3.9719e-003   5.8876e+004   1.2281e+004   3.8924e+005    0.0137   -0.0000    0.0029   -0.0000    0.1319
                0.6318   5.4337e-004  -7.0956e-005   3.9506e-003   1.2253e+005   2.5535e+004   3.8716e+005    0.0286   -0.0000    0.0060   -0.0000    0.1312
                0.6571   7.9116e-004  -1.0336e-004   3.9185e-003   1.7841e+005   3.7170e+004   3.8402e+005    0.0416   -0.0000    0.0087   -0.0000    0.1302
                0.6799   1.0160e-003  -1.3276e-004   3.8793e-003   2.2911e+005   4.7728e+004   3.8017e+005    0.0534   -0.0000    0.0111   -0.0000    0.1289
                0.7002   1.2000e-003  -1.5682e-004   3.8366e-003   2.7060e+005   5.6367e+004   3.7599e+005    0.0631   -0.0000    0.0131   -0.0000    0.1275
                0.7179   1.3584e-003  -1.7753e-004   3.7937e-003   3.0632e+005   6.3805e+004   3.7178e+005    0.0714   -0.0000    0.0149   -0.0000    0.1260
                0.7331   1.4917e-003  -1.9497e-004   3.7529e-003   3.3639e+005   7.0064e+004   3.6778e+005    0.0784   -0.0000    0.0163   -0.0000    0.1247
                0.7455   1.5961e-003  -2.0861e-004   3.7165e-003   3.5992e+005   7.4964e+004   3.6422e+005    0.0839   -0.0000    0.0175   -0.0000    0.1235
                0.7551   1.6770e-003  -2.1919e-004   3.6866e-003   3.7815e+005   7.8761e+004   3.6129e+005    0.0881   -0.0000    0.0184   -0.0000    0.1225
                0.7621   1.7370e-003  -2.2704e-004   3.6643e-003   3.9170e+005   8.1582e+004   3.5910e+005    0.0913   -0.0000    0.0190   -0.0000    0.1217
                0.7662   1.7743e-003  -2.3192e-004   3.6504e-003   4.0010e+005   8.3332e+004   3.5774e+005    0.0933   -0.0000    0.0194   -0.0000    0.1213
                0.7676   1.7869e-003  -2.3356e-004   3.6457e-003   4.0294e+005   8.3921e+004   3.5728e+005    0.0939   -0.0000    0.0196   -0.0000    0.1211

               lamina:  3     
              matName:  (blade-shell)
                     s           e11           e22           e12           s11           s22           s12   s11_fcT   s11_fcC   s22_fcT   s22_fcC   s12_fcS
                   (m)         (m/m)         (m/m)         (rad)          (Pa)          (Pa)          (Pa)       (-)       (-)       (-)       (-)       (-)
                0.0000  -5.6927e-003   7.4450e-004   6.2577e-004  -1.0929e+008   8.6848e+004   2.4718e+006    0.0000    0.2199    0.0003   -0.0000    0.0215
                0.0099  -5.6446e-003   7.3820e-004   7.3171e-004  -1.0836e+008   8.6118e+004   2.8902e+006    0.0000    0.2180    0.0003   -0.0000    0.0251
                0.0540  -5.3345e-003   6.9766e-004   1.1867e-003  -1.0241e+008   8.1490e+004   4.6874e+006    0.0000    0.2061    0.0002   -0.0000    0.0408
                0.0979  -5.0252e-003   6.5721e-004   1.6151e-003  -9.6474e+007   7.6870e+004   6.3796e+006    0.0000    0.1941    0.0002   -0.0000    0.0555
                0.1420  -4.6493e-003   6.0806e-004   2.0157e-003  -8.9258e+007   7.1251e+004   7.9620e+006    0.0000    0.1796    0.0002   -0.0000    0.0692
                0.1860  -4.2434e-003   5.5498e-004   2.3832e-003  -8.1465e+007   6.5193e+004   9.4136e+006    0.0000    0.1639    0.0002   -0.0000    0.0819
                0.2295  -3.8398e-003   5.0220e-004   2.7128e-003  -7.3716e+007   5.9164e+004   1.0716e+007    0.0000    0.1483    0.0002   -0.0000    0.0932
                0.2726  -3.3819e-003   4.4232e-004   3.0049e-003  -6.4925e+007   5.2325e+004   1.1869e+007    0.0000    0.1306    0.0002   -0.0000    0.1032
                0.3149  -2.9318e-003   3.8347e-004   3.2555e-003  -5.6285e+007   4.5611e+004   1.2859e+007    0.0000    0.1132    0.0001   -0.0000    0.1118
                0.3563  -2.4818e-003   3.2463e-004   3.4652e-003  -4.7646e+007   3.8896e+004   1.3688e+007    0.0000    0.0959    0.0001   -0.0000    0.1190
                0.3966  -2.0291e-003   2.6543e-004   3.6353e-003  -3.8955e+007   3.2141e+004   1.4359e+007    0.0000    0.0784    0.0001   -0.0000    0.1249
                0.4355  -1.5912e-003   2.0817e-004   3.7671e-003  -3.0548e+007   2.5610e+004   1.4880e+007    0.0000    0.0615    0.0001   -0.0000    0.1294
                0.4729  -1.1723e-003   1.5339e-004   3.8636e-003  -2.2506e+007   1.9363e+004   1.5261e+007    0.0000    0.0453    0.0001   -0.0000    0.1327
                0.5086  -7.7263e-004   1.0113e-004   3.9283e-003  -1.4833e+007   1.3403e+004   1.5517e+007    0.0000    0.0298    0.0000   -0.0000    0.1349
                0.5426  -3.9562e-004   5.1829e-005   3.9651e-003  -7.5949e+006   7.7839e+003   1.5662e+007    0.0000    0.0153    0.0000   -0.0000    0.1362
                0.5744   3.6077e-004  -4.6775e-005   3.9781e-003   6.9272e+006   2.7259e+003   1.5713e+007    0.0206   -0.0000    0.0000   -0.0000    0.1366
                0.6043   6.7872e-004  -8.8351e-005   3.9719e-003   1.3031e+007  -2.2835e+003   1.5689e+007    0.0387   -0.0000    0.0000    0.0000    0.1364
                0.6318   9.6226e-004  -1.2543e-004   3.9506e-003   1.8475e+007  -6.4891e+003   1.5605e+007    0.0548   -0.0000    0.0000    0.0000    0.1357
                0.6571   1.2107e-003  -1.5791e-004   3.9185e-003   2.3243e+007  -1.0182e+004   1.5478e+007    0.0690   -0.0000    0.0000    0.0000    0.1346
                0.6799   1.4366e-003  -1.8745e-004   3.8793e-003   2.7581e+007  -1.3532e+004   1.5323e+007    0.0818   -0.0000    0.0000    0.0000    0.1332
                0.7002   1.6218e-003  -2.1167e-004   3.8366e-003   3.1137e+007  -1.6271e+004   1.5155e+007    0.0924   -0.0000    0.0000    0.0000    0.1318
                0.7179   1.7805e-003  -2.3242e-004   3.7937e-003   3.4184e+007  -1.8633e+004   1.4985e+007    0.1014   -0.0000    0.0000    0.0001    0.1303
                0.7331   1.9145e-003  -2.4995e-004   3.7529e-003   3.6756e+007  -2.0618e+004   1.4824e+007    0.1091   -0.0000    0.0000    0.0001    0.1289
                0.7455   2.0195e-003  -2.6367e-004   3.7165e-003   3.8771e+007  -2.2172e+004   1.4680e+007    0.1150   -0.0000    0.0000    0.0001    0.1277
                0.7551   2.1000e-003  -2.7419e-004   3.6866e-003   4.0316e+007  -2.3380e+004   1.4562e+007    0.1196   -0.0000    0.0000    0.0001    0.1266
                0.7621   2.1593e-003  -2.8195e-004   3.6643e-003   4.1455e+007  -2.4279e+004   1.4474e+007    0.1230   -0.0000    0.0000    0.0001    0.1259
                0.7662   2.1962e-003  -2.8677e-004   3.6504e-003   4.2163e+007  -2.4836e+004   1.4419e+007    0.1251   -0.0000    0.0000    0.0001    0.1254
                0.7676   2.2087e-003  -2.8842e-004   3.6457e-003   4.2404e+007  -2.5024e+004   1.4400e+007    0.1258   -0.0000    0.0000    0.0001    0.1252

  Bottom:  panel  nNode   nLam     xc_St    xc_End         b         t         E_eff         G_eff      nu_eff     density  buckleCrit
            (-)    (-)    (-)       (-)       (-)       (m)       (m)          (Pa)          (Pa)         (-)    (kg/m^3)         (-)
              1     18      3    0.0000    0.2387    0.3687    0.0099   1.8745e+010   3.8576e+009      0.1301   1634.7555      0.0916
              2      9      5    0.2387    0.4613    0.3079    0.0157   5.9129e+010   4.2307e+009      0.1677   1588.7306      0.0017
              3     28      3    0.4613    1.0000    0.7614    0.0127   1.4624e+010   3.0214e+009      0.1308   1315.6259      0.1505

            panel:  1     
           lam_num    nPlies        tPly      fibAng     matID  matName
               (-)       (-)         (m)       (deg)       (-)  (-)
                 1         1    0.004815      0.0000         2  (blade-shell)
                 2         1    0.000237      0.0000         5  (LEP-core)
                 3         1    0.004815      0.0000         2  (blade-shell)

               lamina:  1     
              matName:  (blade-shell)
                     s           e11           e22           e12           s11           s22           s12   s11_fcT   s11_fcC   s22_fcT   s22_fcC   s12_fcS
                   (m)         (m/m)         (m/m)         (rad)          (Pa)          (Pa)          (Pa)       (-)       (-)       (-)       (-)       (-)
                0.0000   5.1898e-004  -6.7487e-005   6.8748e-003   9.9644e+006  -3.8780e+002   2.7155e+007    0.0296   -0.0000    0.0000    0.0000    0.2361
                0.0040   6.6430e-004  -8.6388e-005   6.8728e-003   1.2755e+007  -5.5601e+002   2.7148e+007    0.0378   -0.0000    0.0000    0.0000    0.2361
                0.0155   1.1213e-003  -1.4582e-004   6.8608e-003   2.1528e+007  -1.0470e+003   2.7100e+007    0.0639   -0.0000    0.0000    0.0000    0.2357
                0.0297   1.7207e-003  -2.2378e-004   6.8339e-003   3.3038e+007  -1.6258e+003   2.6994e+007    0.0980   -0.0000    0.0000    0.0000    0.2347
                0.0422   2.1417e-003  -2.7852e-004   6.8005e-003   4.1120e+007  -2.0251e+003   2.6862e+007    0.1220   -0.0000    0.0000    0.0000    0.2336
                0.0588   2.6397e-003  -3.4329e-004   6.7436e-003   5.0682e+007  -2.5600e+003   2.6637e+007    0.1504   -0.0000    0.0000    0.0000    0.2316
                0.0760   3.0666e-003  -3.9881e-004   6.6711e-003   5.8878e+007  -3.0045e+003   2.6351e+007    0.1747   -0.0000    0.0000    0.0000    0.2291
                0.0957   3.4745e-003  -4.5186e-004   6.5735e-003   6.6710e+007  -3.4619e+003   2.5965e+007    0.1980   -0.0000    0.0000    0.0000    0.2258
                0.1179   3.9285e-003  -5.1090e-004   6.4467e-003   7.5426e+007  -3.9617e+003   2.5465e+007    0.2238   -0.0000    0.0000    0.0000    0.2214
                0.1412   4.2770e-003  -5.5623e-004   6.2969e-003   8.2118e+007  -4.3463e+003   2.4873e+007    0.2437   -0.0000    0.0000    0.0000    0.2163
                0.1672   4.6537e-003  -6.0522e-004   6.1125e-003   8.9350e+007  -4.7758e+003   2.4145e+007    0.2651   -0.0000    0.0000    0.0000    0.2100
                0.1949   5.0039e-003  -6.5078e-004   5.8977e-003   9.6075e+007  -5.1696e+003   2.3296e+007    0.2851   -0.0000    0.0000    0.0000    0.2026
                0.2244   5.3050e-003  -6.8993e-004   5.6509e-003   1.0185e+008  -5.5128e+003   2.2321e+007    0.3022   -0.0000    0.0000    0.0000    0.1941
                0.2559   5.6272e-003  -7.3183e-004   5.3690e-003   1.0804e+008  -5.8796e+003   2.1208e+007    0.3206   -0.0000    0.0000    0.0000    0.1844
                0.2888   5.8666e-003  -7.6298e-004   5.0577e-003   1.1264e+008  -6.1510e+003   1.9978e+007    0.3342   -0.0000    0.0000    0.0000    0.1737
                0.3235   6.0969e-003  -7.9293e-004   4.7137e-003   1.1706e+008  -6.4158e+003   1.8619e+007    0.3474   -0.0000    0.0000    0.0000    0.1619
                0.3597   6.3122e-003  -8.2092e-004   4.3394e-003   1.2119e+008  -6.6628e+003   1.7141e+007    0.3596   -0.0000    0.0000    0.0000    0.1490
                0.3687   6.3447e-003  -8.2515e-004   4.2449e-003   1.2182e+008  -6.6965e+003   1.6767e+007    0.3615   -0.0000    0.0000    0.0000    0.1458

               lamina:  2     
              matName:  (LEP-core)
                     s           e11           e22           e12           s11           s22           s12   s11_fcT   s11_fcC   s22_fcT   s22_fcC   s12_fcS
                   (m)         (m/m)         (m/m)         (rad)          (Pa)          (Pa)          (Pa)       (-)       (-)       (-)       (-)       (-)
                0.0000   3.3935e-004  -4.4136e-005   6.8748e-003   7.6541e+004   1.5990e+004   6.7373e+005    0.0178   -0.0000    0.0037   -0.0000    0.2284
                0.0040   4.8467e-004  -6.3036e-005   6.8728e-003   1.0932e+005   2.2837e+004   6.7353e+005    0.0255   -0.0000    0.0053   -0.0000    0.2283
                0.0155   9.0967e-004  -1.1831e-004   6.8608e-003   2.0517e+005   4.2862e+004   6.7236e+005    0.0478   -0.0000    0.0100   -0.0000    0.2279
                0.0297   1.4120e-003  -1.8365e-004   6.8339e-003   3.1848e+005   6.6533e+004   6.6972e+005    0.0742   -0.0000    0.0155   -0.0000    0.2270
                0.0422   1.7588e-003  -2.2875e-004   6.8005e-003   3.9670e+005   8.2873e+004   6.6645e+005    0.0925   -0.0000    0.0193   -0.0000    0.2259
                0.0588   2.2218e-003  -2.8896e-004   6.7436e-003   5.0112e+005   1.0469e+005   6.6087e+005    0.1168   -0.0000    0.0244   -0.0000    0.2240
                0.0760   2.6068e-003  -3.3904e-004   6.6711e-003   5.8796e+005   1.2283e+005   6.5377e+005    0.1371   -0.0000    0.0286   -0.0000    0.2216
                0.0957   3.0022e-003  -3.9047e-004   6.5735e-003   6.7715e+005   1.4146e+005   6.4421e+005    0.1578   -0.0000    0.0330   -0.0000    0.2184
                0.1179   3.4346e-003  -4.4670e-004   6.4467e-003   7.7468e+005   1.6184e+005   6.3178e+005    0.1806   -0.0000    0.0377   -0.0000    0.2142
                0.1412   3.7673e-003  -4.8997e-004   6.2969e-003   8.4970e+005   1.7751e+005   6.1709e+005    0.1981   -0.0000    0.0414   -0.0000    0.2092
                0.1672   4.1385e-003  -5.3825e-004   6.1125e-003   9.3343e+005   1.9500e+005   5.9903e+005    0.2176   -0.0000    0.0455   -0.0000    0.2031
                0.1949   4.4789e-003  -5.8252e-004   5.8977e-003   1.0102e+006   2.1104e+005   5.7798e+005    0.2355   -0.0000    0.0492   -0.0000    0.1959
                0.2244   4.7755e-003  -6.2110e-004   5.6509e-003   1.0771e+006   2.2502e+005   5.5379e+005    0.2511   -0.0000    0.0525   -0.0000    0.1877
                0.2559   5.0926e-003  -6.6234e-004   5.3690e-003   1.1486e+006   2.3996e+005   5.2616e+005    0.2677   -0.0000    0.0559   -0.0000    0.1784
                0.2888   5.3272e-003  -6.9285e-004   5.0577e-003   1.2015e+006   2.5101e+005   4.9565e+005    0.2801   -0.0000    0.0585   -0.0000    0.1680
                0.3235   5.5559e-003  -7.2260e-004   4.7137e-003   1.2531e+006   2.6179e+005   4.6194e+005    0.2921   -0.0000    0.0610   -0.0000    0.1566
                0.3597   5.7694e-003  -7.5036e-004   4.3394e-003   1.3013e+006   2.7185e+005   4.2526e+005    0.3033   -0.0000    0.0634   -0.0000    0.1442
                0.3687   5.7986e-003  -7.5416e-004   4.2449e-003   1.3079e+006   2.7322e+005   4.1600e+005    0.3049   -0.0000    0.0637   -0.0000    0.1410

               lamina:  3     
              matName:  (blade-shell)
                     s           e11           e22           e12           s11           s22           s12   s11_fcT   s11_fcC   s22_fcT   s22_fcC   s12_fcS
                   (m)         (m/m)         (m/m)         (rad)          (Pa)          (Pa)          (Pa)       (-)       (-)       (-)       (-)       (-)
                0.0000   3.3053e-004  -4.2988e-005   6.8748e-003   6.3461e+006  -3.8768e+002   2.7155e+007    0.0188   -0.0000    0.0000    0.0000    0.2361
                0.0040   4.7585e-004  -6.1889e-005   6.8728e-003   9.1362e+006  -5.5588e+002   2.7148e+007    0.0271   -0.0000    0.0000    0.0000    0.2361
                0.0155   8.9927e-004  -1.1696e-004   6.8608e-003   1.7266e+007  -1.0469e+003   2.7100e+007    0.0512   -0.0000    0.0000    0.0000    0.2357
                0.0297   1.3969e-003  -1.8167e-004   6.8339e-003   2.6819e+007  -1.6256e+003   2.6994e+007    0.0796   -0.0000    0.0000    0.0000    0.2347
                0.0422   1.7400e-003  -2.2630e-004   6.8005e-003   3.3408e+007  -2.0249e+003   2.6862e+007    0.0991   -0.0000    0.0000    0.0000    0.2336
                0.0588   2.2013e-003  -2.8629e-004   6.7436e-003   4.2264e+007  -2.5598e+003   2.6637e+007    0.1254   -0.0000    0.0000    0.0000    0.2316
                0.0760   2.5842e-003  -3.3610e-004   6.6711e-003   4.9617e+007  -3.0042e+003   2.6351e+007    0.1472   -0.0000    0.0000    0.0000    0.2291
                0.0957   2.9790e-003  -3.8745e-004   6.5735e-003   5.7197e+007  -3.4616e+003   2.5965e+007    0.1697   -0.0000    0.0000    0.0000    0.2258
                0.1179   3.4104e-003  -4.4355e-004   6.4467e-003   6.5478e+007  -3.9614e+003   2.5465e+007    0.1943   -0.0000    0.0000    0.0000    0.2214
                0.1412   3.7422e-003  -4.8671e-004   6.2969e-003   7.1850e+007  -4.3460e+003   2.4873e+007    0.2132   -0.0000    0.0000    0.0000    0.2163
                0.1672   4.1132e-003  -5.3496e-004   6.1125e-003   7.8972e+007  -4.7755e+003   2.4145e+007    0.2343   -0.0000    0.0000    0.0000    0.2100
                0.1949   4.4531e-003  -5.7917e-004   5.8977e-003   8.5499e+007  -5.1692e+003   2.3296e+007    0.2537   -0.0000    0.0000    0.0000    0.2026
                0.2244   4.7495e-003  -6.1772e-004   5.6509e-003   9.1190e+007  -5.5125e+003   2.2321e+007    0.2706   -0.0000    0.0000    0.0000    0.1941
                0.2559   5.0663e-003  -6.5892e-004   5.3690e-003   9.7272e+007  -5.8793e+003   2.1208e+007    0.2886   -0.0000    0.0000    0.0000    0.1844
                0.2888   5.3007e-003  -6.8940e-004   5.0577e-003   1.0177e+008  -6.1507e+003   1.9978e+007    0.3020   -0.0000    0.0000    0.0000    0.1737
                0.3235   5.5294e-003  -7.1914e-004   4.7137e-003   1.0616e+008  -6.4154e+003   1.8619e+007    0.3150   -0.0000    0.0000    0.0000    0.1619
                0.3597   5.7427e-003  -7.4689e-004   4.3394e-003   1.1026e+008  -6.6624e+003   1.7141e+007    0.3272   -0.0000    0.0000    0.0000    0.1490
                0.3687   5.7718e-003  -7.5067e-004   4.2449e-003   1.1082e+008  -6.6961e+003   1.6767e+007    0.3288   -0.0000    0.0000    0.0000    0.1458

            panel:  2     
           lam_num    nPlies        tPly      fibAng     matID  matName
               (-)       (-)         (m)       (deg)       (-)  (-)
                 1         1    0.004815      0.0000         2  (blade-shell)
                 2         1    0.003022      0.0000         3  (spar-uni)
                 3         1    0.000047      0.0000         4  (spar-core)
                 4         1    0.003022      0.0000         3  (spar-uni)
                 5         1    0.004815      0.0000         2  (blade-shell)

               lamina:  1     
              matName:  (blade-shell)
                     s           e11           e22           e12           s11           s22           s12   s11_fcT   s11_fcC   s22_fcT   s22_fcC   s12_fcS
                   (m)         (m/m)         (m/m)         (rad)          (Pa)          (Pa)          (Pa)       (-)       (-)       (-)       (-)       (-)
                0.0000   7.8100e-003  -1.2391e-003   5.8786e-003   1.4938e+008  -4.3712e+006   2.3220e+007    0.4433   -0.0000    0.0000    0.0130    0.2019
                0.0283   7.9033e-003  -1.2548e-003   5.0242e-003   1.5117e+008  -4.4400e+006   1.9845e+007    0.4486   -0.0000    0.0000    0.0132    0.1726
                0.0670   8.0348e-003  -1.2767e-003   3.8346e-003   1.5368e+008  -4.5343e+006   1.5147e+007    0.4560   -0.0000    0.0000    0.0135    0.1317
                0.1066   8.0875e-003  -1.2854e-003   2.5956e-003   1.5468e+008  -4.5708e+006   1.0253e+007    0.4590   -0.0000    0.0000    0.0136    0.0892
                0.1474   8.0780e-003  -1.2838e-003   1.3121e-003   1.5451e+008  -4.5638e+006   5.1826e+006    0.4585   -0.0000    0.0000    0.0135    0.0451
                0.1889   8.0662e-003  -1.2819e-003   7.8444e-006   1.5428e+008  -4.5567e+006   3.0985e+004    0.4578   -0.0000    0.0000    0.0135    0.0003
                0.2313   7.9104e-003  -1.2560e-003   1.3093e-003   1.5130e+008  -4.4462e+006   5.1718e+006    0.4490   -0.0000    0.0000    0.0132    0.0450
                0.2745   7.7486e-003  -1.2290e-003   2.6180e-003   1.4821e+008  -4.3285e+006   1.0341e+007    0.4398   -0.0000    0.0000    0.0128    0.0899
                0.3079   7.5965e-003  -1.2035e-003   3.6044e-003   1.4530e+008  -4.2181e+006   1.4237e+007    0.4312   -0.0000    0.0000    0.0125    0.1238

               lamina:  2     
              matName:  (spar-uni)
                     s           e11           e22           e12           s11           s22           s12   s11_fcT   s11_fcC   s22_fcT   s22_fcC   s12_fcS
                   (m)         (m/m)         (m/m)         (rad)          (Pa)          (Pa)          (Pa)       (-)       (-)       (-)       (-)       (-)
                0.0000   6.5002e-003  -1.0628e-003   5.8786e-003   8.0196e+008   7.8585e+006   2.7688e+007    0.4052   -0.0000    0.1312   -0.0000    0.2688
                0.0283   6.5935e-003  -1.0785e-003   5.0242e-003   8.1348e+008   7.9681e+006   2.3664e+007    0.4111   -0.0000    0.1330   -0.0000    0.2297
                0.0670   6.7226e-003  -1.1001e-003   3.8346e-003   8.2939e+008   8.1200e+006   1.8061e+007    0.4191   -0.0000    0.1356   -0.0000    0.1753
                0.1066   6.7731e-003  -1.1085e-003   2.5956e-003   8.3562e+008   8.1796e+006   1.2225e+007    0.4222   -0.0000    0.1366   -0.0000    0.1187
                0.1474   6.7636e-003  -1.1069e-003   1.3121e-003   8.3445e+008   8.1685e+006   6.1798e+006    0.4217   -0.0000    0.1364   -0.0000    0.0600
                0.1889   6.7532e-003  -1.1052e-003   7.8444e-006   8.3317e+008   8.1561e+006   3.6947e+004    0.4210   -0.0000    0.1362   -0.0000    0.0004
                0.2313   6.6015e-003  -1.0799e-003   1.3093e-003   8.1446e+008   7.9773e+006   6.1668e+006    0.4116   -0.0000    0.1332   -0.0000    0.0599
                0.2745   6.4412e-003  -1.0530e-003   2.6180e-003   7.9469e+008   7.7888e+006   1.2331e+007    0.4016   -0.0000    0.1300   -0.0000    0.1197
                0.3079   6.2907e-003  -1.0278e-003   3.6044e-003   7.7612e+008   7.6119e+006   1.6977e+007    0.3922   -0.0000    0.1271   -0.0000    0.1648

               lamina:  3     
              matName:  (spar-core)
                     s           e11           e22           e12           s11           s22           s12   s11_fcT   s11_fcC   s22_fcT   s22_fcC   s12_fcS
                   (m)         (m/m)         (m/m)         (rad)          (Pa)          (Pa)          (Pa)       (-)       (-)       (-)       (-)       (-)
                0.0000   5.6782e-003  -9.5223e-004   5.8786e-003   1.2641e+006   2.1718e+005   5.7610e+005    0.2947   -0.0000    0.0506   -0.0000    0.1953
                0.0283   5.7716e-003  -9.6789e-004   5.0242e-003   1.2849e+006   2.2075e+005   4.9237e+005    0.2995   -0.0000    0.0515   -0.0000    0.1669
                0.0670   5.8990e-003  -9.8927e-004   3.8346e-003   1.3133e+006   2.2563e+005   3.7579e+005    0.3061   -0.0000    0.0526   -0.0000    0.1274
                0.1066   5.9482e-003  -9.9752e-004   2.5956e-003   1.3242e+006   2.2751e+005   2.5437e+005    0.3087   -0.0000    0.0530   -0.0000    0.0862
                0.1474   5.9387e-003  -9.9591e-004   1.3121e-003   1.3221e+006   2.2714e+005   1.2858e+005    0.3082   -0.0000    0.0529   -0.0000    0.0436
                0.1889   5.9293e-003  -9.9434e-004   7.8444e-006   1.3200e+006   2.2678e+005   7.6875e+002    0.3077   -0.0000    0.0529   -0.0000    0.0003
                0.2313   5.7801e-003  -9.6933e-004   1.3093e-003   1.2868e+006   2.2108e+005   1.2831e+005    0.3000   -0.0000    0.0515   -0.0000    0.0435
                0.2745   5.6208e-003  -9.4260e-004   2.6180e-003   1.2513e+006   2.1499e+005   2.5657e+005    0.2917   -0.0000    0.0501   -0.0000    0.0870
                0.3079   5.4713e-003  -9.1752e-004   3.6044e-003   1.2180e+006   2.0927e+005   3.5323e+005    0.2839   -0.0000    0.0488   -0.0000    0.1197

               lamina:  4     
              matName:  (spar-uni)
                     s           e11           e22           e12           s11           s22           s12   s11_fcT   s11_fcC   s22_fcT   s22_fcC   s12_fcS
                   (m)         (m/m)         (m/m)         (rad)          (Pa)          (Pa)          (Pa)       (-)       (-)       (-)       (-)       (-)
                0.0000   5.6655e-003  -9.5052e-004   5.8786e-003   6.9892e+008   6.6500e+006   2.7688e+007    0.3532   -0.0000    0.1110   -0.0000    0.2688
                0.0283   5.7588e-003  -9.6618e-004   5.0242e-003   7.1043e+008   6.7596e+006   2.3664e+007    0.3590   -0.0000    0.1128   -0.0000    0.2297
                0.0670   5.8862e-003  -9.8755e-004   3.8346e-003   7.2615e+008   6.9092e+006   1.8061e+007    0.3669   -0.0000    0.1153   -0.0000    0.1753
                0.1066   5.9354e-003  -9.9579e-004   2.5956e-003   7.3221e+008   6.9669e+006   1.2225e+007    0.3700   -0.0000    0.1163   -0.0000    0.1187
                0.1474   5.9259e-003  -9.9419e-004   1.3121e-003   7.3104e+008   6.9557e+006   6.1798e+006    0.3694   -0.0000    0.1161   -0.0000    0.0600
                0.1889   5.9165e-003  -9.9262e-004   7.8444e-006   7.2988e+008   6.9447e+006   3.6947e+004    0.3688   -0.0000    0.1159   -0.0000    0.0004
                0.2313   5.7674e-003  -9.6761e-004   1.3093e-003   7.1149e+008   6.7697e+006   6.1668e+006    0.3595   -0.0000    0.1130   -0.0000    0.0599
                0.2745   5.6080e-003  -9.4088e-004   2.6180e-003   6.9183e+008   6.5826e+006   1.2331e+007    0.3496   -0.0000    0.1099   -0.0000    0.1197
                0.3079   5.4586e-003  -9.1581e-004   3.6044e-003   6.7339e+008   6.4071e+006   1.6977e+007    0.3403   -0.0000    0.1070   -0.0000    0.1648

               lamina:  5     
              matName:  (blade-shell)
                     s           e11           e22           e12           s11           s22           s12   s11_fcT   s11_fcC   s22_fcT   s22_fcC   s12_fcS
                   (m)         (m/m)         (m/m)         (rad)          (Pa)          (Pa)          (Pa)       (-)       (-)       (-)       (-)       (-)
                0.0000   4.8435e-003  -8.3990e-004   5.8786e-003   9.2462e+007  -4.1061e+006   2.3220e+007    0.2744   -0.0000    0.0000    0.0122    0.2019
                0.0283   4.9369e-003  -8.5556e-004   5.0242e-003   9.4245e+007  -4.1749e+006   1.9845e+007    0.2797   -0.0000    0.0000    0.0124    0.1726
                0.0670   5.0627e-003  -8.7672e-004   3.8346e-003   9.6649e+007  -4.2686e+006   1.5147e+007    0.2868   -0.0000    0.0000    0.0127    0.1317
                0.1066   5.1106e-003  -8.8479e-004   2.5956e-003   9.7563e+007  -4.3048e+006   1.0253e+007    0.2895   -0.0000    0.0000    0.0128    0.0892
                0.1474   5.1009e-003  -8.8318e-004   1.3121e-003   9.7380e+007  -4.2977e+006   5.1826e+006    0.2890   -0.0000    0.0000    0.0128    0.0451
                0.1889   5.0925e-003  -8.8174e-004   7.8444e-006   9.7219e+007  -4.2909e+006   3.0985e+004    0.2885   -0.0000    0.0000    0.0127    0.0003
                0.2313   4.9460e-003  -8.5708e-004   1.3093e-003   9.4420e+007  -4.1812e+006   5.1718e+006    0.2802   -0.0000    0.0000    0.0124    0.0450
                0.2745   4.7876e-003  -8.3047e-004   2.6180e-003   9.1393e+007  -4.0639e+006   1.0341e+007    0.2712   -0.0000    0.0000    0.0121    0.0899
                0.3079   4.6392e-003  -8.0554e-004   3.6044e-003   8.8558e+007  -3.9538e+006   1.4237e+007    0.2628   -0.0000    0.0000    0.0117    0.1238

            panel:  3     
           lam_num    nPlies        tPly      fibAng     matID  matName
               (-)       (-)         (m)       (deg)       (-)  (-)
                 1         1    0.004815      0.0000         2  (blade-shell)
                 2         1    0.003059      0.0000         6  (TEP-core)
                 3         1    0.004815      0.0000         2  (blade-shell)

               lamina:  1     
              matName:  (blade-shell)
                     s           e11           e22           e12           s11           s22           s12   s11_fcT   s11_fcC   s22_fcT   s22_fcC   s12_fcS
                   (m)         (m/m)         (m/m)         (rad)          (Pa)          (Pa)          (Pa)       (-)       (-)       (-)       (-)       (-)
                0.0000   6.0910e-003  -7.9606e-004   5.5484e-004   1.1694e+008  -8.2759e+004   2.1916e+006    0.3470   -0.0000    0.0000    0.0002    0.0191
                0.0100   6.0437e-003  -7.8988e-004   4.5309e-004   1.1603e+008  -8.2091e+004   1.7897e+006    0.3443   -0.0000    0.0000    0.0002    0.0156
                0.0542   5.7717e-003  -7.5432e-004   1.6670e-005   1.1081e+008  -7.8046e+004   6.5847e+004    0.3288   -0.0000    0.0000    0.0002    0.0006
                0.0983   5.4995e-003  -7.1872e-004   3.9820e-004   1.0558e+008  -7.4003e+004   1.5729e+006    0.3133   -0.0000    0.0000    0.0002    0.0137
                0.1424   5.1823e-003  -6.7725e-004   7.9013e-004   9.9491e+007  -6.9300e+004   3.1210e+006    0.2952   -0.0000    0.0000    0.0002    0.0271
                0.1864   4.8474e-003  -6.3346e-004   1.1551e-003   9.3062e+007  -6.4315e+004   4.5628e+006    0.2761   -0.0000    0.0000    0.0002    0.0397
                0.2299   4.5150e-003  -5.8999e-004   1.4899e-003   8.6681e+007  -5.9370e+004   5.8852e+006    0.2572   -0.0000    0.0000    0.0002    0.0512
                0.2728   4.1633e-003  -5.4401e-004   1.7942e-003   7.9929e+007  -5.4138e+004   7.0872e+006    0.2372   -0.0000    0.0000    0.0002    0.0616
                0.3149   3.8193e-003  -4.9902e-004   2.0665e-003   7.3325e+007  -4.9005e+004   8.1629e+006    0.2176   -0.0000    0.0000    0.0001    0.0710
                0.3559   3.4892e-003  -4.5585e-004   2.3073e-003   6.6987e+007  -4.4074e+004   9.1137e+006    0.1988   -0.0000    0.0000    0.0001    0.0792
                0.3957   3.1757e-003  -4.1486e-004   2.5177e-003   6.0968e+007  -3.9395e+004   9.9449e+006    0.1809   -0.0000    0.0000    0.0001    0.0865
                0.4342   2.8734e-003  -3.7533e-004   2.7000e-003   5.5164e+007  -3.4868e+004   1.0665e+007    0.1637   -0.0000    0.0000    0.0001    0.0927
                0.4710   2.6160e-003  -3.4167e-004   2.8559e-003   5.0223e+007  -3.1007e+004   1.1281e+007    0.1490   -0.0000    0.0000    0.0001    0.0981
                0.5061   2.3782e-003  -3.1057e-004   2.9890e-003   4.5657e+007  -2.7451e+004   1.1806e+007    0.1355   -0.0000    0.0000    0.0001    0.1027
                0.5395   2.1620e-003  -2.8231e-004   3.1019e-003   4.1508e+007  -2.4200e+004   1.2252e+007    0.1232   -0.0000    0.0000    0.0001    0.1065
                0.5707   2.0040e-003  -2.6164e-004   3.1972e-003   3.8474e+007  -2.1821e+004   1.2629e+007    0.1142   -0.0000    0.0000    0.0001    0.1098
                0.6000   1.8560e-003  -2.4228e-004   3.2783e-003   3.5632e+007  -1.9599e+004   1.2949e+007    0.1057   -0.0000    0.0000    0.0001    0.1126
                0.6270   1.7502e-003  -2.2844e-004   3.3473e-003   3.3601e+007  -1.7997e+004   1.3222e+007    0.0997   -0.0000    0.0000    0.0001    0.1150
                0.6517   1.6792e-003  -2.1916e-004   3.4065e-003   3.2239e+007  -1.6929e+004   1.3456e+007    0.0957   -0.0000    0.0000    0.0001    0.1170
                0.6741   1.6152e-003  -2.1079e-004   3.4577e-003   3.1009e+007  -1.5960e+004   1.3658e+007    0.0920   -0.0000    0.0000    0.0000    0.1188
                0.6941   1.6043e-003  -2.0937e-004   3.5021e-003   3.0801e+007  -1.5790e+004   1.3833e+007    0.0914   -0.0000    0.0000    0.0000    0.1203
                0.7115   1.5996e-003  -2.0875e-004   3.5406e-003   3.0710e+007  -1.5719e+004   1.3985e+007    0.0911   -0.0000    0.0000    0.0000    0.1216
                0.7265   1.6064e-003  -2.0964e-004   3.5739e-003   3.0840e+007  -1.5826e+004   1.4117e+007    0.0915   -0.0000    0.0000    0.0000    0.1228
                0.7389   1.6393e-003  -2.1395e-004   3.6019e-003   3.1473e+007  -1.6332e+004   1.4227e+007    0.0934   -0.0000    0.0000    0.0000    0.1237
                0.7485   1.6649e-003  -2.1729e-004   3.6244e-003   3.1963e+007  -1.6729e+004   1.4316e+007    0.0948   -0.0000    0.0000    0.0000    0.1245
                0.7557   1.6975e-003  -2.2156e-004   3.6415e-003   3.2590e+007  -1.7266e+004   1.4384e+007    0.0967   -0.0000    0.0000    0.0001    0.1251
                0.7600   1.7237e-003  -2.2499e-004   3.6521e-003   3.3093e+007  -1.7690e+004   1.4426e+007    0.0982   -0.0000    0.0000    0.0001    0.1254
                0.7614   1.7329e-003  -2.2619e-004   3.6555e-003   3.3270e+007  -1.7827e+004   1.4439e+007    0.0987   -0.0000    0.0000    0.0001    0.1256

               lamina:  2     
              matName:  (TEP-core)
                     s           e11           e22           e12           s11           s22           s12   s11_fcT   s11_fcC   s22_fcT   s22_fcC   s12_fcS
                   (m)         (m/m)         (m/m)         (rad)          (Pa)          (Pa)          (Pa)       (-)       (-)       (-)       (-)       (-)
                0.0000   5.6603e-003  -7.4006e-004   5.5484e-004   1.2764e+006   2.6579e+005   5.4374e+004    0.2975   -0.0000    0.0620   -0.0000    0.0184
                0.0100   5.6150e-003  -7.3414e-004   4.5309e-004   1.2662e+006   2.6366e+005   4.4402e+004    0.2951   -0.0000    0.0615   -0.0000    0.0151
                0.0542   5.3436e-003  -6.9865e-004   1.6670e-005   1.2050e+006   2.5092e+005   1.6337e+003    0.2809   -0.0000    0.0585   -0.0000    0.0006
                0.0983   5.0723e-003  -6.6317e-004   3.9820e-004   1.1438e+006   2.3818e+005   3.9023e+004    0.2666   -0.0000    0.0555   -0.0000    0.0132
                0.1424   4.7566e-003  -6.2189e-004   7.9013e-004   1.0726e+006   2.2336e+005   7.7432e+004    0.2500   -0.0000    0.0521   -0.0000    0.0262
                0.1864   4.4222e-003  -5.7817e-004   1.1551e-003   9.9719e+005   2.0766e+005   1.1320e+005    0.2324   -0.0000    0.0484   -0.0000    0.0384
                0.2299   4.0905e-003  -5.3479e-004   1.4899e-003   9.2239e+005   1.9208e+005   1.4601e+005    0.2150   -0.0000    0.0448   -0.0000    0.0495
                0.2728   3.7395e-003  -4.8889e-004   1.7942e-003   8.4323e+005   1.7560e+005   1.7583e+005    0.1966   -0.0000    0.0409   -0.0000    0.0596
                0.3149   3.3953e-003  -4.4389e-004   2.0665e-003   7.6564e+005   1.5944e+005   2.0252e+005    0.1785   -0.0000    0.0372   -0.0000    0.0687
                0.3559   3.0649e-003  -4.0067e-004   2.3073e-003   6.9111e+005   1.4393e+005   2.2611e+005    0.1611   -0.0000    0.0335   -0.0000    0.0766
                0.3957   2.7511e-003  -3.5965e-004   2.5177e-003   6.2037e+005   1.2920e+005   2.4673e+005    0.1446   -0.0000    0.0301   -0.0000    0.0836
                0.4342   2.4479e-003  -3.2000e-004   2.7000e-003   5.5199e+005   1.1496e+005   2.6460e+005    0.1287   -0.0000    0.0268   -0.0000    0.0897
                0.4710   2.1893e-003  -2.8618e-004   2.8559e-003   4.9369e+005   1.0282e+005   2.7988e+005    0.1151   -0.0000    0.0240   -0.0000    0.0949
                0.5061   1.9510e-003  -2.5502e-004   2.9890e-003   4.3995e+005   9.1629e+004   2.9292e+005    0.1026   -0.0000    0.0214   -0.0000    0.0993
                0.5395   1.7334e-003  -2.2657e-004   3.1019e-003   3.9088e+005   8.1411e+004   3.0398e+005    0.0911   -0.0000    0.0190   -0.0000    0.1030
                0.5707   1.5742e-003  -2.0575e-004   3.1972e-003   3.5498e+005   7.3937e+004   3.1332e+005    0.0827   -0.0000    0.0172   -0.0000    0.1062
                0.6000   1.4254e-003  -1.8629e-004   3.2783e-003   3.2143e+005   6.6950e+004   3.2127e+005    0.0749   -0.0000    0.0156   -0.0000    0.1089
                0.6270   1.3183e-003  -1.7229e-004   3.3473e-003   2.9728e+005   6.1921e+004   3.2804e+005    0.0693   -0.0000    0.0144   -0.0000    0.1112
                0.6517   1.2468e-003  -1.6294e-004   3.4065e-003   2.8116e+005   5.8566e+004   3.3384e+005    0.0655   -0.0000    0.0137   -0.0000    0.1132
                0.6741   1.1820e-003  -1.5447e-004   3.4577e-003   2.6655e+005   5.5524e+004   3.3885e+005    0.0621   -0.0000    0.0129   -0.0000    0.1149
                0.6941   1.1707e-003  -1.5299e-004   3.5021e-003   2.6401e+005   5.4994e+004   3.4321e+005    0.0615   -0.0000    0.0128   -0.0000    0.1163
                0.7115   1.1660e-003  -1.5237e-004   3.5406e-003   2.6294e+005   5.4772e+004   3.4697e+005    0.0613   -0.0000    0.0128   -0.0000    0.1176
                0.7265   1.1731e-003  -1.5330e-004   3.5739e-003   2.6454e+005   5.5104e+004   3.5024e+005    0.0617   -0.0000    0.0128   -0.0000    0.1187
                0.7389   1.2068e-003  -1.5771e-004   3.6019e-003   2.7214e+005   5.6687e+004   3.5298e+005    0.0634   -0.0000    0.0132   -0.0000    0.1197
                0.7485   1.2333e-003  -1.6117e-004   3.6244e-003   2.7810e+005   5.7929e+004   3.5519e+005    0.0648   -0.0000    0.0135   -0.0000    0.1204
                0.7557   1.2685e-003  -1.6578e-004   3.6415e-003   2.8606e+005   5.9585e+004   3.5687e+005    0.0667   -0.0000    0.0139   -0.0000    0.1210
                0.7600   1.2965e-003  -1.6944e-004   3.6521e-003   2.9237e+005   6.0900e+004   3.5790e+005    0.0682   -0.0000    0.0142   -0.0000    0.1213
                0.7614   1.3057e-003  -1.7064e-004   3.6555e-003   2.9444e+005   6.1331e+004   3.5824e+005    0.0686   -0.0000    0.0143   -0.0000    0.1214

               lamina:  3     
              matName:  (blade-shell)
                     s           e11           e22           e12           s11           s22           s12   s11_fcT   s11_fcC   s22_fcT   s22_fcC   s12_fcS
                   (m)         (m/m)         (m/m)         (rad)          (Pa)          (Pa)          (Pa)       (-)       (-)       (-)       (-)       (-)
                0.0000   5.3866e-003  -7.0448e-004   5.5484e-004   1.0341e+008  -8.2287e+004   2.1916e+006    0.3069   -0.0000    0.0000    0.0002    0.0191
                0.0100   5.3427e-003  -6.9873e-004   4.5309e-004   1.0257e+008  -8.1622e+004   1.7897e+006    0.3044   -0.0000    0.0000    0.0002    0.0156
                0.0542   5.0716e-003  -6.6328e-004   1.6670e-005   9.7365e+007  -7.7577e+004   6.5847e+004    0.2889   -0.0000    0.0000    0.0002    0.0006
                0.0983   4.8009e-003  -6.2788e-004   3.9820e-004   9.2168e+007  -7.3535e+004   1.5729e+006    0.2735   -0.0000    0.0000    0.0002    0.0137
                0.1424   4.4861e-003  -5.8672e-004   7.9013e-004   8.6125e+007  -6.8834e+004   3.1210e+006    0.2556   -0.0000    0.0000    0.0002    0.0271
                0.1864   4.1521e-003  -5.4304e-004   1.1551e-003   7.9712e+007  -6.3850e+004   4.5628e+006    0.2365   -0.0000    0.0000    0.0002    0.0397
                0.2299   3.8208e-003  -4.9972e-004   1.4899e-003   7.3352e+007  -5.8906e+004   5.8852e+006    0.2177   -0.0000    0.0000    0.0002    0.0512
                0.2728   3.4702e-003  -4.5387e-004   1.7942e-003   6.6620e+007  -5.3673e+004   7.0872e+006    0.1977   -0.0000    0.0000    0.0002    0.0616
                0.3149   3.1260e-003  -4.0886e-004   2.0665e-003   6.0012e+007  -4.8540e+004   8.1629e+006    0.1781   -0.0000    0.0000    0.0001    0.0710
                0.3559   2.7953e-003  -3.6562e-004   2.3073e-003   5.3663e+007  -4.3610e+004   9.1137e+006    0.1592   -0.0000    0.0000    0.0001    0.0792
                0.3957   2.4814e-003  -3.2458e-004   2.5177e-003   4.7638e+007  -3.8930e+004   9.9449e+006    0.1414   -0.0000    0.0000    0.0001    0.0865
                0.4342   2.1776e-003  -2.8485e-004   2.7000e-003   4.1805e+007  -3.4402e+004   1.0665e+007    0.1240   -0.0000    0.0000    0.0001    0.0927
                0.4710   1.9183e-003  -2.5094e-004   2.8559e-003   3.6827e+007  -3.0540e+004   1.1281e+007    0.1093   -0.0000    0.0000    0.0001    0.0981
                0.5061   1.6796e-003  -2.1974e-004   2.9890e-003   3.2246e+007  -2.6984e+004   1.1806e+007    0.0957   -0.0000    0.0000    0.0001    0.1027
                0.5395   1.4611e-003  -1.9116e-004   3.1019e-003   2.8050e+007  -2.3731e+004   1.2252e+007    0.0832   -0.0000    0.0000    0.0001    0.1065
                0.5707   1.3011e-003  -1.7024e-004   3.1972e-003   2.4979e+007  -2.1351e+004   1.2629e+007    0.0741   -0.0000    0.0000    0.0001    0.1098
                0.6000   1.1519e-003  -1.5072e-004   3.2783e-003   2.2113e+007  -1.9128e+004   1.2949e+007    0.0656   -0.0000    0.0000    0.0001    0.1126
                0.6270   1.0439e-003  -1.3661e-004   3.3473e-003   2.0041e+007  -1.7524e+004   1.3222e+007    0.0595   -0.0000    0.0000    0.0001    0.1150
                0.6517   9.7216e-004  -1.2722e-004   3.4065e-003   1.8663e+007  -1.6455e+004   1.3456e+007    0.0554   -0.0000    0.0000    0.0000    0.1170
                0.6741   9.0689e-004  -1.1869e-004   3.4577e-003   1.7410e+007  -1.5485e+004   1.3658e+007    0.0517   -0.0000    0.0000    0.0000    0.1188
                0.6941   8.9532e-004  -1.1718e-004   3.5021e-003   1.7188e+007  -1.5315e+004   1.3833e+007    0.0510   -0.0000    0.0000    0.0000    0.1203
                0.7115   8.9058e-004  -1.1656e-004   3.5406e-003   1.7097e+007  -1.5244e+004   1.3985e+007    0.0507   -0.0000    0.0000    0.0000    0.1216
                0.7265   8.9786e-004  -1.1751e-004   3.5739e-003   1.7237e+007  -1.5351e+004   1.4117e+007    0.0511   -0.0000    0.0000    0.0000    0.1228
                0.7389   9.3207e-004  -1.2198e-004   3.6019e-003   1.7894e+007  -1.5858e+004   1.4227e+007    0.0531   -0.0000    0.0000    0.0000    0.1237
                0.7485   9.5908e-004  -1.2551e-004   3.6244e-003   1.8412e+007  -1.6257e+004   1.4316e+007    0.0546   -0.0000    0.0000    0.0000    0.1245
                0.7557   9.9601e-004  -1.3034e-004   3.6415e-003   1.9121e+007  -1.6796e+004   1.4384e+007    0.0567   -0.0000    0.0000    0.0000    0.1251
                0.7600   1.0252e-003  -1.3415e-004   3.6521e-003   1.9681e+007  -1.7222e+004   1.4426e+007    0.0584   -0.0000    0.0000    0.0001    0.1254
                0.7614   1.0344e-003  -1.3535e-004   3.6555e-003   1.9857e+007  -1.7360e+004   1.4439e+007    0.0589   -0.0000    0.0000    0.0001    0.1256

     Web:  panel  nNode   nLam     xc_St    xc_End         b         t         E_eff         G_eff      nu_eff     density  buckleCrit
            (-)    (-)    (-)       (-)       (-)       (m)       (m)          (Pa)          (Pa)         (-)    (kg/m^3)         (-)
              1     10      3    0.2387    0.2387    0.2940    0.0121   6.5707e+009   1.3870e+009      0.1347    691.8994      0.1786
              2     10      3    0.4613    0.4613    0.2736    0.0121   6.5707e+009   1.3870e+009      0.1347    691.8994      0.1637

            panel:  1     
           lam_num    nPlies        tPly      fibAng     matID  matName
               (-)       (-)         (m)       (deg)       (-)  (-)
                 1         1    0.002023      0.0000         7  (web-shell)
                 2         1    0.008047      0.0000         8  (web-core)
                 3         1    0.002023      0.0000         7  (web-shell)

               lamina:  1     
              matName:  (web-shell)
                     s           e11           e22           e12           s11           s22           s12   s11_fcT   s11_fcC   s22_fcT   s22_fcC   s12_fcS
                   (m)         (m/m)         (m/m)         (rad)          (Pa)          (Pa)          (Pa)       (-)       (-)       (-)       (-)       (-)
                0.0000  -5.8234e-003   7.8436e-004   1.3583e-002  -1.1174e+008   5.3332e+005   5.3651e+007    0.0000    0.2248    0.0016   -0.0000    0.4665
                0.0327  -4.5543e-003   6.1342e-004   1.3892e-002  -8.7388e+007   4.1717e+005   5.4873e+007    0.0000    0.1758    0.0012   -0.0000    0.4772
                0.0653  -3.2851e-003   4.4248e-004   1.4127e-002  -6.3036e+007   3.0101e+005   5.5800e+007    0.0000    0.1268    0.0009   -0.0000    0.4852
                0.0980  -2.0160e-003   2.7154e-004   1.4287e-002  -3.8683e+007   1.8485e+005   5.6432e+007    0.0000    0.0778    0.0005   -0.0000    0.4907
                0.1307  -7.4685e-004   1.0061e-004   1.4372e-002  -1.4331e+007   6.8695e+004   5.6768e+007    0.0000    0.0288    0.0002   -0.0000    0.4936
                0.1633   5.2469e-004  -7.0642e-005   1.4382e-002   1.0068e+007  -4.7509e+004   5.6809e+007    0.0299   -0.0000    0.0000    0.0001    0.4940
                0.1960   1.7938e-003  -2.4158e-004   1.4318e-002   3.4420e+007  -1.6367e+005   5.6554e+007    0.1021   -0.0000    0.0000    0.0005    0.4918
                0.2286   3.0630e-003  -4.1252e-004   1.4178e-002   5.8773e+007  -2.7982e+005   5.6004e+007    0.1744   -0.0000    0.0000    0.0008    0.4870
                0.2613   4.3321e-003  -5.8345e-004   1.3964e-002   8.3126e+007  -3.9598e+005   5.5159e+007    0.2467   -0.0000    0.0000    0.0012    0.4796
                0.2940   5.6013e-003  -7.5439e-004   1.3675e-002   1.0748e+008  -5.1214e+005   5.4018e+007    0.3189   -0.0000    0.0000    0.0015    0.4697

               lamina:  2     
              matName:  (web-core)
                     s           e11           e22           e12           s11           s22           s12   s11_fcT   s11_fcC   s22_fcT   s22_fcC   s12_fcS
                   (m)         (m/m)         (m/m)         (rad)          (Pa)          (Pa)          (Pa)       (-)       (-)       (-)       (-)       (-)
                0.0000  -5.8329e-003   7.8560e-004   1.3583e-002  -1.3135e+006  -2.6848e+005   1.3311e+006    0.0000    0.3062    0.0000    0.0626    0.4512
                0.0327  -4.5638e-003   6.1466e-004   1.3892e-002  -1.0277e+006  -2.1007e+005   1.3614e+006    0.0000    0.2396    0.0000    0.0490    0.4615
                0.0653  -3.2946e-003   4.4372e-004   1.4127e-002  -7.4192e+005  -1.5165e+005   1.3844e+006    0.0000    0.1729    0.0000    0.0353    0.4693
                0.0980  -2.0255e-003   2.7279e-004   1.4287e-002  -4.5612e+005  -9.3234e+004   1.4001e+006    0.0000    0.1063    0.0000    0.0217    0.4746
                0.1307  -7.5633e-004   1.0185e-004   1.4372e-002  -1.7032e+005  -3.4817e+004   1.4084e+006    0.0000    0.0397    0.0000    0.0081    0.4774
                0.1633   5.2230e-004  -7.0330e-005   1.4382e-002   1.1762e+005   2.4045e+004   1.4094e+006    0.0274   -0.0000    0.0056   -0.0000    0.4778
                0.1960   1.7915e-003  -2.4127e-004   1.4318e-002   4.0342e+005   8.2462e+004   1.4031e+006    0.0940   -0.0000    0.0192   -0.0000    0.4756
                0.2286   3.0606e-003  -4.1220e-004   1.4178e-002   6.8922e+005   1.4088e+005   1.3895e+006    0.1607   -0.0000    0.0328   -0.0000    0.4710
                0.2613   4.3298e-003  -5.8314e-004   1.3964e-002   9.7502e+005   1.9930e+005   1.3685e+006    0.2273   -0.0000    0.0465   -0.0000    0.4639
                0.2940   5.5989e-003  -7.5408e-004   1.3675e-002   1.2608e+006   2.5771e+005   1.3402e+006    0.2939   -0.0000    0.0601   -0.0000    0.4543

               lamina:  3     
              matName:  (web-shell)
                     s           e11           e22           e12           s11           s22           s12   s11_fcT   s11_fcC   s22_fcT   s22_fcC   s12_fcS
                   (m)         (m/m)         (m/m)         (rad)          (Pa)          (Pa)          (Pa)       (-)       (-)       (-)       (-)       (-)
                0.0000  -5.8353e-003   7.8591e-004   1.3583e-002  -1.1197e+008   5.3356e+005   5.3651e+007    0.0000    0.2253    0.0016   -0.0000    0.4665
                0.0327  -4.5662e-003   6.1497e-004   1.3892e-002  -8.7616e+007   4.1740e+005   5.4873e+007    0.0000    0.1763    0.0012   -0.0000    0.4772
                0.0653  -3.2970e-003   4.4404e-004   1.4127e-002  -6.3263e+007   3.0124e+005   5.5800e+007    0.0000    0.1273    0.0009   -0.0000    0.4852
                0.0980  -2.0279e-003   2.7310e-004   1.4287e-002  -3.8911e+007   1.8508e+005   5.6432e+007    0.0000    0.0783    0.0005   -0.0000    0.4907
                0.1307  -7.5871e-004   1.0216e-004   1.4372e-002  -1.4558e+007   6.8927e+004   5.6768e+007    0.0000    0.0293    0.0002   -0.0000    0.4936
                0.1633   5.1282e-004  -6.9088e-005   1.4382e-002   9.8401e+006  -4.7276e+004   5.6809e+007    0.0292   -0.0000    0.0000    0.0001    0.4940
                0.1960   1.7820e-003  -2.4002e-004   1.4318e-002   3.4193e+007  -1.6343e+005   5.6554e+007    0.1015   -0.0000    0.0000    0.0005    0.4918
                0.2286   3.0511e-003  -4.1096e-004   1.4178e-002   5.8545e+007  -2.7959e+005   5.6004e+007    0.1737   -0.0000    0.0000    0.0008    0.4870
                0.2613   4.3203e-003  -5.8190e-004   1.3964e-002   8.2898e+007  -3.9575e+005   5.5159e+007    0.2460   -0.0000    0.0000    0.0012    0.4796
                0.2940   5.5894e-003  -7.5284e-004   1.3675e-002   1.0725e+008  -5.1190e+005   5.4018e+007    0.3183   -0.0000    0.0000    0.0015    0.4697

            panel:  2     
           lam_num    nPlies        tPly      fibAng     matID  matName
               (-)       (-)         (m)       (deg)       (-)  (-)
                 1         1    0.002023      0.0000         7  (web-shell)
                 2         1    0.008047      0.0000         8  (web-core)
                 3         1    0.002023      0.0000         7  (web-shell)

               lamina:  1     
              matName:  (web-shell)
                     s           e11           e22           e12           s11           s22           s12   s11_fcT   s11_fcC   s22_fcT   s22_fcC   s12_fcS
                   (m)         (m/m)         (m/m)         (rad)          (Pa)          (Pa)          (Pa)       (-)       (-)       (-)       (-)       (-)
                0.0000  -5.4633e-003   7.3585e-004   1.5489e-002  -1.0483e+008   5.0035e+005   6.1182e+007    0.0000    0.2109    0.0015   -0.0000    0.5320
                0.0304  -4.2823e-003   5.7678e-004   1.5756e-002  -8.2168e+007   3.9226e+005   6.2236e+007    0.0000    0.1653    0.0012   -0.0000    0.5412
                0.0608  -3.1012e-003   4.1771e-004   1.5958e-002  -5.9506e+007   2.8416e+005   6.3034e+007    0.0000    0.1197    0.0008   -0.0000    0.5481
                0.0912  -1.9202e-003   2.5864e-004   1.6095e-002  -3.6844e+007   1.7607e+005   6.3576e+007    0.0000    0.0741    0.0005   -0.0000    0.5528
                0.1216  -7.3912e-004   9.9566e-005   1.6168e-002  -1.4182e+007   6.7977e+004   6.3862e+007    0.0000    0.0285    0.0002   -0.0000    0.5553
                0.1520   4.4423e-004  -5.9807e-005   1.6175e-002   8.5241e+006  -4.0161e+004   6.3893e+007    0.0253   -0.0000    0.0000    0.0001    0.5556
                0.1824   1.6253e-003  -2.1888e-004   1.6118e-002   3.1186e+007  -1.4826e+005   6.3668e+007    0.0925   -0.0000    0.0000    0.0004    0.5536
                0.2128   2.8063e-003  -3.7795e-004   1.5997e-002   5.3848e+007  -2.5635e+005   6.3187e+007    0.1598   -0.0000    0.0000    0.0008    0.5495
                0.2432   3.9874e-003  -5.3702e-004   1.5810e-002   7.6510e+007  -3.6444e+005   6.2450e+007    0.2270   -0.0000    0.0000    0.0011    0.5430
                0.2736   5.1684e-003  -6.9609e-004   1.5559e-002   9.9172e+007  -4.7254e+005   6.1458e+007    0.2943   -0.0000    0.0000    0.0014    0.5344

               lamina:  2     
              matName:  (web-core)
                     s           e11           e22           e12           s11           s22           s12   s11_fcT   s11_fcC   s22_fcT   s22_fcC   s12_fcS
                   (m)         (m/m)         (m/m)         (rad)          (Pa)          (Pa)          (Pa)       (-)       (-)       (-)       (-)       (-)
                0.0000  -5.4725e-003   7.3705e-004   1.5489e-002  -1.2323e+006  -2.5189e+005   1.5179e+006    0.0000    0.2873    0.0000    0.0587    0.5146
                0.0304  -4.2914e-003   5.7798e-004   1.5756e-002  -9.6639e+005  -1.9753e+005   1.5441e+006    0.0000    0.2253    0.0000    0.0460    0.5234
                0.0608  -3.1104e-003   4.1891e-004   1.5958e-002  -7.0043e+005  -1.4317e+005   1.5639e+006    0.0000    0.1633    0.0000    0.0334    0.5301
                0.0912  -1.9294e-003   2.5984e-004   1.6095e-002  -4.3447e+005  -8.8809e+004   1.5773e+006    0.0000    0.1013    0.0000    0.0207    0.5347
                0.1216  -7.4830e-004   1.0077e-004   1.6168e-002  -1.6851e+005  -3.4447e+004   1.5844e+006    0.0000    0.0393    0.0000    0.0080    0.5371
                0.1520   4.4193e-004  -5.9504e-005   1.6175e-002   9.9518e+004   2.0345e+004   1.5852e+006    0.0232   -0.0000    0.0047   -0.0000    0.5374
                0.1824   1.6230e-003  -2.1858e-004   1.6118e-002   3.6548e+005   7.4707e+004   1.5796e+006    0.0852   -0.0000    0.0174   -0.0000    0.5355
                0.2128   2.8040e-003  -3.7765e-004   1.5997e-002   6.3144e+005   1.2907e+005   1.5677e+006    0.1472   -0.0000    0.0301   -0.0000    0.5314
                0.2432   3.9851e-003  -5.3672e-004   1.5810e-002   8.9740e+005   1.8343e+005   1.5494e+006    0.2092   -0.0000    0.0428   -0.0000    0.5252
                0.2736   5.1661e-003  -6.9579e-004   1.5559e-002   1.1634e+006   2.3779e+005   1.5248e+006    0.2712   -0.0000    0.0554   -0.0000    0.5169

               lamina:  3     
              matName:  (web-shell)
                     s           e11           e22           e12           s11           s22           s12   s11_fcT   s11_fcC   s22_fcT   s22_fcC   s12_fcS
                   (m)         (m/m)         (m/m)         (rad)          (Pa)          (Pa)          (Pa)       (-)       (-)       (-)       (-)       (-)
                0.0000  -5.4748e-003   7.3736e-004   1.5489e-002  -1.0505e+008   5.0058e+005   6.1182e+007    0.0000    0.2114    0.0015   -0.0000    0.5320
                0.0304  -4.2938e-003   5.7828e-004   1.5756e-002  -8.2389e+007   3.9248e+005   6.2236e+007    0.0000    0.1658    0.0012   -0.0000    0.5412
                0.0608  -3.1127e-003   4.1921e-004   1.5958e-002  -5.9727e+007   2.8439e+005   6.3034e+007    0.0000    0.1202    0.0008   -0.0000    0.5481
                0.0912  -1.9317e-003   2.6014e-004   1.6095e-002  -3.7065e+007   1.7630e+005   6.3576e+007    0.0000    0.0746    0.0005   -0.0000    0.5528
                0.1216  -7.5061e-004   1.0107e-004   1.6168e-002  -1.4403e+007   6.8202e+004   6.3862e+007    0.0000    0.0290    0.0002   -0.0000    0.5553
                0.1520   4.3274e-004  -5.8301e-005   1.6175e-002   8.3035e+006  -3.9936e+004   6.3893e+007    0.0246   -0.0000    0.0000    0.0001    0.5556
                0.1824   1.6138e-003  -2.1737e-004   1.6118e-002   3.0966e+007  -1.4803e+005   6.3668e+007    0.0919   -0.0000    0.0000    0.0004    0.5536
                0.2128   2.7948e-003  -3.7644e-004   1.5997e-002   5.3628e+007  -2.5612e+005   6.3187e+007    0.1591   -0.0000    0.0000    0.0008    0.5495
                0.2432   3.9759e-003  -5.3551e-004   1.5810e-002   7.6290e+007  -3.6422e+005   6.2450e+007    0.2264   -0.0000    0.0000    0.0011    0.5430
                0.2736   5.1569e-003  -6.9458e-004   1.5559e-002   9.8952e+007  -4.7231e+005   6.1458e+007    0.2936   -0.0000    0.0000    0.0014    0.5344

================================================================================
sec        =  15     
zSec       =  4.2030  (m)
nPanelsTop =  3      
nPanelsBot =  3      
nWebs      =  2      

    Top:  panel  nNode   nLam     xc_St    xc_End         b         t         E_eff         G_eff      nu_eff     density  buckleCrit
            (-)    (-)    (-)       (-)       (-)       (m)       (m)          (Pa)          (Pa)         (-)    (kg/m^3)         (-)
              1     18      3    0.0000    0.2386    0.3741    0.0095   1.8740e+010   3.8566e+009      0.1301   1634.3549      0.3074
              2      9      5    0.2386    0.4614    0.2987    0.0150   5.8433e+010   4.2250e+009      0.1669   1589.8386      0.4319
              3     28      3    0.4614    1.0000    0.7443    0.0121   1.4712e+010   3.0391e+009      0.1307   1322.3899      0.8484

            panel:  1     
           lam_num    nPlies        tPly      fibAng     matID  matName
               (-)       (-)         (m)       (deg)       (-)  (-)
                 1         1    0.004628      0.0000         2  (blade-shell)
                 2         1    0.000230      0.0000         5  (LEP-core)
                 3         1    0.004628      0.0000         2  (blade-shell)

               lamina:  1     
              matName:  (blade-shell)
                     s           e11           e22           e12           s11           s22           s12   s11_fcT   s11_fcC   s22_fcT   s22_fcC   s12_fcS
                   (m)         (m/m)         (m/m)         (rad)          (Pa)          (Pa)          (Pa)       (-)       (-)       (-)       (-)       (-)
                0.0000   4.4349e-004  -5.7681e-005   6.9018e-003   8.5150e+006  -5.2448e+002   2.7262e+007    0.0253   -0.0000    0.0000    0.0000    0.2371
                0.0043   2.8348e-004  -3.6869e-005   6.9039e-003   5.4427e+006  -3.3711e+002   2.7270e+007    0.0162   -0.0000    0.0000    0.0000    0.2371
                0.0167  -3.9305e-004   5.1107e-005   6.9022e-003  -7.5465e+006   2.1284e+002   2.7264e+007    0.0000    0.0152    0.0000   -0.0000    0.2371
                0.0322  -1.0414e-003   1.3542e-004   6.8843e-003  -1.9995e+007   8.6770e+002   2.7193e+007    0.0000    0.0402    0.0000   -0.0000    0.2365
                0.0455  -1.5022e-003   1.9535e-004   6.8565e-003  -2.8841e+007   1.3244e+003   2.7083e+007    0.0000    0.0580    0.0000   -0.0000    0.2355
                0.0630  -2.0528e-003   2.6697e-004   6.8040e-003  -3.9414e+007   1.9319e+003   2.6876e+007    0.0000    0.0793    0.0000   -0.0000    0.2337
                0.0811  -2.5435e-003   3.3078e-004   6.7325e-003  -4.8834e+007   2.4600e+003   2.6593e+007    0.0000    0.0983    0.0000   -0.0000    0.2312
                0.1017  -3.0281e-003   3.9381e-004   6.6324e-003  -5.8139e+007   3.0127e+003   2.6198e+007    0.0000    0.1170    0.0000   -0.0000    0.2278
                0.1248  -3.5692e-003   4.6419e-004   6.4979e-003  -6.8529e+007   3.6169e+003   2.5667e+007    0.0000    0.1379    0.0000   -0.0000    0.2232
                0.1484  -3.9916e-003   5.1912e-004   6.3386e-003  -7.6638e+007   4.0888e+003   2.5037e+007    0.0000    0.1542    0.0000   -0.0000    0.2177
                0.1748  -4.4485e-003   5.7854e-004   6.1389e-003  -8.5410e+007   4.6157e+003   2.4249e+007    0.0000    0.1719    0.0000   -0.0000    0.2109
                0.2026  -4.8765e-003   6.3421e-004   5.9045e-003  -9.3628e+007   5.1018e+003   2.3323e+007    0.0000    0.1884    0.0000   -0.0000    0.2028
                0.2320  -5.2483e-003   6.8256e-004   5.6341e-003  -1.0077e+008   5.5303e+003   2.2255e+007    0.0000    0.2027    0.0000   -0.0000    0.1935
                0.2634  -5.6465e-003   7.3435e-004   5.3224e-003  -1.0841e+008   5.9879e+003   2.1023e+007    0.0000    0.2181    0.0000   -0.0000    0.1828
                0.2958  -5.9437e-003   7.7300e-004   4.9793e-003  -1.1412e+008   6.3275e+003   1.9668e+007    0.0000    0.2296    0.0000   -0.0000    0.1710
                0.3300  -6.2292e-003   8.1013e-004   4.5986e-003  -1.1960e+008   6.6593e+003   1.8165e+007    0.0000    0.2406    0.0000   -0.0000    0.1580
                0.3656  -6.4973e-003   8.4501e-004   4.1835e-003  -1.2475e+008   6.9701e+003   1.6525e+007    0.0000    0.2510    0.0000   -0.0000    0.1437
                0.3741  -6.5391e-003   8.5044e-004   4.0810e-003  -1.2555e+008   7.0132e+003   1.6120e+007    0.0000    0.2526    0.0000   -0.0000    0.1402

               lamina:  2     
              matName:  (LEP-core)
                     s           e11           e22           e12           s11           s22           s12   s11_fcT   s11_fcC   s22_fcT   s22_fcC   s12_fcS
                   (m)         (m/m)         (m/m)         (rad)          (Pa)          (Pa)          (Pa)       (-)       (-)       (-)       (-)       (-)
                0.0000   4.5234e-004  -5.8832e-005   6.9018e-003   1.0203e+005   2.1314e+004   6.7638e+005    0.0238   -0.0000    0.0050   -0.0000    0.2293
                0.0043   2.9233e-004  -3.8020e-005   6.9039e-003   6.5934e+004   1.3774e+004   6.7658e+005    0.0154   -0.0000    0.0032   -0.0000    0.2293
                0.0167  -1.8678e-004   2.4292e-005   6.9022e-003  -4.2127e+004  -8.8007e+003   6.7641e+005    0.0000    0.0098    0.0000    0.0021    0.2293
                0.0322  -7.4814e-004   9.7302e-005   6.8843e-003  -1.6874e+005  -3.5251e+004   6.7466e+005    0.0000    0.0393    0.0000    0.0082    0.2287
                0.0455  -1.1398e-003   1.4825e-004   6.8565e-003  -2.5709e+005  -5.3707e+004   6.7194e+005    0.0000    0.0599    0.0000    0.0125    0.2278
                0.0630  -1.6594e-003   2.1582e-004   6.8040e-003  -3.7427e+005  -7.8188e+004   6.6679e+005    0.0000    0.0872    0.0000    0.0182    0.2260
                0.0811  -2.1114e-003   2.7461e-004   6.7325e-003  -4.7622e+005  -9.9486e+004   6.5979e+005    0.0000    0.1110    0.0000    0.0232    0.2237
                0.1017  -2.5837e-003   3.3603e-004   6.6324e-003  -5.8275e+005  -1.2174e+005   6.4998e+005    0.0000    0.1358    0.0000    0.0284    0.2203
                0.1248  -3.1003e-003   4.0322e-004   6.4979e-003  -6.9927e+005  -1.4608e+005   6.3679e+005    0.0000    0.1630    0.0000    0.0341    0.2159
                0.1484  -3.5037e-003   4.5570e-004   6.3386e-003  -7.9027e+005  -1.6509e+005   6.2118e+005    0.0000    0.1842    0.0000    0.0385    0.2106
                0.1748  -3.9538e-003   5.1423e-004   6.1389e-003  -8.9178e+005  -1.8630e+005   6.0161e+005    0.0000    0.2079    0.0000    0.0434    0.2039
                0.2026  -4.3693e-003   5.6827e-004   5.9045e-003  -9.8549e+005  -2.0588e+005   5.7864e+005    0.0000    0.2297    0.0000    0.0480    0.1961
                0.2320  -4.7354e-003   6.1588e-004   5.6341e-003  -1.0681e+006  -2.2312e+005   5.5215e+005    0.0000    0.2490    0.0000    0.0520    0.1872
                0.2634  -5.1264e-003   6.6674e-004   5.3224e-003  -1.1563e+006  -2.4155e+005   5.2159e+005    0.0000    0.2695    0.0000    0.0563    0.1768
                0.2958  -5.4166e-003   7.0448e-004   4.9793e-003  -1.2217e+006  -2.5522e+005   4.8797e+005    0.0000    0.2848    0.0000    0.0595    0.1654
                0.3300  -5.6999e-003   7.4133e-004   4.5986e-003  -1.2856e+006  -2.6857e+005   4.5066e+005    0.0000    0.2997    0.0000    0.0626    0.1528
                0.3656  -5.9655e-003   7.7587e-004   4.1835e-003  -1.3455e+006  -2.8109e+005   4.0998e+005    0.0000    0.3136    0.0000    0.0655    0.1390
                0.3741  -6.0024e-003   7.8067e-004   4.0810e-003  -1.3538e+006  -2.8282e+005   3.9993e+005    0.0000    0.3156    0.0000    0.0659    0.1356

               lamina:  3     
              matName:  (blade-shell)
                     s           e11           e22           e12           s11           s22           s12   s11_fcT   s11_fcC   s22_fcT   s22_fcC   s12_fcS
                   (m)         (m/m)         (m/m)         (rad)          (Pa)          (Pa)          (Pa)       (-)       (-)       (-)       (-)       (-)
                0.0000   6.3043e-004  -8.1983e-005   6.9018e-003   1.2104e+007  -5.2461e+002   2.7262e+007    0.0359   -0.0000    0.0000    0.0000    0.2371
                0.0043   4.7041e-004  -6.1171e-005   6.9039e-003   9.0319e+006  -3.3724e+002   2.7270e+007    0.0268   -0.0000    0.0000    0.0000    0.2371
                0.0167  -1.7652e-004   2.2959e-005   6.9022e-003  -3.3892e+006   2.1270e+002   2.7264e+007    0.0000    0.0068    0.0000   -0.0000    0.2371
                0.0322  -7.3356e-004   9.5408e-005   6.8843e-003  -1.4084e+007   8.6749e+002   2.7193e+007    0.0000    0.0283    0.0000   -0.0000    0.2365
                0.0455  -1.1218e-003   1.4591e-004   6.8565e-003  -2.1539e+007   1.3241e+003   2.7083e+007    0.0000    0.0433    0.0000   -0.0000    0.2355
                0.0630  -1.6398e-003   2.1328e-004   6.8040e-003  -3.1484e+007   1.9316e+003   2.6876e+007    0.0000    0.0633    0.0000   -0.0000    0.2337
                0.0811  -2.0899e-003   2.7181e-004   6.7325e-003  -4.0126e+007   2.4597e+003   2.6593e+007    0.0000    0.0807    0.0000   -0.0000    0.2312
                0.1017  -2.5616e-003   3.3316e-004   6.6324e-003  -4.9182e+007   3.0124e+003   2.6198e+007    0.0000    0.0990    0.0000   -0.0000    0.2278
                0.1248  -3.0770e-003   4.0019e-004   6.4979e-003  -5.9077e+007   3.6166e+003   2.5667e+007    0.0000    0.1189    0.0000   -0.0000    0.2232
                0.1484  -3.4795e-003   4.5254e-004   6.3386e-003  -6.6806e+007   4.0885e+003   2.5037e+007    0.0000    0.1344    0.0000   -0.0000    0.2177
                0.1748  -3.9292e-003   5.1104e-004   6.1389e-003  -7.5441e+007   4.6153e+003   2.4249e+007    0.0000    0.1518    0.0000   -0.0000    0.2109
                0.2026  -4.3441e-003   5.6499e-004   5.9045e-003  -8.3406e+007   5.1014e+003   2.3323e+007    0.0000    0.1678    0.0000   -0.0000    0.2028
                0.2320  -4.7099e-003   6.1257e-004   5.6341e-003  -9.0429e+007   5.5299e+003   2.2255e+007    0.0000    0.1819    0.0000   -0.0000    0.1935
                0.2634  -5.1005e-003   6.6338e-004   5.3224e-003  -9.7930e+007   5.9876e+003   2.1023e+007    0.0000    0.1970    0.0000   -0.0000    0.1828
                0.2958  -5.3904e-003   7.0107e-004   4.9793e-003  -1.0349e+008   6.3271e+003   1.9668e+007    0.0000    0.2082    0.0000   -0.0000    0.1710
                0.3300  -5.6736e-003   7.3791e-004   4.5986e-003  -1.0893e+008   6.6589e+003   1.8165e+007    0.0000    0.2192    0.0000   -0.0000    0.1580
                0.3656  -5.9390e-003   7.7243e-004   4.1835e-003  -1.1403e+008   6.9697e+003   1.6525e+007    0.0000    0.2294    0.0000   -0.0000    0.1437
                0.3741  -5.9757e-003   7.7720e-004   4.0810e-003  -1.1473e+008   7.0128e+003   1.6120e+007    0.0000    0.2309    0.0000   -0.0000    0.1402

            panel:  2     
           lam_num    nPlies        tPly      fibAng     matID  matName
               (-)       (-)         (m)       (deg)       (-)  (-)
                 1         1    0.004628      0.0000         2  (blade-shell)
                 2         1    0.002824      0.0000         3  (spar-uni)
                 3         1    0.000047      0.0000         4  (spar-core)
                 4         1    0.002824      0.0000         3  (spar-uni)
                 5         1    0.004628      0.0000         2  (blade-shell)

               lamina:  1     
              matName:  (blade-shell)
                     s           e11           e22           e12           s11           s22           s12   s11_fcT   s11_fcC   s22_fcT   s22_fcC   s12_fcS
                   (m)         (m/m)         (m/m)         (rad)          (Pa)          (Pa)          (Pa)       (-)       (-)       (-)       (-)       (-)
                0.0000  -7.9608e-003   1.2610e-003   5.9454e-003  -1.5227e+008   4.4152e+006   2.3485e+007    0.0000    0.3064    0.0131   -0.0000    0.2042
                0.0278  -8.0813e-003   1.2811e-003   5.0050e-003  -1.5458e+008   4.5020e+006   1.9770e+007    0.0000    0.3110    0.0134   -0.0000    0.1719
                0.0655  -8.2512e-003   1.3092e-003   3.6998e-003  -1.5782e+008   4.6205e+006   1.4614e+007    0.0000    0.3175    0.0137   -0.0000    0.1271
                0.1039  -8.3274e-003   1.3218e-003   2.3455e-003  -1.5928e+008   4.6719e+006   9.2649e+006    0.0000    0.3205    0.0139   -0.0000    0.0806
                0.1434  -8.3290e-003   1.3220e-003   9.4508e-004  -1.5931e+008   4.6727e+006   3.7331e+006    0.0000    0.3205    0.0139   -0.0000    0.0325
                0.1836  -8.3279e-003   1.3219e-003   4.7553e-004  -1.5929e+008   4.6735e+006   1.8783e+006    0.0000    0.3205    0.0139   -0.0000    0.0163
                0.2246  -8.1605e-003   1.2943e-003   1.9029e-003  -1.5609e+008   4.5579e+006   7.5165e+006    0.0000    0.3141    0.0135   -0.0000    0.0654
                0.2663  -7.9865e-003   1.2653e-003   3.3170e-003  -1.5276e+008   4.4344e+006   1.3102e+007    0.0000    0.3074    0.0132   -0.0000    0.1139
                0.2987  -7.8176e-003   1.2372e-003   4.3821e-003  -1.4954e+008   4.3150e+006   1.7309e+007    0.0000    0.3009    0.0128   -0.0000    0.1505

               lamina:  2     
              matName:  (spar-uni)
                     s           e11           e22           e12           s11           s22           s12   s11_fcT   s11_fcC   s22_fcT   s22_fcC   s12_fcS
                   (m)         (m/m)         (m/m)         (rad)          (Pa)          (Pa)          (Pa)       (-)       (-)       (-)       (-)       (-)
                0.0000  -6.6731e-003   1.0880e-003   5.9454e-003  -8.2330e+008  -8.0934e+006   2.8003e+007    0.0000    0.8233    0.0000    0.1351    0.2719
                0.0278  -6.7936e-003   1.1081e-003   5.0050e-003  -8.3816e+008  -8.2357e+006   2.3573e+007    0.0000    0.8382    0.0000    0.1375    0.2289
                0.0655  -6.9596e-003   1.1357e-003   3.6998e-003  -8.5865e+008  -8.4324e+006   1.7426e+007    0.0000    0.8586    0.0000    0.1408    0.1692
                0.1039  -7.0324e-003   1.1478e-003   2.3455e-003  -8.6762e+008  -8.5189e+006   1.1047e+007    0.0000    0.8676    0.0000    0.1422    0.1073
                0.1434  -7.0336e-003   1.1480e-003   9.4508e-004  -8.6777e+008  -8.5204e+006   4.4513e+006    0.0000    0.8678    0.0000    0.1422    0.0432
                0.1836  -7.0340e-003   1.1481e-003   4.7553e-004  -8.6783e+008  -8.5207e+006   2.2398e+006    0.0000    0.8678    0.0000    0.1422    0.0217
                0.2246  -6.8716e-003   1.1211e-003   1.9029e-003  -8.4779e+008  -8.3281e+006   8.9627e+006    0.0000    0.8478    0.0000    0.1390    0.0870
                0.2663  -6.6995e-003   1.0924e-003   3.3170e-003  -8.2655e+008  -8.1244e+006   1.5623e+007    0.0000    0.8266    0.0000    0.1356    0.1517
                0.2987  -6.5328e-003   1.0646e-003   4.3821e-003  -8.0600e+008  -7.9273e+006   2.0640e+007    0.0000    0.8060    0.0000    0.1323    0.2004

               lamina:  3     
              matName:  (spar-core)
                     s           e11           e22           e12           s11           s22           s12   s11_fcT   s11_fcC   s22_fcT   s22_fcC   s12_fcS
                   (m)         (m/m)         (m/m)         (rad)          (Pa)          (Pa)          (Pa)       (-)       (-)       (-)       (-)       (-)
                0.0000  -5.8874e-003   9.8243e-004   5.9454e-003  -1.3110e+006  -2.2633e+005   5.8265e+005    0.0000    0.3056    0.0000    0.0528    0.1975
                0.0278  -6.0078e-003   1.0025e-003   5.0050e-003  -1.3379e+006  -2.3096e+005   4.9049e+005    0.0000    0.3119    0.0000    0.0538    0.1663
                0.0655  -6.1715e-003   1.0299e-003   3.6998e-003  -1.3743e+006  -2.3725e+005   3.6258e+005    0.0000    0.3204    0.0000    0.0553    0.1229
                0.1039  -6.2421e-003   1.0416e-003   2.3455e-003  -1.3900e+006  -2.3997e+005   2.2986e+005    0.0000    0.3240    0.0000    0.0559    0.0779
                0.1434  -6.2431e-003   1.0418e-003   9.4508e-004  -1.3903e+006  -2.4001e+005   9.2618e+004    0.0000    0.3241    0.0000    0.0559    0.0314
                0.1836  -6.2445e-003   1.0420e-003   4.7553e-004  -1.3906e+006  -2.4006e+005   4.6602e+004    0.0000    0.3241    0.0000    0.0560    0.0158
                0.2246  -6.0852e-003   1.0154e-003   1.9029e-003  -1.3551e+006  -2.3394e+005   1.8648e+005    0.0000    0.3159    0.0000    0.0545    0.0632
                0.2663  -5.9142e-003   9.8690e-004   3.3170e-003  -1.3170e+006  -2.2736e+005   3.2507e+005    0.0000    0.3070    0.0000    0.0530    0.1102
                0.2987  -5.7489e-003   9.5932e-004   4.3821e-003  -1.2802e+006  -2.2101e+005   4.2945e+005    0.0000    0.2984    0.0000    0.0515    0.1456

               lamina:  4     
              matName:  (spar-uni)
                     s           e11           e22           e12           s11           s22           s12   s11_fcT   s11_fcC   s22_fcT   s22_fcC   s12_fcS
                   (m)         (m/m)         (m/m)         (rad)          (Pa)          (Pa)          (Pa)       (-)       (-)       (-)       (-)       (-)
                0.0000  -5.8743e-003   9.8067e-004   5.9454e-003  -7.2469e+008  -6.9354e+006   2.8003e+007    0.0000    0.7247    0.0000    0.1158    0.2719
                0.0278  -5.9948e-003   1.0008e-003   5.0050e-003  -7.3955e+008  -7.0777e+006   2.3573e+007    0.0000    0.7396    0.0000    0.1182    0.2289
                0.0655  -6.1584e-003   1.0281e-003   3.6998e-003  -7.5974e+008  -7.2710e+006   1.7426e+007    0.0000    0.7597    0.0000    0.1214    0.1692
                0.1039  -6.2290e-003   1.0399e-003   2.3455e-003  -7.6845e+008  -7.3543e+006   1.1047e+007    0.0000    0.7684    0.0000    0.1228    0.1073
                0.1434  -6.2300e-003   1.0400e-003   9.4508e-004  -7.6857e+008  -7.3554e+006   4.4513e+006    0.0000    0.7686    0.0000    0.1228    0.0432
                0.1836  -6.2314e-003   1.0403e-003   4.7553e-004  -7.6875e+008  -7.3572e+006   2.2398e+006    0.0000    0.7687    0.0000    0.1228    0.0217
                0.2246  -6.0721e-003   1.0137e-003   1.9029e-003  -7.4909e+008  -7.1690e+006   8.9627e+006    0.0000    0.7491    0.0000    0.1197    0.0870
                0.2663  -5.9011e-003   9.8515e-004   3.3170e-003  -7.2800e+008  -6.9671e+006   1.5623e+007    0.0000    0.7280    0.0000    0.1163    0.1517
                0.2987  -5.7359e-003   9.5757e-004   4.3821e-003  -7.0761e+008  -6.7720e+006   2.0640e+007    0.0000    0.7076    0.0000    0.1131    0.2004

               lamina:  5     
              matName:  (blade-shell)
                     s           e11           e22           e12           s11           s22           s12   s11_fcT   s11_fcC   s22_fcT   s22_fcC   s12_fcS
                   (m)         (m/m)         (m/m)         (rad)          (Pa)          (Pa)          (Pa)       (-)       (-)       (-)       (-)       (-)
                0.0000  -5.0886e-003   8.7512e-004   5.9454e-003  -9.7158e+007   4.1716e+006   2.3485e+007    0.0000    0.1955    0.0124   -0.0000    0.2042
                0.0278  -5.2091e-003   8.9522e-004   5.0050e-003  -9.9460e+007   4.2585e+006   1.9770e+007    0.0000    0.2001    0.0126   -0.0000    0.1719
                0.0655  -5.3704e-003   9.2222e-004   3.6998e-003  -1.0254e+008   4.3762e+006   1.4614e+007    0.0000    0.2063    0.0130   -0.0000    0.1271
                0.1039  -5.4388e-003   9.3372e-004   2.3455e-003  -1.0385e+008   4.4269e+006   9.2649e+006    0.0000    0.2090    0.0131   -0.0000    0.0806
                0.1434  -5.4396e-003   9.3385e-004   9.4508e-004  -1.0386e+008   4.4276e+006   3.7331e+006    0.0000    0.2090    0.0131   -0.0000    0.0325
                0.1836  -5.4419e-003   9.3422e-004   4.7553e-004  -1.0391e+008   4.4287e+006   1.8783e+006    0.0000    0.2091    0.0131   -0.0000    0.0163
                0.2246  -5.2857e-003   9.0803e-004   1.9029e-003  -1.0092e+008   4.3141e+006   7.5165e+006    0.0000    0.2031    0.0128   -0.0000    0.0654
                0.2663  -5.1158e-003   8.7965e-004   3.3170e-003  -9.7679e+007   4.1910e+006   1.3102e+007    0.0000    0.1965    0.0124   -0.0000    0.1139
                0.2987  -4.9520e-003   8.5225e-004   4.3821e-003  -9.4548e+007   4.0720e+006   1.7309e+007    0.0000    0.1902    0.0121   -0.0000    0.1505

            panel:  3     
           lam_num    nPlies        tPly      fibAng     matID  matName
               (-)       (-)         (m)       (deg)       (-)  (-)
                 1         1    0.004628      0.0000         2  (blade-shell)
                 2         1    0.002867      0.0000         6  (TEP-core)
                 3         1    0.004628      0.0000         2  (blade-shell)

               lamina:  1     
              matName:  (blade-shell)
                     s           e11           e22           e12           s11           s22           s12   s11_fcT   s11_fcC   s22_fcT   s22_fcC   s12_fcS
                   (m)         (m/m)         (m/m)         (rad)          (Pa)          (Pa)          (Pa)       (-)       (-)       (-)       (-)       (-)
                0.0000  -6.3561e-003   8.3063e-004   5.2355e-004  -1.2203e+008   8.4676e+004   2.0680e+006    0.0000    0.2455    0.0003   -0.0000    0.0180
                0.0095  -6.3041e-003   8.2383e-004   6.3203e-004  -1.2103e+008   8.3971e+004   2.4965e+006    0.0000    0.2435    0.0002   -0.0000    0.0217
                0.0522  -5.9940e-003   7.8329e-004   1.1033e-003  -1.1507e+008   7.9476e+004   4.3580e+006    0.0000    0.2315    0.0002   -0.0000    0.0379
                0.0949  -5.6832e-003   7.4266e-004   1.5471e-003  -1.0911e+008   7.4986e+004   6.1109e+006    0.0000    0.2195    0.0002   -0.0000    0.0531
                0.1376  -5.3047e-003   6.9317e-004   1.9621e-003  -1.0184e+008   6.9529e+004   7.7504e+006    0.0000    0.2049    0.0002   -0.0000    0.0674
                0.1803  -4.8989e-003   6.4012e-004   2.3429e-003  -9.4051e+007   6.3646e+004   9.2545e+006    0.0000    0.1892    0.0002   -0.0000    0.0805
                0.2224  -4.4939e-003   5.8716e-004   2.6845e-003  -8.6275e+007   5.7792e+004   1.0604e+007    0.0000    0.1736    0.0002   -0.0000    0.0922
                0.2642  -4.0348e-003   5.2714e-004   2.9873e-003  -7.7461e+007   5.1152e+004   1.1800e+007    0.0000    0.1559    0.0002   -0.0000    0.1026
                0.3053  -3.5862e-003   4.6849e-004   3.2471e-003  -6.8849e+007   4.4636e+004   1.2826e+007    0.0000    0.1385    0.0001   -0.0000    0.1115
                0.3454  -3.1367e-003   4.0973e-004   3.4646e-003  -6.0220e+007   3.8118e+004   1.3685e+007    0.0000    0.1212    0.0001   -0.0000    0.1190
                0.3844  -2.6852e-003   3.5069e-004   3.6411e-003  -5.1552e+007   3.1562e+004   1.4382e+007    0.0000    0.1037    0.0001   -0.0000    0.1251
                0.4222  -2.2495e-003   2.9372e-004   3.7780e-003  -4.3187e+007   2.5224e+004   1.4923e+007    0.0000    0.0869    0.0001   -0.0000    0.1298
                0.4585  -1.8328e-003   2.3924e-004   3.8784e-003  -3.5187e+007   1.9162e+004   1.5320e+007    0.0000    0.0708    0.0001   -0.0000    0.1332
                0.4931  -1.4352e-003   1.8727e-004   3.9459e-003  -2.7555e+007   1.3378e+004   1.5586e+007    0.0000    0.0554    0.0000   -0.0000    0.1355
                0.5260  -1.0615e-003   1.3840e-004   3.9844e-003  -2.0379e+007   7.9257e+003   1.5738e+007    0.0000    0.0410    0.0000   -0.0000    0.1369
                0.5569  -7.2493e-004   9.4396e-005   3.9983e-003  -1.3918e+007   3.0177e+003   1.5793e+007    0.0000    0.0280    0.0000   -0.0000    0.1373
                0.5858  -4.1013e-004   5.3237e-005   3.9923e-003  -7.8747e+006  -1.8330e+003   1.5770e+007    0.0000    0.0158    0.0000    0.0000    0.1371
                0.6126   2.8371e-004  -3.7185e-005   3.9707e-003   5.4465e+006  -5.9134e+003   1.5684e+007    0.0162   -0.0000    0.0000    0.0000    0.1364
                0.6370   5.2999e-004  -6.9385e-005   3.9379e-003   1.0175e+007  -9.4976e+003   1.5555e+007    0.0302   -0.0000    0.0000    0.0000    0.1353
                0.6592   7.5315e-004  -9.8562e-005   3.8977e-003   1.4459e+007  -1.2747e+004   1.5396e+007    0.0429   -0.0000    0.0000    0.0000    0.1339
                0.6789   9.3553e-004  -1.2241e-004   3.8538e-003   1.7960e+007  -1.5405e+004   1.5223e+007    0.0533   -0.0000    0.0000    0.0000    0.1324
                0.6961   1.0930e-003  -1.4300e-004   3.8097e-003   2.0984e+007  -1.7697e+004   1.5048e+007    0.0623   -0.0000    0.0000    0.0001    0.1309
                0.7107   1.2253e-003  -1.6030e-004   3.7677e-003   2.3524e+007  -1.9624e+004   1.4882e+007    0.0698   -0.0000    0.0000    0.0001    0.1294
                0.7228   1.3289e-003  -1.7383e-004   3.7303e-003   2.5512e+007  -2.1132e+004   1.4735e+007    0.0757   -0.0000    0.0000    0.0001    0.1281
                0.7322   1.4096e-003  -1.8439e-004   3.6995e-003   2.7062e+007  -2.2305e+004   1.4613e+007    0.0803   -0.0000    0.0000    0.0001    0.1271
                0.7389   1.4699e-003  -1.9227e-004   3.6765e-003   2.8219e+007  -2.3179e+004   1.4522e+007    0.0837   -0.0000    0.0000    0.0001    0.1263
                0.7429   1.5073e-003  -1.9716e-004   3.6622e-003   2.8936e+007  -2.3720e+004   1.4466e+007    0.0859   -0.0000    0.0000    0.0001    0.1258
                0.7443   1.5198e-003  -1.9879e-004   3.6573e-003   2.9176e+007  -2.3902e+004   1.4446e+007    0.0866   -0.0000    0.0000    0.0001    0.1256

               lamina:  2     
              matName:  (TEP-core)
                     s           e11           e22           e12           s11           s22           s12   s11_fcT   s11_fcC   s22_fcT   s22_fcC   s12_fcS
                   (m)         (m/m)         (m/m)         (rad)          (Pa)          (Pa)          (Pa)       (-)       (-)       (-)       (-)       (-)
                0.0000  -5.9302e-003   7.7524e-004   5.2355e-004  -1.3372e+006  -2.7849e+005   5.1308e+004    0.0000    0.3117    0.0000    0.0649    0.0174
                0.0095  -5.8810e-003   7.6881e-004   6.3203e-004  -1.3261e+006  -2.7618e+005   6.1939e+004    0.0000    0.3091    0.0000    0.0644    0.0210
                0.0522  -5.5717e-003   7.2837e-004   1.1033e-003  -1.2564e+006  -2.6165e+005   1.0812e+005    0.0000    0.2929    0.0000    0.0610    0.0367
                0.0949  -5.2626e-003   6.8796e-004   1.5471e-003  -1.1867e+006  -2.4714e+005   1.5161e+005    0.0000    0.2766    0.0000    0.0576    0.0514
                0.1376  -4.8866e-003   6.3881e-004   1.9621e-003  -1.1019e+006  -2.2948e+005   1.9229e+005    0.0000    0.2569    0.0000    0.0535    0.0652
                0.1803  -4.4819e-003   5.8589e-004   2.3429e-003  -1.0107e+006  -2.1048e+005   2.2960e+005    0.0000    0.2356    0.0000    0.0491    0.0778
                0.2224  -4.0788e-003   5.3319e-004   2.6845e-003  -9.1976e+005  -1.9155e+005   2.6308e+005    0.0000    0.2144    0.0000    0.0447    0.0892
                0.2642  -3.6218e-003   4.7344e-004   2.9873e-003  -8.1670e+005  -1.7009e+005   2.9275e+005    0.0000    0.1904    0.0000    0.0396    0.0992
                0.3053  -3.1736e-003   4.1484e-004   3.2471e-003  -7.1563e+005  -1.4904e+005   3.1822e+005    0.0000    0.1668    0.0000    0.0347    0.1079
                0.3454  -2.7251e-003   3.5620e-004   3.4646e-003  -6.1451e+005  -1.2799e+005   3.3953e+005    0.0000    0.1432    0.0000    0.0298    0.1151
                0.3844  -2.2742e-003   2.9725e-004   3.6411e-003  -5.1282e+005  -1.0681e+005   3.5683e+005    0.0000    0.1195    0.0000    0.0249    0.1210
                0.4222  -1.8384e-003   2.4027e-004   3.7780e-003  -4.1455e+005  -8.6347e+004   3.7025e+005    0.0000    0.0966    0.0000    0.0201    0.1255
                0.4585  -1.4216e-003   1.8577e-004   3.8784e-003  -3.2057e+005  -6.6775e+004   3.8009e+005    0.0000    0.0747    0.0000    0.0156    0.1288
                0.4931  -1.0239e-003   1.3378e-004   3.9459e-003  -2.3089e+005  -4.8100e+004   3.8670e+005    0.0000    0.0538    0.0000    0.0112    0.1311
                0.5260  -6.4922e-004   8.4791e-005   3.9844e-003  -1.4640e+005  -3.0507e+004   3.9047e+005    0.0000    0.0341    0.0000    0.0071    0.1324
                0.5569  -3.1193e-004   4.0692e-005   3.9983e-003  -7.0345e+004  -1.4669e+004   3.9183e+005    0.0000    0.0164    0.0000    0.0034    0.1328
                0.5858   2.5971e-004  -3.3864e-005   3.9923e-003   5.8570e+004   1.2217e+004   3.9125e+005    0.0137   -0.0000    0.0028   -0.0000    0.1326
                0.6126   5.4068e-004  -7.0599e-005   3.9707e-003   1.2193e+005   2.5410e+004   3.8913e+005    0.0284   -0.0000    0.0059   -0.0000    0.1319
                0.6370   7.8733e-004  -1.0285e-004   3.9379e-003   1.7755e+005   3.6992e+004   3.8591e+005    0.0414   -0.0000    0.0086   -0.0000    0.1308
                0.6592   1.0111e-003  -1.3211e-004   3.8977e-003   2.2801e+005   4.7502e+004   3.8197e+005    0.0532   -0.0000    0.0111   -0.0000    0.1295
                0.6789   1.1943e-003  -1.5605e-004   3.8538e-003   2.6931e+005   5.6102e+004   3.7767e+005    0.0628   -0.0000    0.0131   -0.0000    0.1280
                0.6961   1.3520e-003  -1.7667e-004   3.8097e-003   3.0488e+005   6.3508e+004   3.7335e+005    0.0711   -0.0000    0.0148   -0.0000    0.1266
                0.7107   1.4847e-003  -1.9402e-004   3.7677e-003   3.3480e+005   6.9740e+004   3.6923e+005    0.0780   -0.0000    0.0163   -0.0000    0.1252
                0.7228   1.5886e-003  -2.0761e-004   3.7303e-003   3.5823e+005   7.4618e+004   3.6557e+005    0.0835   -0.0000    0.0174   -0.0000    0.1239
                0.7322   1.6691e-003  -2.1814e-004   3.6995e-003   3.7639e+005   7.8399e+004   3.6255e+005    0.0877   -0.0000    0.0183   -0.0000    0.1229
                0.7389   1.7289e-003  -2.2596e-004   3.6765e-003   3.8988e+005   8.1208e+004   3.6029e+005    0.0909   -0.0000    0.0189   -0.0000    0.1221
                0.7429   1.7661e-003  -2.3081e-004   3.6622e-003   3.9825e+005   8.2951e+004   3.5889e+005    0.0928   -0.0000    0.0193   -0.0000    0.1217
                0.7443   1.7786e-003  -2.3244e-004   3.6573e-003   4.0107e+005   8.3538e+004   3.5842e+005    0.0935   -0.0000    0.0195   -0.0000    0.1215

               lamina:  3     
              matName:  (blade-shell)
                     s           e11           e22           e12           s11           s22           s12   s11_fcT   s11_fcC   s22_fcT   s22_fcC   s12_fcS
                   (m)         (m/m)         (m/m)         (rad)          (Pa)          (Pa)          (Pa)       (-)       (-)       (-)       (-)       (-)
                0.0000  -5.6664e-003   7.4094e-004   5.2355e-004  -1.0878e+008   8.4240e+004   2.0680e+006    0.0000    0.2189    0.0002   -0.0000    0.0180
                0.0095  -5.6189e-003   7.3474e-004   6.3203e-004  -1.0787e+008   8.3538e+004   2.4965e+006    0.0000    0.2170    0.0002   -0.0000    0.0217
                0.0522  -5.3101e-003   6.9436e-004   1.1033e-003  -1.0194e+008   7.9044e+004   4.3580e+006    0.0000    0.2051    0.0002   -0.0000    0.0379
                0.0949  -5.0020e-003   6.5408e-004   1.5471e-003  -9.6029e+007   7.4556e+004   6.1109e+006    0.0000    0.1932    0.0002   -0.0000    0.0531
                0.1376  -4.6277e-003   6.0514e-004   1.9621e-003  -8.8843e+007   6.9101e+004   7.7504e+006    0.0000    0.1788    0.0002   -0.0000    0.0674
                0.1803  -4.2236e-003   5.5230e-004   2.3429e-003  -8.1084e+007   6.3220e+004   9.2545e+006    0.0000    0.1631    0.0002   -0.0000    0.0805
                0.2224  -3.8217e-003   4.9976e-004   2.6845e-003  -7.3370e+007   5.7367e+004   1.0604e+007    0.0000    0.1476    0.0002   -0.0000    0.0922
                0.2642  -3.3659e-003   4.4017e-004   2.9873e-003  -6.4620e+007   5.0730e+004   1.1800e+007    0.0000    0.1300    0.0002   -0.0000    0.1026
                0.3053  -2.9180e-003   3.8160e-004   3.2471e-003  -5.6020e+007   4.4214e+004   1.2826e+007    0.0000    0.1127    0.0001   -0.0000    0.1115
                0.3454  -2.4701e-003   3.2305e-004   3.4646e-003  -4.7422e+007   3.7697e+004   1.3685e+007    0.0000    0.0954    0.0001   -0.0000    0.1190
                0.3844  -2.0196e-003   2.6414e-004   3.6411e-003  -3.8772e+007   3.1141e+004   1.4382e+007    0.0000    0.0780    0.0001   -0.0000    0.1251
                0.4222  -1.5837e-003   2.0716e-004   3.7780e-003  -3.0405e+007   2.4803e+004   1.4923e+007    0.0000    0.0612    0.0001   -0.0000    0.1298
                0.4585  -1.1669e-003   1.5265e-004   3.8784e-003  -2.2401e+007   1.8741e+004   1.5320e+007    0.0000    0.0451    0.0001   -0.0000    0.1332
                0.4931  -7.6907e-004   1.0064e-004   3.9459e-003  -1.4765e+007   1.2957e+004   1.5586e+007    0.0000    0.0297    0.0000   -0.0000    0.1355
                0.5260  -3.9387e-004   5.1588e-005   3.9844e-003  -7.5614e+006   7.5042e+003   1.5738e+007    0.0000    0.0152    0.0000   -0.0000    0.1369
                0.5569   3.5690e-004  -4.6277e-005   3.9983e-003   6.8527e+006   2.5954e+003   1.5793e+007    0.0203   -0.0000    0.0000   -0.0000    0.1373
                0.5858   6.7334e-004  -8.7650e-005   3.9923e-003   1.2928e+007  -2.2560e+003   1.5770e+007    0.0384   -0.0000    0.0000    0.0000    0.1371
                0.6126   9.5554e-004  -1.2454e-004   3.9707e-003   1.8345e+007  -6.3376e+003   1.5684e+007    0.0544   -0.0000    0.0000    0.0000    0.1364
                0.6370   1.2028e-003  -1.5687e-004   3.9379e-003   2.3092e+007  -9.9224e+003   1.5555e+007    0.0685   -0.0000    0.0000    0.0000    0.1353
                0.6592   1.4276e-003  -1.8627e-004   3.8977e-003   2.7409e+007  -1.3173e+004   1.5396e+007    0.0813   -0.0000    0.0000    0.0000    0.1339
                0.6789   1.6120e-003  -2.1038e-004   3.8538e-003   3.0949e+007  -1.5832e+004   1.5223e+007    0.0918   -0.0000    0.0000    0.0000    0.1324
                0.6961   1.7701e-003  -2.3103e-004   3.8097e-003   3.3983e+007  -1.8125e+004   1.5048e+007    0.1008   -0.0000    0.0000    0.0001    0.1309
                0.7107   1.9034e-003  -2.4847e-004   3.7677e-003   3.6543e+007  -2.0052e+004   1.4882e+007    0.1084   -0.0000    0.0000    0.0001    0.1294
                0.7228   2.0079e-003  -2.6213e-004   3.7303e-003   3.8549e+007  -2.1561e+004   1.4735e+007    0.1144   -0.0000    0.0000    0.0001    0.1281
                0.7322   2.0881e-003  -2.7261e-004   3.6995e-003   4.0088e+007  -2.2733e+004   1.4613e+007    0.1190   -0.0000    0.0000    0.0001    0.1271
                0.7389   2.1472e-003  -2.8034e-004   3.6765e-003   4.1222e+007  -2.3606e+004   1.4522e+007    0.1223   -0.0000    0.0000    0.0001    0.1263
                0.7429   2.1839e-003  -2.8514e-004   3.6622e-003   4.1927e+007  -2.4147e+004   1.4466e+007    0.1244   -0.0000    0.0000    0.0001    0.1258
                0.7443   2.1964e-003  -2.8677e-004   3.6573e-003   4.2167e+007  -2.4329e+004   1.4446e+007    0.1251   -0.0000    0.0000    0.0001    0.1256

  Bottom:  panel  nNode   nLam     xc_St    xc_End         b         t         E_eff         G_eff      nu_eff     density  buckleCrit
            (-)    (-)    (-)       (-)       (-)       (m)       (m)          (Pa)          (Pa)         (-)    (kg/m^3)         (-)
              1     18      3    0.0000    0.2386    0.3574    0.0095   1.8740e+010   3.8566e+009      0.1301   1634.3549      0.0934
              2      9      5    0.2386    0.4614    0.2988    0.0150   5.8433e+010   4.2250e+009      0.1669   1589.8386      0.0020
              3     28      3    0.4614    1.0000    0.7382    0.0121   1.4712e+010   3.0391e+009      0.1307   1322.3899      0.1562

            panel:  1     
           lam_num    nPlies        tPly      fibAng     matID  matName
               (-)       (-)         (m)       (deg)       (-)  (-)
                 1         1    0.004628      0.0000         2  (blade-shell)
                 2         1    0.000230      0.0000         5  (LEP-core)
                 3         1    0.004628      0.0000         2  (blade-shell)

               lamina:  1     
              matName:  (blade-shell)
                     s           e11           e22           e12           s11           s22           s12   s11_fcT   s11_fcC   s22_fcT   s22_fcC   s12_fcS
                   (m)         (m/m)         (m/m)         (rad)          (Pa)          (Pa)          (Pa)       (-)       (-)       (-)       (-)       (-)
                0.0000   5.0488e-004  -6.5654e-005   6.9018e-003   9.6936e+006  -3.7918e+002   2.7262e+007    0.0288   -0.0000    0.0000    0.0000    0.2371
                0.0038   6.4935e-004  -8.4444e-005   6.8997e-003   1.2467e+007  -5.4835e+002   2.7254e+007    0.0370   -0.0000    0.0000    0.0000    0.2370
                0.0150   1.1034e-003  -1.4350e-004   6.8873e-003   2.1186e+007  -1.0423e+003   2.7205e+007    0.0629   -0.0000    0.0000    0.0000    0.2366
                0.0288   1.6989e-003  -2.2093e-004   6.8594e-003   3.2618e+007  -1.6247e+003   2.7095e+007    0.0968   -0.0000    0.0000    0.0000    0.2356
                0.0410   2.1170e-003  -2.7532e-004   6.8248e-003   4.0646e+007  -2.0267e+003   2.6958e+007    0.1206   -0.0000    0.0000    0.0000    0.2344
                0.0571   2.6120e-003  -3.3969e-004   6.7658e-003   5.0150e+007  -2.5649e+003   2.6725e+007    0.1488   -0.0000    0.0000    0.0000    0.2324
                0.0737   3.0363e-003  -3.9488e-004   6.6908e-003   5.8297e+007  -3.0123e+003   2.6429e+007    0.1730   -0.0000    0.0000    0.0000    0.2298
                0.0929   3.4420e-003  -4.4763e-004   6.5898e-003   6.6086e+007  -3.4725e+003   2.6030e+007    0.1961   -0.0000    0.0000    0.0000    0.2263
                0.1144   3.8934e-003  -5.0635e-004   6.4585e-003   7.4753e+007  -3.9756e+003   2.5511e+007    0.2218   -0.0000    0.0000    0.0000    0.2218
                0.1370   4.2401e-003  -5.5143e-004   6.3033e-003   8.1409e+007  -4.3627e+003   2.4898e+007    0.2416   -0.0000    0.0000    0.0000    0.2165
                0.1622   4.6148e-003  -6.0017e-004   6.1126e-003   8.8604e+007  -4.7951e+003   2.4145e+007    0.2629   -0.0000    0.0000    0.0000    0.2100
                0.1890   4.9633e-003  -6.4550e-004   5.8902e-003   9.5295e+007  -5.1915e+003   2.3266e+007    0.2828   -0.0000    0.0000    0.0000    0.2023
                0.2176   5.2629e-003  -6.8446e-004   5.6348e-003   1.0105e+008  -5.5371e+003   2.2257e+007    0.2998   -0.0000    0.0000    0.0000    0.1935
                0.2482   5.5836e-003  -7.2617e-004   5.3430e-003   1.0720e+008  -5.9065e+003   2.1105e+007    0.3181   -0.0000    0.0000    0.0000    0.1835
                0.2801   5.8221e-003  -7.5719e-004   5.0208e-003   1.1178e+008  -6.1800e+003   1.9832e+007    0.3317   -0.0000    0.0000    0.0000    0.1725
                0.3137   6.0514e-003  -7.8702e-004   4.6648e-003   1.1619e+008  -6.4468e+003   1.8426e+007    0.3448   -0.0000    0.0000    0.0000    0.1602
                0.3489   6.2659e-003  -8.1491e-004   4.2776e-003   1.2030e+008  -6.6958e+003   1.6896e+007    0.3570   -0.0000    0.0000    0.0000    0.1469
                0.3574   6.2980e-003  -8.1908e-004   4.1811e-003   1.2092e+008  -6.7294e+003   1.6515e+007    0.3588   -0.0000    0.0000    0.0000    0.1436

               lamina:  2     
              matName:  (LEP-core)
                     s           e11           e22           e12           s11           s22           s12   s11_fcT   s11_fcC   s22_fcT   s22_fcC   s12_fcS
                   (m)         (m/m)         (m/m)         (rad)          (Pa)          (Pa)          (Pa)       (-)       (-)       (-)       (-)       (-)
                0.0000   3.2811e-004  -4.2674e-005   6.9018e-003   7.4006e+004   1.5460e+004   6.7638e+005    0.0173   -0.0000    0.0036   -0.0000    0.2293
                0.0038   4.7259e-004  -6.1464e-005   6.8997e-003   1.0659e+005   2.2268e+004   6.7617e+005    0.0248   -0.0000    0.0052   -0.0000    0.2292
                0.0150   8.9519e-004  -1.1643e-004   6.8873e-003   2.0191e+005   4.2180e+004   6.7496e+005    0.0471   -0.0000    0.0098   -0.0000    0.2288
                0.0288   1.3949e-003  -1.8142e-004   6.8594e-003   3.1462e+005   6.5727e+004   6.7222e+005    0.0733   -0.0000    0.0153   -0.0000    0.2279
                0.0410   1.7400e-003  -2.2630e-004   6.8248e-003   3.9245e+005   8.1986e+004   6.6883e+005    0.0915   -0.0000    0.0191   -0.0000    0.2267
                0.0571   2.2005e-003  -2.8619e-004   6.7658e-003   4.9632e+005   1.0368e+005   6.6305e+005    0.1157   -0.0000    0.0242   -0.0000    0.2248
                0.0737   2.5835e-003  -3.3601e-004   6.6908e-003   5.8271e+005   1.2173e+005   6.5570e+005    0.1358   -0.0000    0.0284   -0.0000    0.2223
                0.0929   2.9769e-003  -3.8717e-004   6.5898e-003   6.7143e+005   1.4027e+005   6.4580e+005    0.1565   -0.0000    0.0327   -0.0000    0.2189
                0.1144   3.4070e-003  -4.4311e-004   6.4585e-003   7.6845e+005   1.6053e+005   6.3293e+005    0.1791   -0.0000    0.0374   -0.0000    0.2146
                0.1370   3.7380e-003  -4.8616e-004   6.3033e-003   8.4311e+005   1.7613e+005   6.1773e+005    0.1965   -0.0000    0.0411   -0.0000    0.2094
                0.1622   4.1074e-003  -5.3420e-004   6.1126e-003   9.2641e+005   1.9353e+005   5.9903e+005    0.2159   -0.0000    0.0451   -0.0000    0.2031
                0.1890   4.4461e-003  -5.7826e-004   5.8902e-003   1.0028e+006   2.0950e+005   5.7724e+005    0.2338   -0.0000    0.0488   -0.0000    0.1957
                0.2176   4.7414e-003  -6.1667e-004   5.6348e-003   1.0694e+006   2.2341e+005   5.5221e+005    0.2493   -0.0000    0.0521   -0.0000    0.1872
                0.2482   5.0570e-003  -6.5772e-004   5.3430e-003   1.1406e+006   2.3828e+005   5.2362e+005    0.2659   -0.0000    0.0555   -0.0000    0.1775
                0.2801   5.2907e-003  -6.8811e-004   5.0208e-003   1.1933e+006   2.4929e+005   4.9204e+005    0.2782   -0.0000    0.0581   -0.0000    0.1668
                0.3137   5.5186e-003  -7.1775e-004   4.6648e-003   1.2447e+006   2.6003e+005   4.5715e+005    0.2901   -0.0000    0.0606   -0.0000    0.1550
                0.3489   5.7312e-003  -7.4540e-004   4.2776e-003   1.2927e+006   2.7005e+005   4.1920e+005    0.3013   -0.0000    0.0629   -0.0000    0.1421
                0.3574   5.7601e-003  -7.4915e-004   4.1811e-003   1.2992e+006   2.7141e+005   4.0974e+005    0.3028   -0.0000    0.0633   -0.0000    0.1389

               lamina:  3     
              matName:  (blade-shell)
                     s           e11           e22           e12           s11           s22           s12   s11_fcT   s11_fcC   s22_fcT   s22_fcC   s12_fcS
                   (m)         (m/m)         (m/m)         (rad)          (Pa)          (Pa)          (Pa)       (-)       (-)       (-)       (-)       (-)
                0.0000   3.1933e-004  -4.1532e-005   6.9018e-003   6.1310e+006  -3.7906e+002   2.7262e+007    0.0182   -0.0000    0.0000    0.0000    0.2371
                0.0038   4.6380e-004  -6.0322e-005   6.8997e-003   8.9049e+006  -5.4822e+002   2.7254e+007    0.0264   -0.0000    0.0000    0.0000    0.2370
                0.0150   8.8484e-004  -1.1508e-004   6.8873e-003   1.6989e+007  -1.0422e+003   2.7205e+007    0.0504   -0.0000    0.0000    0.0000    0.2366
                0.0288   1.3798e-003  -1.7946e-004   6.8594e-003   2.6492e+007  -1.6245e+003   2.7095e+007    0.0786   -0.0000    0.0000    0.0000    0.2356
                0.0410   1.7212e-003  -2.2387e-004   6.8248e-003   3.3048e+007  -2.0264e+003   2.6958e+007    0.0981   -0.0000    0.0000    0.0000    0.2344
                0.0571   2.1800e-003  -2.8353e-004   6.7658e-003   4.1856e+007  -2.5646e+003   2.6725e+007    0.1242   -0.0000    0.0000    0.0000    0.2324
                0.0737   2.5610e-003  -3.3309e-004   6.6908e-003   4.9171e+007  -3.0120e+003   2.6429e+007    0.1459   -0.0000    0.0000    0.0000    0.2298
                0.0929   2.9538e-003  -3.8417e-004   6.5898e-003   5.6712e+007  -3.4722e+003   2.6030e+007    0.1683   -0.0000    0.0000    0.0000    0.2263
                0.1144   3.3828e-003  -4.3997e-004   6.4585e-003   6.4950e+007  -3.9753e+003   2.5511e+007    0.1927   -0.0000    0.0000    0.0000    0.2218
                0.1370   3.7131e-003  -4.8292e-004   6.3033e-003   7.1290e+007  -4.3624e+003   2.4898e+007    0.2115   -0.0000    0.0000    0.0000    0.2165
                0.1622   4.0822e-003  -5.3093e-004   6.1126e-003   7.8377e+007  -4.7947e+003   2.4145e+007    0.2326   -0.0000    0.0000    0.0000    0.2100
                0.1890   4.4204e-003  -5.7492e-004   5.8902e-003   8.4872e+007  -5.1911e+003   2.3266e+007    0.2518   -0.0000    0.0000    0.0000    0.2023
                0.2176   4.7155e-003  -6.1330e-004   5.6348e-003   9.0537e+007  -5.5368e+003   2.2257e+007    0.2687   -0.0000    0.0000    0.0000    0.1935
                0.2482   5.0309e-003  -6.5431e-004   5.3430e-003   9.6592e+007  -5.9062e+003   2.1105e+007    0.2866   -0.0000    0.0000    0.0000    0.1835
                0.2801   5.2643e-003  -6.8467e-004   5.0208e-003   1.0107e+008  -6.1796e+003   1.9832e+007    0.2999   -0.0000    0.0000    0.0000    0.1725
                0.3137   5.4921e-003  -7.1430e-004   4.6648e-003   1.0545e+008  -6.4464e+003   1.8426e+007    0.3129   -0.0000    0.0000    0.0000    0.1602
                0.3489   5.7047e-003  -7.4195e-004   4.2776e-003   1.0953e+008  -6.6954e+003   1.6896e+007    0.3250   -0.0000    0.0000    0.0000    0.1469
                0.3574   5.7333e-003  -7.4568e-004   4.1811e-003   1.1008e+008  -6.7291e+003   1.6515e+007    0.3266   -0.0000    0.0000    0.0000    0.1436

            panel:  2     
           lam_num    nPlies        tPly      fibAng     matID  matName
               (-)       (-)         (m)       (deg)       (-)  (-)
                 1         1    0.004628      0.0000         2  (blade-shell)
                 2         1    0.002824      0.0000         3  (spar-uni)
                 3         1    0.000047      0.0000         4  (spar-core)
                 4         1    0.002824      0.0000         3  (spar-uni)
                 5         1    0.004628      0.0000         2  (blade-shell)

               lamina:  1     
              matName:  (blade-shell)
                     s           e11           e22           e12           s11           s22           s12   s11_fcT   s11_fcC   s22_fcT   s22_fcC   s12_fcS
                   (m)         (m/m)         (m/m)         (rad)          (Pa)          (Pa)          (Pa)       (-)       (-)       (-)       (-)       (-)
                0.0000   7.7231e-003  -1.2211e-003   6.0291e-003   1.4773e+008  -4.2407e+006   2.3815e+007    0.4384   -0.0000    0.0000    0.0126    0.2071
                0.0276   7.8166e-003  -1.2368e-003   5.1501e-003   1.4952e+008  -4.3082e+006   2.0343e+007    0.4437   -0.0000    0.0000    0.0128    0.1769
                0.0651   7.9479e-003  -1.2585e-003   3.9310e-003   1.5203e+008  -4.4002e+006   1.5528e+007    0.4511   -0.0000    0.0000    0.0131    0.1350
                0.1035   8.0007e-003  -1.2672e-003   2.6614e-003   1.5304e+008  -4.4362e+006   1.0512e+007    0.4541   -0.0000    0.0000    0.0132    0.0914
                0.1431   7.9919e-003  -1.2658e-003   1.3461e-003   1.5287e+008  -4.4297e+006   5.3173e+006    0.4536   -0.0000    0.0000    0.0131    0.0462
                0.1833   7.9808e-003  -1.2640e-003   9.6874e-006   1.5266e+008  -4.4232e+006   3.8265e+004    0.4530   -0.0000    0.0000    0.0131    0.0003
                0.2244   7.8266e-003  -1.2385e-003   1.3400e-003   1.4971e+008  -4.3163e+006   5.2930e+006    0.4442   -0.0000    0.0000    0.0128    0.0460
                0.2663   7.6665e-003  -1.2118e-003   2.6808e-003   1.4665e+008  -4.2023e+006   1.0589e+007    0.4352   -0.0000    0.0000    0.0125    0.0921
                0.2988   7.5153e-003  -1.1867e-003   3.6949e-003   1.4376e+008  -4.0950e+006   1.4595e+007    0.4266   -0.0000    0.0000    0.0122    0.1269

               lamina:  2     
              matName:  (spar-uni)
                     s           e11           e22           e12           s11           s22           s12   s11_fcT   s11_fcC   s22_fcT   s22_fcC   s12_fcS
                   (m)         (m/m)         (m/m)         (rad)          (Pa)          (Pa)          (Pa)       (-)       (-)       (-)       (-)       (-)
                0.0000   6.4323e-003  -1.0477e-003   6.0291e-003   7.9360e+008   7.8096e+006   2.8397e+007    0.4010   -0.0000    0.1304   -0.0000    0.2757
                0.0276   6.5259e-003  -1.0634e-003   5.1501e-003   8.0514e+008   7.9201e+006   2.4257e+007    0.4068   -0.0000    0.1322   -0.0000    0.2355
                0.0651   6.6547e-003  -1.0848e-003   3.9310e-003   8.2103e+008   8.0725e+006   1.8515e+007    0.4149   -0.0000    0.1348   -0.0000    0.1798
                0.1035   6.7054e-003  -1.0932e-003   2.6614e-003   8.2729e+008   8.1328e+006   1.2535e+007    0.4180   -0.0000    0.1358   -0.0000    0.1217
                0.1431   6.6965e-003  -1.0917e-003   1.3461e-003   8.2619e+008   8.1224e+006   6.3403e+006    0.4175   -0.0000    0.1356   -0.0000    0.0616
                0.1833   6.6869e-003  -1.0902e-003   9.6874e-006   8.2500e+008   8.1107e+006   4.5628e+004    0.4169   -0.0000    0.1354   -0.0000    0.0004
                0.2244   6.5368e-003  -1.0652e-003   1.3400e-003   8.0648e+008   7.9328e+006   6.3114e+006    0.4075   -0.0000    0.1324   -0.0000    0.0613
                0.2663   6.3781e-003  -1.0387e-003   2.6808e-003   7.8690e+008   7.7451e+006   1.2627e+007    0.3976   -0.0000    0.1293   -0.0000    0.1226
                0.2988   6.2285e-003  -1.0138e-003   3.6949e-003   7.6845e+008   7.5682e+006   1.7403e+007    0.3883   -0.0000    0.1263   -0.0000    0.1690

               lamina:  3     
              matName:  (spar-core)
                     s           e11           e22           e12           s11           s22           s12   s11_fcT   s11_fcC   s22_fcT   s22_fcC   s12_fcS
                   (m)         (m/m)         (m/m)         (rad)          (Pa)          (Pa)          (Pa)       (-)       (-)       (-)       (-)       (-)
                0.0000   5.6448e-003  -9.4194e-004   6.0291e-003   1.2570e+006   2.1701e+005   5.9085e+005    0.2930   -0.0000    0.0506   -0.0000    0.2003
                0.0276   5.7383e-003  -9.5755e-004   5.1501e-003   1.2779e+006   2.2060e+005   5.0471e+005    0.2979   -0.0000    0.0514   -0.0000    0.1711
                0.0651   5.8656e-003  -9.7879e-004   3.9310e-003   1.3062e+006   2.2549e+005   3.8524e+005    0.3045   -0.0000    0.0526   -0.0000    0.1306
                0.1035   5.9150e-003  -9.8704e-004   2.6614e-003   1.3172e+006   2.2740e+005   2.6081e+005    0.3070   -0.0000    0.0530   -0.0000    0.0884
                0.1431   5.9061e-003  -9.8555e-004   1.3461e-003   1.3152e+006   2.2705e+005   1.3192e+005    0.3066   -0.0000    0.0529   -0.0000    0.0447
                0.1833   5.8974e-003  -9.8409e-004   9.6874e-006   1.3133e+006   2.2672e+005   9.4936e+002    0.3061   -0.0000    0.0528   -0.0000    0.0003
                0.2244   5.7497e-003  -9.5945e-004   1.3400e-003   1.2804e+006   2.2104e+005   1.3132e+005    0.2985   -0.0000    0.0515   -0.0000    0.0445
                0.2663   5.5919e-003  -9.3311e-004   2.6808e-003   1.2452e+006   2.1498e+005   2.6272e+005    0.2903   -0.0000    0.0501   -0.0000    0.0891
                0.2988   5.4432e-003  -9.0830e-004   3.6949e-003   1.2121e+006   2.0926e+005   3.6210e+005    0.2825   -0.0000    0.0488   -0.0000    0.1227

               lamina:  4     
              matName:  (spar-uni)
                     s           e11           e22           e12           s11           s22           s12   s11_fcT   s11_fcC   s22_fcT   s22_fcC   s12_fcS
                   (m)         (m/m)         (m/m)         (rad)          (Pa)          (Pa)          (Pa)       (-)       (-)       (-)       (-)       (-)
                0.0000   5.6317e-003  -9.4018e-004   6.0291e-003   6.9476e+008   6.6489e+006   2.8397e+007    0.3511   -0.0000    0.1110   -0.0000    0.2757
                0.0276   5.7253e-003  -9.5580e-004   5.1501e-003   7.0630e+008   6.7594e+006   2.4257e+007    0.3569   -0.0000    0.1128   -0.0000    0.2355
                0.0651   5.8525e-003  -9.7703e-004   3.9310e-003   7.2200e+008   6.9096e+006   1.8515e+007    0.3648   -0.0000    0.1154   -0.0000    0.1798
                0.1035   5.9019e-003  -9.8528e-004   2.6614e-003   7.2809e+008   6.9680e+006   1.2535e+007    0.3679   -0.0000    0.1163   -0.0000    0.1217
                0.1431   5.8930e-003  -9.8379e-004   1.3461e-003   7.2699e+008   6.9575e+006   6.3403e+006    0.3674   -0.0000    0.1162   -0.0000    0.0616
                0.1833   5.8843e-003  -9.8233e-004   9.6874e-006   7.2592e+008   6.9472e+006   4.5628e+004    0.3668   -0.0000    0.1160   -0.0000    0.0004
                0.2244   5.7366e-003  -9.5769e-004   1.3400e-003   7.0771e+008   6.7728e+006   6.3114e+006    0.3576   -0.0000    0.1131   -0.0000    0.0613
                0.2663   5.5788e-003  -9.3135e-004   2.6808e-003   6.8824e+008   6.5865e+006   1.2627e+007    0.3478   -0.0000    0.1100   -0.0000    0.1226
                0.2988   5.4302e-003  -9.0655e-004   3.6949e-003   6.6990e+008   6.4110e+006   1.7403e+007    0.3385   -0.0000    0.1070   -0.0000    0.1690

               lamina:  5     
              matName:  (blade-shell)
                     s           e11           e22           e12           s11           s22           s12   s11_fcT   s11_fcC   s22_fcT   s22_fcC   s12_fcS
                   (m)         (m/m)         (m/m)         (rad)          (Pa)          (Pa)          (Pa)       (-)       (-)       (-)       (-)       (-)
                0.0000   4.8441e-003  -8.3438e-004   6.0291e-003   9.2488e+007  -3.9966e+006   2.3815e+007    0.2744   -0.0000    0.0000    0.0119    0.2071
                0.0276   4.9377e-003  -8.4999e-004   5.1501e-003   9.4275e+007  -4.0641e+006   2.0343e+007    0.2797   -0.0000    0.0000    0.0121    0.1769
                0.0651   5.0634e-003  -8.7102e-004   3.9310e-003   9.6677e+007  -4.1556e+006   1.5528e+007    0.2869   -0.0000    0.0000    0.0123    0.1350
                0.1035   5.1115e-003  -8.7910e-004   2.6614e-003   9.7597e+007  -4.1912e+006   1.0512e+007    0.2896   -0.0000    0.0000    0.0124    0.0914
                0.1431   5.1026e-003  -8.7760e-004   1.3461e-003   9.7425e+007  -4.1847e+006   5.3173e+006    0.2891   -0.0000    0.0000    0.0124    0.0462
                0.1833   5.0947e-003  -8.7627e-004   9.6874e-006   9.7276e+007  -4.1785e+006   3.8265e+004    0.2887   -0.0000    0.0000    0.0124    0.0003
                0.2244   4.9496e-003  -8.5196e-004   1.3400e-003   9.4502e+007  -4.0723e+006   5.2930e+006    0.2804   -0.0000    0.0000    0.0121    0.0460
                0.2663   4.7926e-003  -8.2573e-004   2.6808e-003   9.1504e+007  -3.9586e+006   1.0589e+007    0.2715   -0.0000    0.0000    0.0117    0.0921
                0.2988   4.6450e-003  -8.0106e-004   3.6949e-003   8.8683e+007  -3.8516e+006   1.4595e+007    0.2632   -0.0000    0.0000    0.0114    0.1269

            panel:  3     
           lam_num    nPlies        tPly      fibAng     matID  matName
               (-)       (-)         (m)       (deg)       (-)  (-)
                 1         1    0.004628      0.0000         2  (blade-shell)
                 2         1    0.002867      0.0000         6  (TEP-core)
                 3         1    0.004628      0.0000         2  (blade-shell)

               lamina:  1     
              matName:  (blade-shell)
                     s           e11           e22           e12           s11           s22           s12   s11_fcT   s11_fcC   s22_fcT   s22_fcC   s12_fcS
                   (m)         (m/m)         (m/m)         (rad)          (Pa)          (Pa)          (Pa)       (-)       (-)       (-)       (-)       (-)
                0.0000   6.0514e-003  -7.9079e-004   6.8804e-004   1.1618e+008  -8.0233e+004   2.7178e+006    0.3447   -0.0000    0.0000    0.0002    0.0236
                0.0096   6.0051e-003  -7.8474e-004   5.8392e-004   1.1529e+008  -7.9595e+004   2.3065e+006    0.3421   -0.0000    0.0000    0.0002    0.0201
                0.0524   5.7354e-003  -7.4947e-004   1.3221e-004   1.1011e+008  -7.5683e+004   5.2225e+005    0.3267   -0.0000    0.0000    0.0002    0.0045
                0.0952   5.4654e-003  -7.1418e-004   2.9718e-004   1.0493e+008  -7.1773e+004   1.1738e+006    0.3114   -0.0000    0.0000    0.0002    0.0102
                0.1380   5.1507e-003  -6.7304e-004   7.0282e-004   9.8885e+007  -6.7223e+004   2.7761e+006    0.2934   -0.0000    0.0000    0.0002    0.0241
                0.1807   4.8184e-003  -6.2959e-004   1.0806e-003   9.2506e+007  -6.2401e+004   4.2683e+006    0.2745   -0.0000    0.0000    0.0002    0.0371
                0.2228   4.4886e-003  -5.8647e-004   1.4271e-003   8.6174e+007  -5.7616e+004   5.6369e+006    0.2557   -0.0000    0.0000    0.0002    0.0490
                0.2644   4.1396e-003  -5.4084e-004   1.7420e-003   7.9474e+007  -5.2553e+004   6.8808e+006    0.2358   -0.0000    0.0000    0.0002    0.0598
                0.3052   3.7983e-003  -4.9621e-004   2.0238e-003   7.2921e+007  -4.7586e+004   7.9940e+006    0.2164   -0.0000    0.0000    0.0001    0.0695
                0.3450   3.4707e-003  -4.5338e-004   2.2729e-003   6.6632e+007  -4.2815e+004   8.9779e+006    0.1977   -0.0000    0.0000    0.0001    0.0781
                0.3836   3.1596e-003  -4.1271e-004   2.4906e-003   6.0659e+007  -3.8287e+004   9.8380e+006    0.1800   -0.0000    0.0000    0.0001    0.0855
                0.4209   2.8596e-003  -3.7348e-004   2.6793e-003   5.4900e+007  -3.3908e+004   1.0583e+007    0.1629   -0.0000    0.0000    0.0001    0.0920
                0.4566   2.6042e-003  -3.4010e-004   2.8406e-003   4.9997e+007  -3.0173e+004   1.1220e+007    0.1484   -0.0000    0.0000    0.0001    0.0976
                0.4907   2.3683e-003  -3.0925e-004   2.9782e-003   4.5468e+007  -2.6733e+004   1.1764e+007    0.1349   -0.0000    0.0000    0.0001    0.1023
                0.5230   2.1539e-003  -2.8122e-004   3.0950e-003   4.1353e+007  -2.3589e+004   1.2225e+007    0.1227   -0.0000    0.0000    0.0001    0.1063
                0.5533   1.9973e-003  -2.6074e-004   3.1936e-003   3.8345e+007  -2.1289e+004   1.2615e+007    0.1138   -0.0000    0.0000    0.0001    0.1097
                0.5817   1.8505e-003  -2.4155e-004   3.2775e-003   3.5528e+007  -1.9142e+004   1.2946e+007    0.1054   -0.0000    0.0000    0.0001    0.1126
                0.6079   1.7457e-003  -2.2784e-004   3.3489e-003   3.3515e+007  -1.7594e+004   1.3228e+007    0.0995   -0.0000    0.0000    0.0001    0.1150
                0.6318   1.6755e-003  -2.1867e-004   3.4100e-003   3.2168e+007  -1.6564e+004   1.3470e+007    0.0955   -0.0000    0.0000    0.0000    0.1171
                0.6536   1.6122e-003  -2.1038e-004   3.4630e-003   3.0952e+007  -1.5629e+004   1.3679e+007    0.0918   -0.0000    0.0000    0.0000    0.1189
                0.6730   1.6016e-003  -2.0901e-004   3.5089e-003   3.0750e+007  -1.5469e+004   1.3860e+007    0.0912   -0.0000    0.0000    0.0000    0.1205
                0.6898   1.5972e-003  -2.0843e-004   3.5486e-003   3.0665e+007  -1.5404e+004   1.4017e+007    0.0910   -0.0000    0.0000    0.0000    0.1219
                0.7043   1.6041e-003  -2.0933e-004   3.5831e-003   3.0797e+007  -1.5510e+004   1.4153e+007    0.0914   -0.0000    0.0000    0.0000    0.1231
                0.7163   1.6371e-003  -2.1364e-004   3.6120e-003   3.1430e+007  -1.6003e+004   1.4268e+007    0.0933   -0.0000    0.0000    0.0000    0.1241
                0.7257   1.6626e-003  -2.1698e-004   3.6353e-003   3.1920e+007  -1.6391e+004   1.4359e+007    0.0947   -0.0000    0.0000    0.0000    0.1249
                0.7327   1.6951e-003  -2.2123e-004   3.6530e-003   3.2545e+007  -1.6912e+004   1.4429e+007    0.0966   -0.0000    0.0000    0.0001    0.1255
                0.7368   1.7213e-003  -2.2465e-004   3.6639e-003   3.3046e+007  -1.7324e+004   1.4472e+007    0.0981   -0.0000    0.0000    0.0001    0.1258
                0.7382   1.7304e-003  -2.2585e-004   3.6674e-003   3.3222e+007  -1.7457e+004   1.4486e+007    0.0986   -0.0000    0.0000    0.0001    0.1260

               lamina:  2     
              matName:  (TEP-core)
                     s           e11           e22           e12           s11           s22           s12   s11_fcT   s11_fcC   s22_fcT   s22_fcC   s12_fcS
                   (m)         (m/m)         (m/m)         (rad)          (Pa)          (Pa)          (Pa)       (-)       (-)       (-)       (-)       (-)
                0.0000   5.6248e-003  -7.3532e-004   6.8804e-004   1.2684e+006   2.6415e+005   6.7428e+004    0.2957   -0.0000    0.0616   -0.0000    0.0229
                0.0096   5.5805e-003  -7.2952e-004   5.8392e-004   1.2584e+006   2.6207e+005   5.7224e+004    0.2933   -0.0000    0.0611   -0.0000    0.0194
                0.0524   5.3113e-003  -6.9433e-004   1.3221e-004   1.1977e+006   2.4943e+005   1.2957e+004    0.2792   -0.0000    0.0581   -0.0000    0.0044
                0.0952   5.0422e-003  -6.5915e-004   2.9718e-004   1.1370e+006   2.3679e+005   2.9123e+004    0.2650   -0.0000    0.0552   -0.0000    0.0099
                0.1380   4.7290e-003  -6.1820e-004   7.0282e-004   1.0664e+006   2.2208e+005   6.8876e+004    0.2486   -0.0000    0.0518   -0.0000    0.0233
                0.1807   4.3973e-003  -5.7483e-004   1.0806e-003   9.9157e+005   2.0651e+005   1.0590e+005    0.2311   -0.0000    0.0481   -0.0000    0.0359
                0.2228   4.0681e-003  -5.3179e-004   1.4271e-003   9.1735e+005   1.9105e+005   1.3985e+005    0.2138   -0.0000    0.0445   -0.0000    0.0474
                0.2644   3.7198e-003  -4.8625e-004   1.7420e-003   8.3880e+005   1.7469e+005   1.7071e+005    0.1955   -0.0000    0.0407   -0.0000    0.0579
                0.3052   3.3783e-003  -4.4160e-004   2.0238e-003   7.6179e+005   1.5866e+005   1.9833e+005    0.1776   -0.0000    0.0370   -0.0000    0.0672
                0.3450   3.0503e-003  -3.9872e-004   2.2729e-003   6.8785e+005   1.4326e+005   2.2274e+005    0.1603   -0.0000    0.0334   -0.0000    0.0755
                0.3836   2.7390e-003  -3.5802e-004   2.4906e-003   6.1765e+005   1.2864e+005   2.4408e+005    0.1440   -0.0000    0.0300   -0.0000    0.0827
                0.4209   2.4381e-003  -3.1868e-004   2.6793e-003   5.4980e+005   1.1451e+005   2.6257e+005    0.1282   -0.0000    0.0267   -0.0000    0.0890
                0.4566   2.1816e-003  -2.8514e-004   2.8406e-003   4.9195e+005   1.0246e+005   2.7838e+005    0.1147   -0.0000    0.0239   -0.0000    0.0944
                0.4907   1.9452e-003  -2.5423e-004   2.9782e-003   4.3865e+005   9.1364e+004   2.9186e+005    0.1022   -0.0000    0.0213   -0.0000    0.0989
                0.5230   1.7294e-003  -2.2601e-004   3.0950e-003   3.8997e+005   8.1228e+004   3.0331e+005    0.0909   -0.0000    0.0189   -0.0000    0.1028
                0.5533   1.5715e-003  -2.0538e-004   3.1936e-003   3.5439e+005   7.3818e+004   3.1297e+005    0.0826   -0.0000    0.0172   -0.0000    0.1061
                0.5817   1.4240e-003  -1.8609e-004   3.2775e-003   3.2112e+005   6.6891e+004   3.2119e+005    0.0749   -0.0000    0.0156   -0.0000    0.1089
                0.6079   1.3180e-003  -1.7222e-004   3.3489e-003   2.9720e+005   6.1910e+004   3.2819e+005    0.0693   -0.0000    0.0144   -0.0000    0.1113
                0.6318   1.2473e-003  -1.6298e-004   3.4100e-003   2.8126e+005   5.8591e+004   3.3418e+005    0.0656   -0.0000    0.0137   -0.0000    0.1133
                0.6536   1.1832e-003  -1.5460e-004   3.4630e-003   2.6681e+005   5.5581e+004   3.3937e+005    0.0622   -0.0000    0.0130   -0.0000    0.1150
                0.6730   1.1722e-003  -1.5317e-004   3.5089e-003   2.6434e+005   5.5067e+004   3.4387e+005    0.0616   -0.0000    0.0128   -0.0000    0.1166
                0.6898   1.1678e-003  -1.5259e-004   3.5486e-003   2.6334e+005   5.4858e+004   3.4777e+005    0.0614   -0.0000    0.0128   -0.0000    0.1179
                0.7043   1.1750e-003  -1.5353e-004   3.5831e-003   2.6497e+005   5.5198e+004   3.5114e+005    0.0618   -0.0000    0.0129   -0.0000    0.1190
                0.7163   1.2087e-003  -1.5794e-004   3.6120e-003   2.7257e+005   5.6780e+004   3.5398e+005    0.0635   -0.0000    0.0132   -0.0000    0.1200
                0.7257   1.2351e-003  -1.6139e-004   3.6353e-003   2.7852e+005   5.8020e+004   3.5626e+005    0.0649   -0.0000    0.0135   -0.0000    0.1208
                0.7327   1.2703e-003  -1.6599e-004   3.6530e-003   2.8645e+005   5.9671e+004   3.5799e+005    0.0668   -0.0000    0.0139   -0.0000    0.1214
                0.7368   1.2982e-003  -1.6964e-004   3.6639e-003   2.9274e+005   6.0981e+004   3.5906e+005    0.0682   -0.0000    0.0142   -0.0000    0.1217
                0.7382   1.3074e-003  -1.7084e-004   3.6674e-003   2.9481e+005   6.1412e+004   3.5941e+005    0.0687   -0.0000    0.0143   -0.0000    0.1218

               lamina:  3     
              matName:  (blade-shell)
                     s           e11           e22           e12           s11           s22           s12   s11_fcT   s11_fcC   s22_fcT   s22_fcC   s12_fcS
                   (m)         (m/m)         (m/m)         (rad)          (Pa)          (Pa)          (Pa)       (-)       (-)       (-)       (-)       (-)
                0.0000   5.3606e-003  -7.0096e-004   6.8804e-004   1.0291e+008  -7.9796e+004   2.7178e+006    0.3054   -0.0000    0.0000    0.0002    0.0236
                0.0096   5.3175e-003  -6.9532e-004   5.8392e-004   1.0209e+008  -7.9161e+004   2.3065e+006    0.3029   -0.0000    0.0000    0.0002    0.0201
                0.0524   5.0486e-003  -6.6017e-004   1.3221e-004   9.6924e+007  -7.5249e+004   5.2225e+005    0.2876   -0.0000    0.0000    0.0002    0.0045
                0.0952   4.7801e-003  -6.2507e-004   2.9718e-004   9.1769e+007  -7.1340e+004   1.1738e+006    0.2723   -0.0000    0.0000    0.0002    0.0102
                0.1380   4.4678e-003  -5.8424e-004   7.0282e-004   8.5774e+007  -6.6792e+004   2.7761e+006    0.2545   -0.0000    0.0000    0.0002    0.0241
                0.1807   4.1364e-003  -5.4091e-004   1.0806e-003   7.9411e+007  -6.1970e+004   4.2683e+006    0.2356   -0.0000    0.0000    0.0002    0.0371
                0.2228   3.8076e-003  -4.9792e-004   1.4271e-003   7.3099e+007  -5.7186e+004   5.6369e+006    0.2169   -0.0000    0.0000    0.0002    0.0490
                0.2644   3.4597e-003  -4.5243e-004   1.7420e-003   6.6420e+007  -5.2123e+004   6.8808e+006    0.1971   -0.0000    0.0000    0.0002    0.0598
                0.3052   3.1181e-003  -4.0777e-004   2.0238e-003   5.9862e+007  -4.7156e+004   7.9940e+006    0.1776   -0.0000    0.0000    0.0001    0.0695
                0.3450   2.7900e-003  -3.6487e-004   2.2729e-003   5.3562e+007  -4.2385e+004   8.9779e+006    0.1589   -0.0000    0.0000    0.0001    0.0781
                0.3836   2.4785e-003  -3.2415e-004   2.4906e-003   4.7583e+007  -3.7857e+004   9.8380e+006    0.1412   -0.0000    0.0000    0.0001    0.0855
                0.4209   2.1771e-003  -2.8473e-004   2.6793e-003   4.1795e+007  -3.3477e+004   1.0583e+007    0.1240   -0.0000    0.0000    0.0001    0.0920
                0.4566   1.9198e-003  -2.5110e-004   2.8406e-003   3.6857e+007  -2.9741e+004   1.1220e+007    0.1094   -0.0000    0.0000    0.0001    0.0976
                0.4907   1.6831e-003  -2.2016e-004   2.9782e-003   3.2313e+007  -2.6301e+004   1.1764e+007    0.0959   -0.0000    0.0000    0.0001    0.1023
                0.5230   1.4664e-003  -1.9181e-004   3.0950e-003   2.8151e+007  -2.3155e+004   1.2225e+007    0.0835   -0.0000    0.0000    0.0001    0.1063
                0.5533   1.3078e-003  -1.7109e-004   3.1936e-003   2.5108e+007  -2.0854e+004   1.2615e+007    0.0745   -0.0000    0.0000    0.0001    0.1097
                0.5817   1.1599e-003  -1.5174e-004   3.2775e-003   2.2267e+007  -1.8705e+004   1.2946e+007    0.0661   -0.0000    0.0000    0.0001    0.1126
                0.6079   1.0530e-003  -1.3777e-004   3.3489e-003   2.0215e+007  -1.7157e+004   1.3228e+007    0.0600   -0.0000    0.0000    0.0001    0.1150
                0.6318   9.8200e-004  -1.2849e-004   3.4100e-003   1.8852e+007  -1.6126e+004   1.3470e+007    0.0559   -0.0000    0.0000    0.0000    0.1171
                0.6536   9.1746e-004  -1.2005e-004   3.4630e-003   1.7613e+007  -1.5191e+004   1.3679e+007    0.0523   -0.0000    0.0000    0.0000    0.1189
                0.6730   9.0624e-004  -1.1858e-004   3.5089e-003   1.7398e+007  -1.5029e+004   1.3860e+007    0.0516   -0.0000    0.0000    0.0000    0.1205
                0.6898   9.0178e-004  -1.1800e-004   3.5486e-003   1.7312e+007  -1.4965e+004   1.4017e+007    0.0514   -0.0000    0.0000    0.0000    0.1219
                0.7043   9.0922e-004  -1.1897e-004   3.5831e-003   1.7455e+007  -1.5072e+004   1.4153e+007    0.0518   -0.0000    0.0000    0.0000    0.1231
                0.7163   9.4338e-004  -1.2344e-004   3.6120e-003   1.8111e+007  -1.5565e+004   1.4268e+007    0.0537   -0.0000    0.0000    0.0000    0.1241
                0.7257   9.7035e-004  -1.2696e-004   3.6353e-003   1.8629e+007  -1.5953e+004   1.4359e+007    0.0553   -0.0000    0.0000    0.0000    0.1249
                0.7327   1.0071e-003  -1.3177e-004   3.6530e-003   1.9335e+007  -1.6477e+004   1.4429e+007    0.0574   -0.0000    0.0000    0.0000    0.1255
                0.7368   1.0361e-003  -1.3556e-004   3.6639e-003   1.9891e+007  -1.6891e+004   1.4472e+007    0.0590   -0.0000    0.0000    0.0001    0.1258
                0.7382   1.0453e-003  -1.3676e-004   3.6674e-003   2.0067e+007  -1.7024e+004   1.4486e+007    0.0595   -0.0000    0.0000    0.0001    0.1260

     Web:  panel  nNode   nLam     xc_St    xc_End         b         t         E_eff         G_eff      nu_eff     density  buckleCrit
            (-)    (-)    (-)       (-)       (-)       (m)       (m)          (Pa)          (Pa)         (-)    (kg/m^3)         (-)
              1     10      3    0.2386    0.2386    0.2852    0.0121   6.5707e+009   1.3870e+009      0.1347    691.8994      0.1566
              2     10      3    0.4614    0.4614    0.2658    0.0121   6.5707e+009   1.3870e+009      0.1347    691.8994      0.1439

            panel:  1     
           lam_num    nPlies        tPly      fibAng     matID  matName
               (-)       (-)         (m)       (deg)       (-)  (-)
                 1         1    0.002023      0.0000         7  (web-shell)
                 2         1    0.008047      0.0000         8  (web-core)
                 3         1    0.002023      0.0000         7  (web-shell)

               lamina:  1     
              matName:  (web-shell)
                     s           e11           e22           e12           s11           s22           s12   s11_fcT   s11_fcC   s22_fcT   s22_fcC   s12_fcS
                   (m)         (m/m)         (m/m)         (rad)          (Pa)          (Pa)          (Pa)       (-)       (-)       (-)       (-)       (-)
                0.0000  -5.7963e-003   7.8070e-004   1.3490e-002  -1.1122e+008   5.3085e+005   5.3284e+007    0.0000    0.2238    0.0016   -0.0000    0.4633
                0.0317  -4.5341e-003   6.1070e-004   1.3810e-002  -8.7001e+007   4.1533e+005   5.4550e+007    0.0000    0.1751    0.0012   -0.0000    0.4743
                0.0634  -3.2719e-003   4.4070e-004   1.4053e-002  -6.2782e+007   2.9981e+005   5.5510e+007    0.0000    0.1263    0.0009   -0.0000    0.4827
                0.0951  -2.0097e-003   2.7070e-004   1.4219e-002  -3.8563e+007   1.8429e+005   5.6164e+007    0.0000    0.0776    0.0005   -0.0000    0.4884
                0.1268  -7.4755e-004   1.0070e-004   1.4307e-002  -1.4344e+007   6.8773e+004   5.6512e+007    0.0000    0.0289    0.0002   -0.0000    0.4914
                0.1584   5.1712e-004  -6.9622e-005   1.4318e-002   9.9226e+006  -4.6795e+004   5.6555e+007    0.0294   -0.0000    0.0000    0.0001    0.4918
                0.1901   1.7793e-003  -2.3962e-004   1.4251e-002   3.4142e+007  -1.6231e+005   5.6291e+007    0.1013   -0.0000    0.0000    0.0005    0.4895
                0.2218   3.0415e-003  -4.0962e-004   1.4107e-002   5.8360e+007  -2.7783e+005   5.5722e+007    0.1732   -0.0000    0.0000    0.0008    0.4845
                0.2535   4.3037e-003  -5.7962e-004   1.3885e-002   8.2579e+007  -3.9335e+005   5.4847e+007    0.2450   -0.0000    0.0000    0.0012    0.4769
                0.2852   5.5658e-003  -7.4962e-004   1.3586e-002   1.0680e+008  -5.0887e+005   5.3666e+007    0.3169   -0.0000    0.0000    0.0015    0.4667

               lamina:  2     
              matName:  (web-core)
                     s           e11           e22           e12           s11           s22           s12   s11_fcT   s11_fcC   s22_fcT   s22_fcC   s12_fcS
                   (m)         (m/m)         (m/m)         (rad)          (Pa)          (Pa)          (Pa)       (-)       (-)       (-)       (-)       (-)
                0.0000  -5.8062e-003   7.8199e-004   1.3490e-002  -1.3075e+006  -2.6725e+005   1.3220e+006    0.0000    0.3048    0.0000    0.0623    0.4481
                0.0317  -4.5440e-003   6.1199e-004   1.3810e-002  -1.0233e+006  -2.0916e+005   1.3534e+006    0.0000    0.2385    0.0000    0.0488    0.4588
                0.0634  -3.2818e-003   4.4199e-004   1.4053e-002  -7.3903e+005  -1.5106e+005   1.3772e+006    0.0000    0.1723    0.0000    0.0352    0.4669
                0.0951  -2.0196e-003   2.7200e-004   1.4219e-002  -4.5480e+005  -9.2963e+004   1.3934e+006    0.0000    0.1060    0.0000    0.0217    0.4724
                0.1268  -7.5742e-004   1.0200e-004   1.4307e-002  -1.7057e+005  -3.4867e+004   1.4021e+006    0.0000    0.0398    0.0000    0.0081    0.4753
                0.1584   5.1464e-004  -6.9296e-005   1.4318e-002   1.1589e+005   2.3692e+004   1.4031e+006    0.0270   -0.0000    0.0055   -0.0000    0.4756
                0.1901   1.7768e-003  -2.3929e-004   1.4251e-002   4.0012e+005   8.1788e+004   1.3966e+006    0.0933   -0.0000    0.0191   -0.0000    0.4734
                0.2218   3.0390e-003  -4.0929e-004   1.4107e-002   6.8435e+005   1.3988e+005   1.3825e+006    0.1595   -0.0000    0.0326   -0.0000    0.4686
                0.2535   4.3012e-003  -5.7929e-004   1.3885e-002   9.6858e+005   1.9798e+005   1.3608e+006    0.2258   -0.0000    0.0461   -0.0000    0.4613
                0.2852   5.5634e-003  -7.4929e-004   1.3586e-002   1.2528e+006   2.5608e+005   1.3314e+006    0.2920   -0.0000    0.0597   -0.0000    0.4513

               lamina:  3     
              matName:  (web-shell)
                     s           e11           e22           e12           s11           s22           s12   s11_fcT   s11_fcC   s22_fcT   s22_fcC   s12_fcS
                   (m)         (m/m)         (m/m)         (rad)          (Pa)          (Pa)          (Pa)       (-)       (-)       (-)       (-)       (-)
                0.0000  -5.8086e-003   7.8232e-004   1.3490e-002  -1.1146e+008   5.3109e+005   5.3284e+007    0.0000    0.2243    0.0016   -0.0000    0.4633
                0.0317  -4.5465e-003   6.1232e-004   1.3810e-002  -8.7238e+007   4.1557e+005   5.4550e+007    0.0000    0.1755    0.0012   -0.0000    0.4743
                0.0634  -3.2843e-003   4.4232e-004   1.4053e-002  -6.3019e+007   3.0005e+005   5.5510e+007    0.0000    0.1268    0.0009   -0.0000    0.4827
                0.0951  -2.0221e-003   2.7232e-004   1.4219e-002  -3.8800e+007   1.8453e+005   5.6164e+007    0.0000    0.0781    0.0005   -0.0000    0.4884
                0.1268  -7.5991e-004   1.0232e-004   1.4307e-002  -1.4581e+007   6.9015e+004   5.6512e+007    0.0000    0.0293    0.0002   -0.0000    0.4914
                0.1584   5.0476e-004  -6.8002e-005   1.4318e-002   9.6853e+006  -4.6553e+004   5.6555e+007    0.0287   -0.0000    0.0000    0.0001    0.4918
                0.1901   1.7669e-003  -2.3800e-004   1.4251e-002   3.3904e+007  -1.6207e+005   5.6291e+007    0.1006   -0.0000    0.0000    0.0005    0.4895
                0.2218   3.0291e-003  -4.0800e-004   1.4107e-002   5.8123e+007  -2.7759e+005   5.5722e+007    0.1725   -0.0000    0.0000    0.0008    0.4845
                0.2535   4.2913e-003  -5.7800e-004   1.3885e-002   8.2342e+007  -3.9311e+005   5.4847e+007    0.2443   -0.0000    0.0000    0.0012    0.4769
                0.2852   5.5535e-003  -7.4800e-004   1.3586e-002   1.0656e+008  -5.0863e+005   5.3666e+007    0.3162   -0.0000    0.0000    0.0015    0.4667

            panel:  2     
           lam_num    nPlies        tPly      fibAng     matID  matName
               (-)       (-)         (m)       (deg)       (-)  (-)
                 1         1    0.002023      0.0000         7  (web-shell)
                 2         1    0.008047      0.0000         8  (web-core)
                 3         1    0.002023      0.0000         7  (web-shell)

               lamina:  1     
              matName:  (web-shell)
                     s           e11           e22           e12           s11           s22           s12   s11_fcT   s11_fcC   s22_fcT   s22_fcC   s12_fcS
                   (m)         (m/m)         (m/m)         (rad)          (Pa)          (Pa)          (Pa)       (-)       (-)       (-)       (-)       (-)
                0.0000  -5.4422e-003   7.3301e-004   1.5353e-002  -1.0443e+008   4.9844e+005   6.0645e+007    0.0000    0.2101    0.0015   -0.0000    0.5273
                0.0295  -4.2658e-003   5.7456e-004   1.5630e-002  -8.1853e+007   3.9077e+005   6.1740e+007    0.0000    0.1647    0.0012   -0.0000    0.5369
                0.0591  -3.0894e-003   4.1611e-004   1.5840e-002  -5.9279e+007   2.8309e+005   6.2569e+007    0.0000    0.1193    0.0008   -0.0000    0.5441
                0.0886  -1.9129e-003   2.5766e-004   1.5983e-002  -3.6706e+007   1.7542e+005   6.3133e+007    0.0000    0.0739    0.0005   -0.0000    0.5490
                0.1181  -7.3651e-004   9.9215e-005   1.6058e-002  -1.4132e+007   6.7752e+004   6.3431e+007    0.0000    0.0284    0.0002   -0.0000    0.5516
                0.1477   4.4233e-004  -5.9550e-005   1.6067e-002   8.4876e+006  -3.9967e+004   6.3463e+007    0.0252   -0.0000    0.0000    0.0001    0.5519
                0.1772   1.6188e-003  -2.1800e-004   1.6007e-002   3.1061e+007  -1.4764e+005   6.3229e+007    0.0922   -0.0000    0.0000    0.0004    0.5498
                0.2068   2.7952e-003  -3.7645e-004   1.5881e-002   5.3635e+007  -2.5531e+005   6.2730e+007    0.1592   -0.0000    0.0000    0.0008    0.5455
                0.2363   3.9716e-003  -5.3490e-004   1.5687e-002   7.6208e+007  -3.6298e+005   6.1965e+007    0.2261   -0.0000    0.0000    0.0011    0.5388
                0.2658   5.1481e-003  -6.9335e-004   1.5426e-002   9.8782e+007  -4.7065e+005   6.0934e+007    0.2931   -0.0000    0.0000    0.0014    0.5299

               lamina:  2     
              matName:  (web-core)
                     s           e11           e22           e12           s11           s22           s12   s11_fcT   s11_fcC   s22_fcT   s22_fcC   s12_fcS
                   (m)         (m/m)         (m/m)         (rad)          (Pa)          (Pa)          (Pa)       (-)       (-)       (-)       (-)       (-)
                0.0000  -5.4518e-003   7.3427e-004   1.5353e-002  -1.2277e+006  -2.5094e+005   1.5046e+006    0.0000    0.2862    0.0000    0.0585    0.5100
                0.0295  -4.2754e-003   5.7582e-004   1.5630e-002  -9.6277e+005  -1.9679e+005   1.5318e+006    0.0000    0.2244    0.0000    0.0459    0.5192
                0.0591  -3.0989e-003   4.1737e-004   1.5840e-002  -6.9785e+005  -1.4264e+005   1.5524e+006    0.0000    0.1627    0.0000    0.0333    0.5262
                0.0886  -1.9225e-003   2.5892e-004   1.5983e-002  -4.3293e+005  -8.8494e+004   1.5663e+006    0.0000    0.1009    0.0000    0.0206    0.5310
                0.1181  -7.4607e-004   1.0047e-004   1.6058e-002  -1.6801e+005  -3.4345e+004   1.5737e+006    0.0000    0.0392    0.0000    0.0080    0.5335
                0.1477   4.3993e-004  -5.9235e-005   1.6067e-002   9.9069e+004   2.0253e+004   1.5745e+006    0.0231   -0.0000    0.0047   -0.0000    0.5337
                0.1772   1.6164e-003  -2.1768e-004   1.6007e-002   3.6399e+005   7.4403e+004   1.5687e+006    0.0848   -0.0000    0.0173   -0.0000    0.5318
                0.2068   2.7928e-003  -3.7613e-004   1.5881e-002   6.2891e+005   1.2855e+005   1.5563e+006    0.1466   -0.0000    0.0300   -0.0000    0.5276
                0.2363   3.9692e-003  -5.3458e-004   1.5687e-002   8.9383e+005   1.8270e+005   1.5374e+006    0.2084   -0.0000    0.0426   -0.0000    0.5211
                0.2658   5.1457e-003  -6.9303e-004   1.5426e-002   1.1588e+006   2.3685e+005   1.5118e+006    0.2701   -0.0000    0.0552   -0.0000    0.5125

               lamina:  3     
              matName:  (web-shell)
                     s           e11           e22           e12           s11           s22           s12   s11_fcT   s11_fcC   s22_fcT   s22_fcC   s12_fcS
                   (m)         (m/m)         (m/m)         (rad)          (Pa)          (Pa)          (Pa)       (-)       (-)       (-)       (-)       (-)
                0.0000  -5.4542e-003   7.3458e-004   1.5353e-002  -1.0466e+008   4.9867e+005   6.0645e+007    0.0000    0.2106    0.0015   -0.0000    0.5273
                0.0295  -4.2778e-003   5.7613e-004   1.5630e-002  -8.2083e+007   3.9100e+005   6.1740e+007    0.0000    0.1652    0.0012   -0.0000    0.5369
                0.0591  -3.1013e-003   4.1768e-004   1.5840e-002  -5.9509e+007   2.8333e+005   6.2569e+007    0.0000    0.1197    0.0008   -0.0000    0.5441
                0.0886  -1.9249e-003   2.5923e-004   1.5983e-002  -3.6936e+007   1.7566e+005   6.3133e+007    0.0000    0.0743    0.0005   -0.0000    0.5490
                0.1181  -7.4848e-004   1.0078e-004   1.6058e-002  -1.4362e+007   6.7986e+004   6.3431e+007    0.0000    0.0289    0.0002   -0.0000    0.5516
                0.1477   4.3036e-004  -5.7981e-005   1.6067e-002   8.2577e+006  -3.9732e+004   6.3463e+007    0.0245   -0.0000    0.0000    0.0001    0.5519
                0.1772   1.6068e-003  -2.1643e-004   1.6007e-002   3.0831e+007  -1.4740e+005   6.3229e+007    0.0915   -0.0000    0.0000    0.0004    0.5498
                0.2068   2.7832e-003  -3.7488e-004   1.5881e-002   5.3405e+007  -2.5508e+005   6.2730e+007    0.1585   -0.0000    0.0000    0.0008    0.5455
                0.2363   3.9597e-003  -5.3333e-004   1.5687e-002   7.5978e+007  -3.6275e+005   6.1965e+007    0.2255   -0.0000    0.0000    0.0011    0.5388
                0.2658   5.1361e-003  -6.9178e-004   1.5426e-002   9.8552e+007  -4.7042e+005   6.0934e+007    0.2924   -0.0000    0.0000    0.0014    0.5299

================================================================================
sec        =  16     
zSec       =  4.5000  (m)
nPanelsTop =  3      
nPanelsBot =  3      
nWebs      =  2      

    Top:  panel  nNode   nLam     xc_St    xc_End         b         t         E_eff         G_eff      nu_eff     density  buckleCrit
            (-)    (-)    (-)       (-)       (-)       (m)       (m)          (Pa)          (Pa)         (-)    (kg/m^3)         (-)
              1     18      3    0.0000    0.2384    0.3618    0.0091   1.8734e+010   3.8555e+009      0.1301   1633.9344      0.3091
              2      9      5    0.2384    0.4616    0.2899    0.0142   5.7686e+010   4.2190e+009      0.1660   1591.0283      0.4427
              3     28      3    0.4616    1.0000    0.7201    0.0116   1.4805e+010   3.0580e+009      0.1307   1329.5861      0.8618

            panel:  1     
           lam_num    nPlies        tPly      fibAng     matID  matName
               (-)       (-)         (m)       (deg)       (-)  (-)
                 1         1    0.004447      0.0000         2  (blade-shell)
                 2         1    0.000224      0.0000         5  (LEP-core)
                 3         1    0.004447      0.0000         2  (blade-shell)

               lamina:  1     
              matName:  (blade-shell)
                     s           e11           e22           e12           s11           s22           s12   s11_fcT   s11_fcC   s22_fcT   s22_fcC   s12_fcS
                   (m)         (m/m)         (m/m)         (rad)          (Pa)          (Pa)          (Pa)       (-)       (-)       (-)       (-)       (-)
                0.0000   4.3344e-004  -5.6373e-005   6.9186e-003   8.3219e+006  -5.1890e+002   2.7328e+007    0.0247   -0.0000    0.0000    0.0000    0.2376
                0.0041   2.7452e-004  -3.5705e-005   6.9208e-003   5.2708e+006  -3.3057e+002   2.7337e+007    0.0156   -0.0000    0.0000    0.0000    0.2377
                0.0162  -3.9597e-004   5.1487e-005   6.9191e-003  -7.6025e+006   2.2228e+002   2.7330e+007    0.0000    0.0153    0.0000   -0.0000    0.2377
                0.0312  -1.0394e-003   1.3516e-004   6.9007e-003  -1.9956e+007   8.8072e+002   2.7258e+007    0.0000    0.0402    0.0000   -0.0000    0.2370
                0.0440  -1.4966e-003   1.9462e-004   6.8720e-003  -2.8734e+007   1.3399e+003   2.7144e+007    0.0000    0.0578    0.0000   -0.0000    0.2360
                0.0610  -2.0432e-003   2.6572e-004   6.8178e-003  -3.9230e+007   1.9505e+003   2.6930e+007    0.0000    0.0789    0.0000   -0.0000    0.2342
                0.0785  -2.5302e-003   3.2905e-004   6.7439e-003  -4.8579e+007   2.4814e+003   2.6638e+007    0.0000    0.0977    0.0000   -0.0000    0.2316
                0.0985  -3.0113e-003   3.9162e-004   6.6405e-003  -5.7816e+007   3.0368e+003   2.6230e+007    0.0000    0.1163    0.0000   -0.0000    0.2281
                0.1208  -3.5484e-003   4.6148e-004   6.5015e-003  -6.8130e+007   3.6440e+003   2.5681e+007    0.0000    0.1371    0.0000   -0.0000    0.2233
                0.1437  -3.9676e-003   5.1600e-004   6.3369e-003  -7.6178e+007   4.1182e+003   2.5031e+007    0.0000    0.1533    0.0000   -0.0000    0.2177
                0.1692  -4.4211e-003   5.7499e-004   6.1306e-003  -8.4885e+007   4.6475e+003   2.4216e+007    0.0000    0.1708    0.0000   -0.0000    0.2106
                0.1962  -4.8459e-003   6.3024e-004   5.8883e-003  -9.3041e+007   5.1359e+003   2.3259e+007    0.0000    0.1872    0.0000   -0.0000    0.2023
                0.2246  -5.2149e-003   6.7822e-004   5.6089e-003  -1.0013e+008   5.5664e+003   2.2155e+007    0.0000    0.2015    0.0000   -0.0000    0.1927
                0.2550  -5.6101e-003   7.2963e-004   5.2867e-003  -1.0771e+008   6.0261e+003   2.0883e+007    0.0000    0.2167    0.0000   -0.0000    0.1816
                0.2864  -5.9049e-003   7.6797e-004   4.9322e-003  -1.1337e+008   6.3671e+003   1.9482e+007    0.0000    0.2281    0.0000   -0.0000    0.1694
                0.3195  -6.1882e-003   8.0481e-004   4.5387e-003  -1.1881e+008   6.7003e+003   1.7928e+007    0.0000    0.2391    0.0000   -0.0000    0.1559
                0.3539  -6.4542e-003   8.3940e-004   4.1096e-003  -1.2392e+008   7.0124e+003   1.6233e+007    0.0000    0.2493    0.0000   -0.0000    0.1412
                0.3618  -6.4939e-003   8.4457e-004   4.0083e-003  -1.2468e+008   7.0537e+003   1.5833e+007    0.0000    0.2509    0.0000   -0.0000    0.1377

               lamina:  2     
              matName:  (LEP-core)
                     s           e11           e22           e12           s11           s22           s12   s11_fcT   s11_fcC   s22_fcT   s22_fcC   s12_fcS
                   (m)         (m/m)         (m/m)         (rad)          (Pa)          (Pa)          (Pa)       (-)       (-)       (-)       (-)       (-)
                0.0000   4.4227e-004  -5.7522e-005   6.9186e-003   9.9754e+004   2.0839e+004   6.7802e+005    0.0233   -0.0000    0.0049   -0.0000    0.2298
                0.0041   2.8336e-004  -3.6853e-005   6.9208e-003   6.3911e+004   1.3351e+004   6.7824e+005    0.0149   -0.0000    0.0031   -0.0000    0.2299
                0.0162  -1.9256e-004   2.5044e-005   6.9191e-003  -4.3432e+004  -9.0732e+003   6.7807e+005    0.0000    0.0101    0.0000    0.0021    0.2299
                0.0312  -7.5026e-004   9.7579e-005   6.9007e-003  -1.6922e+005  -3.5351e+004   6.7626e+005    0.0000    0.0394    0.0000    0.0082    0.2292
                0.0440  -1.1394e-003   1.4819e-004   6.8720e-003  -2.5699e+005  -5.3686e+004   6.7346e+005    0.0000    0.0599    0.0000    0.0125    0.2283
                0.0610  -1.6554e-003   2.1530e-004   6.8178e-003  -3.7337e+005  -7.7998e+004   6.6814e+005    0.0000    0.0870    0.0000    0.0182    0.2265
                0.0785  -2.1043e-003   2.7368e-004   6.7439e-003  -4.7461e+005  -9.9150e+004   6.6090e+005    0.0000    0.1106    0.0000    0.0231    0.2240
                0.0985  -2.5732e-003   3.3467e-004   6.6405e-003  -5.8039e+005  -1.2125e+005   6.5077e+005    0.0000    0.1353    0.0000    0.0283    0.2206
                0.1208  -3.0862e-003   4.0139e-004   6.5015e-003  -6.9609e+005  -1.4542e+005   6.3715e+005    0.0000    0.1623    0.0000    0.0339    0.2160
                0.1437  -3.4868e-003   4.5349e-004   6.3369e-003  -7.8644e+005  -1.6429e+005   6.2102e+005    0.0000    0.1833    0.0000    0.0383    0.2105
                0.1692  -3.9336e-003   5.1160e-004   6.1306e-003  -8.8722e+005  -1.8534e+005   6.0080e+005    0.0000    0.2068    0.0000    0.0432    0.2037
                0.1962  -4.3460e-003   5.6525e-004   5.8883e-003  -9.8024e+005  -2.0478e+005   5.7706e+005    0.0000    0.2285    0.0000    0.0477    0.1956
                0.2246  -4.7094e-003   6.1250e-004   5.6089e-003  -1.0622e+006  -2.2190e+005   5.4968e+005    0.0000    0.2476    0.0000    0.0517    0.1863
                0.2550  -5.0975e-003   6.6298e-004   5.2867e-003  -1.1497e+006  -2.4019e+005   5.1810e+005    0.0000    0.2680    0.0000    0.0560    0.1756
                0.2864  -5.3854e-003   7.0043e-004   4.9322e-003  -1.2147e+006  -2.5375e+005   4.8335e+005    0.0000    0.2831    0.0000    0.0591    0.1638
                0.3195  -5.6666e-003   7.3700e-004   4.5387e-003  -1.2781e+006  -2.6700e+005   4.4479e+005    0.0000    0.2979    0.0000    0.0622    0.1508
                0.3539  -5.9300e-003   7.7126e-004   4.1096e-003  -1.3375e+006  -2.7941e+005   4.0274e+005    0.0000    0.3118    0.0000    0.0651    0.1365
                0.3618  -5.9650e-003   7.7581e-004   4.0083e-003  -1.3454e+006  -2.8106e+005   3.9281e+005    0.0000    0.3136    0.0000    0.0655    0.1332

               lamina:  3     
              matName:  (blade-shell)
                     s           e11           e22           e12           s11           s22           s12   s11_fcT   s11_fcC   s22_fcT   s22_fcC   s12_fcS
                   (m)         (m/m)         (m/m)         (rad)          (Pa)          (Pa)          (Pa)       (-)       (-)       (-)       (-)       (-)
                0.0000   6.1790e-004  -8.0353e-005   6.9186e-003   1.1864e+007  -5.1903e+002   2.7328e+007    0.0352   -0.0000    0.0000    0.0000    0.2376
                0.0041   4.5898e-004  -5.9685e-005   6.9208e-003   8.8124e+006  -3.3070e+002   2.7337e+007    0.0261   -0.0000    0.0000    0.0000    0.2377
                0.0162  -1.8233e-004   2.3714e-005   6.9191e-003  -3.5007e+006   2.2214e+002   2.7330e+007    0.0000    0.0070    0.0000   -0.0000    0.2377
                0.0312  -7.3572e-004   9.5688e-005   6.9007e-003  -1.4126e+007   8.8051e+002   2.7258e+007    0.0000    0.0284    0.0000   -0.0000    0.2370
                0.0440  -1.1214e-003   1.4585e-004   6.8720e-003  -2.1531e+007   1.3396e+003   2.7144e+007    0.0000    0.0433    0.0000   -0.0000    0.2360
                0.0610  -1.6359e-003   2.1276e-004   6.8178e-003  -3.1408e+007   1.9502e+003   2.6930e+007    0.0000    0.0632    0.0000   -0.0000    0.2342
                0.0785  -2.0828e-003   2.7090e-004   6.7439e-003  -3.9990e+007   2.4811e+003   2.6638e+007    0.0000    0.0805    0.0000   -0.0000    0.2316
                0.0985  -2.5512e-003   3.3181e-004   6.6405e-003  -4.8982e+007   3.0365e+003   2.6230e+007    0.0000    0.0986    0.0000   -0.0000    0.2281
                0.1208  -3.0629e-003   3.9837e-004   6.5015e-003  -5.8808e+007   3.6437e+003   2.5681e+007    0.0000    0.1183    0.0000   -0.0000    0.2233
                0.1437  -3.4626e-003   4.5035e-004   6.3369e-003  -6.6481e+007   4.1178e+003   2.5031e+007    0.0000    0.1338    0.0000   -0.0000    0.2177
                0.1692  -3.9091e-003   5.0842e-004   6.1306e-003  -7.5053e+007   4.6472e+003   2.4216e+007    0.0000    0.1510    0.0000   -0.0000    0.2106
                0.1962  -4.3209e-003   5.6198e-004   5.8883e-003  -8.2960e+007   5.1356e+003   2.3259e+007    0.0000    0.1669    0.0000   -0.0000    0.2023
                0.2246  -4.6839e-003   6.0920e-004   5.6089e-003  -8.9931e+007   5.5660e+003   2.2155e+007    0.0000    0.1809    0.0000   -0.0000    0.1927
                0.2550  -5.0717e-003   6.5963e-004   5.2867e-003  -9.7376e+007   6.0257e+003   2.0883e+007    0.0000    0.1959    0.0000   -0.0000    0.1816
                0.2864  -5.3593e-003   6.9703e-004   4.9322e-003  -1.0290e+008   6.3668e+003   1.9482e+007    0.0000    0.2070    0.0000   -0.0000    0.1694
                0.3195  -5.6403e-003   7.3358e-004   4.5387e-003  -1.0829e+008   6.6999e+003   1.7928e+007    0.0000    0.2179    0.0000   -0.0000    0.1559
                0.3539  -5.9036e-003   7.6783e-004   4.1096e-003  -1.1335e+008   7.0120e+003   1.6233e+007    0.0000    0.2281    0.0000   -0.0000    0.1412
                0.3618  -5.9384e-003   7.7235e-004   4.0083e-003  -1.1402e+008   7.0533e+003   1.5833e+007    0.0000    0.2294    0.0000   -0.0000    0.1377

            panel:  2     
           lam_num    nPlies        tPly      fibAng     matID  matName
               (-)       (-)         (m)       (deg)       (-)  (-)
                 1         1    0.004447      0.0000         2  (blade-shell)
                 2         1    0.002632      0.0000         3  (spar-uni)
                 3         1    0.000047      0.0000         4  (spar-core)
                 4         1    0.002632      0.0000         3  (spar-uni)
                 5         1    0.004447      0.0000         2  (blade-shell)

               lamina:  1     
              matName:  (blade-shell)
                     s           e11           e22           e12           s11           s22           s12   s11_fcT   s11_fcC   s22_fcT   s22_fcC   s12_fcS
                   (m)         (m/m)         (m/m)         (rad)          (Pa)          (Pa)          (Pa)       (-)       (-)       (-)       (-)       (-)
                0.0000  -7.8753e-003   1.2428e-003   6.0925e-003  -1.5065e+008   4.2769e+006   2.4065e+007    0.0000    0.3031    0.0127   -0.0000    0.2093
                0.0272  -7.9964e-003   1.2629e-003   5.1179e-003  -1.5296e+008   4.3621e+006   2.0216e+007    0.0000    0.3078    0.0129   -0.0000    0.1758
                0.0637  -8.1646e-003   1.2906e-003   3.7831e-003  -1.5618e+008   4.4767e+006   1.4943e+007    0.0000    0.3142    0.0133   -0.0000    0.1299
                0.1009  -8.2399e-003   1.3029e-003   2.3979e-003  -1.5762e+008   4.5262e+006   9.4717e+006    0.0000    0.3171    0.0134   -0.0000    0.0824
                0.1392  -8.2411e-003   1.3031e-003   9.6553e-004  -1.5764e+008   4.5267e+006   3.8138e+006    0.0000    0.3172    0.0134   -0.0000    0.0332
                0.1781  -8.2397e-003   1.3030e-003   4.8765e-004  -1.5761e+008   4.5273e+006   1.9262e+006    0.0000    0.3171    0.0134   -0.0000    0.0167
                0.2178  -8.0732e-003   1.2756e-003   1.9478e-003  -1.5443e+008   4.4150e+006   7.6940e+006    0.0000    0.3107    0.0131   -0.0000    0.0669
                0.2582  -7.9000e-003   1.2469e-003   3.3944e-003  -1.5112e+008   4.2950e+006   1.3408e+007    0.0000    0.3041    0.0127   -0.0000    0.1166
                0.2899  -7.7301e-003   1.2188e-003   4.4965e-003  -1.4788e+008   4.1777e+006   1.7761e+007    0.0000    0.2975    0.0124   -0.0000    0.1544

               lamina:  2     
              matName:  (spar-uni)
                     s           e11           e22           e12           s11           s22           s12   s11_fcT   s11_fcC   s22_fcT   s22_fcC   s12_fcS
                   (m)         (m/m)         (m/m)         (rad)          (Pa)          (Pa)          (Pa)       (-)       (-)       (-)       (-)       (-)
                0.0000  -6.6062e-003   1.0726e-003   6.0925e-003  -8.1506e+008  -8.0493e+006   2.8696e+007    0.0000    0.8151    0.0000    0.1344    0.2786
                0.0272  -6.7273e-003   1.0927e-003   5.1179e-003  -8.2999e+008  -8.1931e+006   2.4105e+007    0.0000    0.8300    0.0000    0.1368    0.2340
                0.0637  -6.8917e-003   1.1199e-003   3.7831e-003  -8.5029e+008  -8.3892e+006   1.7818e+007    0.0000    0.8503    0.0000    0.1401    0.1730
                0.1009  -6.9636e-003   1.1318e-003   2.3979e-003  -8.5915e+008  -8.4751e+006   1.1294e+007    0.0000    0.8591    0.0000    0.1415    0.1097
                0.1392  -6.9644e-003   1.1319e-003   9.6553e-004  -8.5925e+008  -8.4761e+006   4.5477e+006    0.0000    0.8593    0.0000    0.1415    0.0442
                0.1781  -6.9646e-003   1.1320e-003   4.8765e-004  -8.5927e+008  -8.4760e+006   2.2968e+006    0.0000    0.8593    0.0000    0.1415    0.0223
                0.2178  -6.8030e-003   1.1052e-003   1.9478e-003  -8.3934e+008  -8.2833e+006   9.1743e+006    0.0000    0.8393    0.0000    0.1383    0.0891
                0.2582  -6.6317e-003   1.0768e-003   3.3944e-003  -8.1820e+008  -8.0794e+006   1.5988e+007    0.0000    0.8182    0.0000    0.1349    0.1552
                0.2899  -6.4640e-003   1.0490e-003   4.4965e-003  -7.9752e+008  -7.8799e+006   2.1178e+007    0.0000    0.7975    0.0000    0.1316    0.2056

               lamina:  3     
              matName:  (spar-core)
                     s           e11           e22           e12           s11           s22           s12   s11_fcT   s11_fcC   s22_fcT   s22_fcC   s12_fcS
                   (m)         (m/m)         (m/m)         (rad)          (Pa)          (Pa)          (Pa)       (-)       (-)       (-)       (-)       (-)
                0.0000  -5.8550e-003   9.7186e-004   6.0925e-003  -1.3042e+006  -2.2631e+005   5.9707e+005    0.0000    0.3040    0.0000    0.0528    0.2024
                0.0272  -5.9760e-003   9.9195e-004   5.1179e-003  -1.3312e+006  -2.3098e+005   5.0156e+005    0.0000    0.3103    0.0000    0.0538    0.1700
                0.0637  -6.1383e-003   1.0189e-003   3.7831e-003  -1.3673e+006  -2.3725e+005   3.7074e+005    0.0000    0.3187    0.0000    0.0553    0.1257
                0.1009  -6.2081e-003   1.0305e-003   2.3979e-003  -1.3829e+006  -2.3995e+005   2.3499e+005    0.0000    0.3224    0.0000    0.0559    0.0797
                0.1392  -6.2087e-003   1.0306e-003   9.6553e-004  -1.3830e+006  -2.3997e+005   9.4622e+004    0.0000    0.3224    0.0000    0.0559    0.0321
                0.1781  -6.2098e-003   1.0308e-003   4.8765e-004  -1.3833e+006  -2.4002e+005   4.7790e+004    0.0000    0.3224    0.0000    0.0559    0.0162
                0.2178  -6.0511e-003   1.0044e-003   1.9478e-003  -1.3479e+006  -2.3388e+005   1.9089e+005    0.0000    0.3142    0.0000    0.0545    0.0647
                0.2582  -5.8809e-003   9.7616e-004   3.3944e-003  -1.3100e+006  -2.2731e+005   3.3265e+005    0.0000    0.3054    0.0000    0.0530    0.1128
                0.2899  -5.7146e-003   9.4854e-004   4.4965e-003  -1.2729e+006  -2.2088e+005   4.4065e+005    0.0000    0.2967    0.0000    0.0515    0.1494

               lamina:  4     
              matName:  (spar-uni)
                     s           e11           e22           e12           s11           s22           s12   s11_fcT   s11_fcC   s22_fcT   s22_fcC   s12_fcS
                   (m)         (m/m)         (m/m)         (rad)          (Pa)          (Pa)          (Pa)       (-)       (-)       (-)       (-)       (-)
                0.0000  -5.8416e-003   9.7006e-004   6.0925e-003  -7.2067e+008  -6.9393e+006   2.8696e+007    0.0000    0.7207    0.0000    0.1158    0.2786
                0.0272  -5.9626e-003   9.9016e-004   5.1179e-003  -7.3560e+008  -7.0831e+006   2.4105e+007    0.0000    0.7356    0.0000    0.1182    0.2340
                0.0637  -6.1249e-003   1.0171e-003   3.7831e-003  -7.5561e+008  -7.2759e+006   1.7818e+007    0.0000    0.7556    0.0000    0.1215    0.1730
                0.1009  -6.1946e-003   1.0287e-003   2.3979e-003  -7.6422e+008  -7.3588e+006   1.1294e+007    0.0000    0.7642    0.0000    0.1229    0.1097
                0.1392  -6.1953e-003   1.0288e-003   9.6553e-004  -7.6430e+008  -7.3595e+006   4.5477e+006    0.0000    0.7643    0.0000    0.1229    0.0442
                0.1781  -6.1963e-003   1.0290e-003   4.8765e-004  -7.6443e+008  -7.3608e+006   2.2968e+006    0.0000    0.7644    0.0000    0.1229    0.0223
                0.2178  -6.0377e-003   1.0026e-003   1.9478e-003  -7.4486e+008  -7.1723e+006   9.1743e+006    0.0000    0.7449    0.0000    0.1197    0.0891
                0.2582  -5.8675e-003   9.7436e-004   3.3944e-003  -7.2387e+008  -6.9701e+006   1.5988e+007    0.0000    0.7239    0.0000    0.1164    0.1552
                0.2899  -5.7012e-003   9.4675e-004   4.4965e-003  -7.0335e+008  -6.7725e+006   2.1178e+007    0.0000    0.7033    0.0000    0.1131    0.2056

               lamina:  5     
              matName:  (blade-shell)
                     s           e11           e22           e12           s11           s22           s12   s11_fcT   s11_fcC   s22_fcT   s22_fcC   s12_fcS
                   (m)         (m/m)         (m/m)         (rad)          (Pa)          (Pa)          (Pa)       (-)       (-)       (-)       (-)       (-)
                0.0000  -5.0904e-003   8.6932e-004   6.0925e-003  -9.7208e+007   4.0539e+006   2.4065e+007    0.0000    0.1956    0.0120   -0.0000    0.2093
                0.0272  -5.2114e-003   8.8942e-004   5.1179e-003  -9.9521e+007   4.1391e+006   2.0216e+007    0.0000    0.2002    0.0123   -0.0000    0.1758
                0.0637  -5.3714e-003   9.1605e-004   3.7831e-003  -1.0258e+008   4.2530e+006   1.4943e+007    0.0000    0.2064    0.0126   -0.0000    0.1299
                0.1009  -5.4391e-003   9.2736e-004   2.3979e-003  -1.0387e+008   4.3020e+006   9.4717e+006    0.0000    0.2090    0.0128   -0.0000    0.0824
                0.1392  -5.4396e-003   9.2744e-004   9.6553e-004  -1.0388e+008   4.3024e+006   3.8138e+006    0.0000    0.2090    0.0128   -0.0000    0.0332
                0.1781  -5.4415e-003   9.2774e-004   4.8765e-004  -1.0392e+008   4.3032e+006   1.9262e+006    0.0000    0.2091    0.0128   -0.0000    0.0167
                0.2178  -5.2858e-003   9.0179e-004   1.9478e-003  -1.0094e+008   4.1918e+006   7.6940e+006    0.0000    0.2031    0.0124   -0.0000    0.0669
                0.2582  -5.1168e-003   8.7369e-004   3.3944e-003  -9.7712e+007   4.0722e+006   1.3408e+007    0.0000    0.1966    0.0121   -0.0000    0.1166
                0.2899  -4.9517e-003   8.4625e-004   4.4965e-003  -9.4559e+007   3.9553e+006   1.7761e+007    0.0000    0.1903    0.0117   -0.0000    0.1544

            panel:  3     
           lam_num    nPlies        tPly      fibAng     matID  matName
               (-)       (-)         (m)       (deg)       (-)  (-)
                 1         1    0.004447      0.0000         2  (blade-shell)
                 2         1    0.002680      0.0000         6  (TEP-core)
                 3         1    0.004447      0.0000         2  (blade-shell)

               lamina:  1     
              matName:  (blade-shell)
                     s           e11           e22           e12           s11           s22           s12   s11_fcT   s11_fcC   s22_fcT   s22_fcC   s12_fcS
                   (m)         (m/m)         (m/m)         (rad)          (Pa)          (Pa)          (Pa)       (-)       (-)       (-)       (-)       (-)
                0.0000  -6.3106e-003   8.2457e-004   4.1562e-004  -1.2115e+008   8.1861e+004   1.6417e+006    0.0000    0.2438    0.0002   -0.0000    0.0143
                0.0089  -6.2608e-003   8.1806e-004   5.2343e-004  -1.2020e+008   8.1206e+004   2.0675e+006    0.0000    0.2418    0.0002   -0.0000    0.0180
                0.0502  -5.9524e-003   7.7775e-004   1.0110e-003  -1.1428e+008   7.6855e+004   3.9935e+006    0.0000    0.2299    0.0002   -0.0000    0.0347
                0.0915  -5.6435e-003   7.3736e-004   1.4702e-003  -1.0835e+008   7.2511e+004   5.8074e+006    0.0000    0.2180    0.0002   -0.0000    0.0505
                0.1328  -5.2671e-003   6.8816e-004   1.8998e-003  -1.0112e+008   6.7231e+004   7.5041e+006    0.0000    0.2035    0.0002   -0.0000    0.0653
                0.1742  -4.8637e-003   6.3544e-004   2.2939e-003  -9.3376e+007   6.1540e+004   9.0609e+006    0.0000    0.1879    0.0002   -0.0000    0.0788
                0.2149  -4.4611e-003   5.8280e-004   2.6475e-003  -8.5646e+007   5.5876e+004   1.0458e+007    0.0000    0.1723    0.0002   -0.0000    0.0909
                0.2554  -4.0048e-003   5.2316e-004   2.9611e-003  -7.6886e+007   4.9454e+004   1.1696e+007    0.0000    0.1547    0.0001   -0.0000    0.1017
                0.2952  -3.5589e-003   4.6487e-004   3.2303e-003  -6.8326e+007   4.3151e+004   1.2760e+007    0.0000    0.1375    0.0001   -0.0000    0.1110
                0.3340  -3.1122e-003   4.0647e-004   3.4558e-003  -5.9750e+007   3.6846e+004   1.3650e+007    0.0000    0.1202    0.0001   -0.0000    0.1187
                0.3718  -2.6634e-003   3.4781e-004   3.6388e-003  -5.1134e+007   3.0505e+004   1.4373e+007    0.0000    0.1029    0.0001   -0.0000    0.1250
                0.4083  -2.2304e-003   2.9119e-004   3.7810e-003  -4.2820e+007   2.4374e+004   1.4935e+007    0.0000    0.0862    0.0001   -0.0000    0.1299
                0.4434  -1.8162e-003   2.3705e-004   3.8854e-003  -3.4869e+007   1.8511e+004   1.5347e+007    0.0000    0.0702    0.0001   -0.0000    0.1335
                0.4770  -1.4211e-003   1.8540e-004   3.9558e-003  -2.7283e+007   1.2916e+004   1.5625e+007    0.0000    0.0549    0.0000   -0.0000    0.1359
                0.5088  -1.0496e-003   1.3683e-004   3.9962e-003  -2.0151e+007   7.6432e+003   1.5785e+007    0.0000    0.0405    0.0000   -0.0000    0.1373
                0.5388  -7.1506e-004   9.3106e-005   4.0112e-003  -1.3729e+007   2.8959e+003   1.5844e+007    0.0000    0.0276    0.0000   -0.0000    0.1378
                0.5668  -4.0216e-004   5.2202e-005   4.0056e-003  -7.7216e+006  -1.7864e+003   1.5822e+007    0.0000    0.0155    0.0000    0.0000    0.1376
                0.5926   2.8637e-004  -3.7521e-005   3.9838e-003   5.4975e+006  -5.7332e+003   1.5736e+007    0.0163   -0.0000    0.0000    0.0000    0.1368
                0.6163   5.3117e-004  -6.9524e-005   3.9504e-003   1.0197e+007  -9.2003e+003   1.5604e+007    0.0303   -0.0000    0.0000    0.0000    0.1357
                0.6378   7.5300e-004  -9.8523e-005   3.9093e-003   1.4456e+007  -1.2344e+004   1.5442e+007    0.0429   -0.0000    0.0000    0.0000    0.1343
                0.6568   9.3431e-004  -1.2222e-004   3.8644e-003   1.7937e+007  -1.4915e+004   1.5264e+007    0.0532   -0.0000    0.0000    0.0000    0.1327
                0.6735   1.0909e-003  -1.4269e-004   3.8192e-003   2.0943e+007  -1.7132e+004   1.5086e+007    0.0621   -0.0000    0.0000    0.0001    0.1312
                0.6876   1.2224e-003  -1.5989e-004   3.7761e-003   2.3468e+007  -1.8996e+004   1.4916e+007    0.0696   -0.0000    0.0000    0.0001    0.1297
                0.6993   1.3253e-003  -1.7334e-004   3.7377e-003   2.5444e+007  -2.0455e+004   1.4764e+007    0.0755   -0.0000    0.0000    0.0001    0.1284
                0.7084   1.4056e-003  -1.8384e-004   3.7061e-003   2.6985e+007  -2.1590e+004   1.4639e+007    0.0801   -0.0000    0.0000    0.0001    0.1273
                0.7149   1.4656e-003  -1.9167e-004   3.6824e-003   2.8136e+007  -2.2435e+004   1.4546e+007    0.0835   -0.0000    0.0000    0.0001    0.1265
                0.7188   1.5027e-003  -1.9653e-004   3.6678e-003   2.8849e+007  -2.2959e+004   1.4488e+007    0.0856   -0.0000    0.0000    0.0001    0.1260
                0.7201   1.5151e-003  -1.9815e-004   3.6628e-003   2.9087e+007  -2.3135e+004   1.4468e+007    0.0863   -0.0000    0.0000    0.0001    0.1258

               lamina:  2     
              matName:  (TEP-core)
                     s           e11           e22           e12           s11           s22           s12   s11_fcT   s11_fcC   s22_fcT   s22_fcC   s12_fcS
                   (m)         (m/m)         (m/m)         (rad)          (Pa)          (Pa)          (Pa)       (-)       (-)       (-)       (-)       (-)
                0.0000  -5.8884e-003   7.6968e-004   4.1562e-004  -1.3278e+006  -2.7655e+005   4.0731e+004    0.0000    0.3095    0.0000    0.0645    0.0138
                0.0089  -5.8414e-003   7.6353e-004   5.2343e-004  -1.3172e+006  -2.7435e+005   5.1296e+004    0.0000    0.3070    0.0000    0.0639    0.0174
                0.0502  -5.5338e-003   7.2332e-004   1.0110e-003  -1.2479e+006  -2.5990e+005   9.9079e+004    0.0000    0.2909    0.0000    0.0606    0.0336
                0.0915  -5.2265e-003   6.8314e-004   1.4702e-003  -1.1786e+006  -2.4547e+005   1.4408e+005    0.0000    0.2747    0.0000    0.0572    0.0488
                0.1328  -4.8527e-003   6.3429e-004   1.8998e-003  -1.0943e+006  -2.2791e+005   1.8618e+005    0.0000    0.2551    0.0000    0.0531    0.0631
                0.1742  -4.4504e-003   5.8169e-004   2.2939e-003  -1.0036e+006  -2.0902e+005   2.2480e+005    0.0000    0.2339    0.0000    0.0487    0.0762
                0.2149  -4.0497e-003   5.2931e-004   2.6475e-003  -9.1321e+005  -1.9020e+005   2.5946e+005    0.0000    0.2129    0.0000    0.0443    0.0880
                0.2554  -3.5954e-003   4.6993e-004   2.9611e-003  -8.1077e+005  -1.6887e+005   2.9019e+005    0.0000    0.1890    0.0000    0.0394    0.0984
                0.2952  -3.1499e-003   4.1169e-004   3.2303e-003  -7.1031e+005  -1.4795e+005   3.1657e+005    0.0000    0.1656    0.0000    0.0345    0.1073
                0.3340  -2.7042e-003   3.5342e-004   3.4558e-003  -6.0980e+005  -1.2701e+005   3.3867e+005    0.0000    0.1421    0.0000    0.0296    0.1148
                0.3718  -2.2560e-003   2.9483e-004   3.6388e-003  -5.0873e+005  -1.0597e+005   3.5661e+005    0.0000    0.1186    0.0000    0.0247    0.1209
                0.4083  -1.8229e-003   2.3821e-004   3.7810e-003  -4.1106e+005  -8.5625e+004   3.7054e+005    0.0000    0.0958    0.0000    0.0200    0.1256
                0.4434  -1.4086e-003   1.8405e-004   3.8854e-003  -3.1764e+005  -6.6171e+004   3.8077e+005    0.0000    0.0740    0.0000    0.0154    0.1291
                0.4770  -1.0133e-003   1.3238e-004   3.9558e-003  -2.2851e+005  -4.7608e+004   3.8767e+005    0.0000    0.0533    0.0000    0.0111    0.1314
                0.5088  -6.4094e-004   8.3701e-005   3.9962e-003  -1.4454e+005  -3.0120e+004   3.9163e+005    0.0000    0.0337    0.0000    0.0070    0.1328
                0.5388  -3.0568e-004   3.9874e-005   4.0112e-003  -6.8937e+004  -1.4376e+004   3.9310e+005    0.0000    0.0161    0.0000    0.0034    0.1333
                0.5668   2.5495e-004  -3.3243e-005   4.0056e-003   5.7498e+004   1.1993e+004   3.9255e+005    0.0134   -0.0000    0.0028   -0.0000    0.1331
                0.5926   5.3422e-004  -6.9749e-005   3.9838e-003   1.2047e+005   2.5108e+004   3.9041e+005    0.0281   -0.0000    0.0059   -0.0000    0.1323
                0.6163   7.7938e-004  -1.0180e-004   3.9504e-003   1.7576e+005   3.6622e+004   3.8714e+005    0.0410   -0.0000    0.0085   -0.0000    0.1312
                0.6378   1.0018e-003  -1.3088e-004   3.9093e-003   2.2592e+005   4.7069e+004   3.8311e+005    0.0527   -0.0000    0.0110   -0.0000    0.1299
                0.6568   1.1839e-003  -1.5468e-004   3.8644e-003   2.6697e+005   5.5618e+004   3.7871e+005    0.0622   -0.0000    0.0130   -0.0000    0.1284
                0.6735   1.3407e-003  -1.7517e-004   3.8192e-003   3.0232e+005   6.2980e+004   3.7428e+005    0.0705   -0.0000    0.0147   -0.0000    0.1269
                0.6876   1.4726e-003  -1.9242e-004   3.7761e-003   3.3207e+005   6.9176e+004   3.7006e+005    0.0774   -0.0000    0.0161   -0.0000    0.1254
                0.6993   1.5759e-003  -2.0592e-004   3.7377e-003   3.5536e+005   7.4026e+004   3.6630e+005    0.0828   -0.0000    0.0173   -0.0000    0.1242
                0.7084   1.6559e-003  -2.1638e-004   3.7061e-003   3.7341e+005   7.7786e+004   3.6319e+005    0.0870   -0.0000    0.0181   -0.0000    0.1231
                0.7149   1.7154e-003  -2.2416e-004   3.6824e-003   3.8683e+005   8.0580e+004   3.6088e+005    0.0902   -0.0000    0.0188   -0.0000    0.1223
                0.7188   1.7523e-003  -2.2898e-004   3.6678e-003   3.9515e+005   8.2312e+004   3.5944e+005    0.0921   -0.0000    0.0192   -0.0000    0.1218
                0.7201   1.7647e-003  -2.3061e-004   3.6628e-003   3.9795e+005   8.2896e+004   3.5895e+005    0.0928   -0.0000    0.0193   -0.0000    0.1217

               lamina:  3     
              matName:  (blade-shell)
                     s           e11           e22           e12           s11           s22           s12   s11_fcT   s11_fcC   s22_fcT   s22_fcC   s12_fcS
                   (m)         (m/m)         (m/m)         (rad)          (Pa)          (Pa)          (Pa)       (-)       (-)       (-)       (-)       (-)
                0.0000  -5.6340e-003   7.3659e-004   4.1562e-004  -1.0816e+008   8.1460e+004   1.6417e+006    0.0000    0.2176    0.0002   -0.0000    0.0143
                0.0089  -5.5887e-003   7.3067e-004   5.2343e-004  -1.0729e+008   8.0808e+004   2.0675e+006    0.0000    0.2159    0.0002   -0.0000    0.0180
                0.0502  -5.2815e-003   6.9051e-004   1.0110e-003  -1.0140e+008   7.6458e+004   3.9935e+006    0.0000    0.2040    0.0002   -0.0000    0.0347
                0.0915  -4.9751e-003   6.5046e-004   1.4702e-003  -9.5513e+007   7.2115e+004   5.8074e+006    0.0000    0.1922    0.0002   -0.0000    0.0505
                0.1328  -4.6030e-003   6.0181e-004   1.8998e-003  -8.8369e+007   6.6837e+004   7.5041e+006    0.0000    0.1778    0.0002   -0.0000    0.0653
                0.1742  -4.2012e-003   5.4929e-004   2.2939e-003  -8.0656e+007   6.1147e+004   9.0609e+006    0.0000    0.1623    0.0002   -0.0000    0.0788
                0.2149  -3.8017e-003   4.9707e-004   2.6475e-003  -7.2986e+007   5.5486e+004   1.0458e+007    0.0000    0.1469    0.0002   -0.0000    0.0909
                0.2554  -3.3487e-003   4.3784e-004   2.9611e-003  -6.4288e+007   4.9065e+004   1.1696e+007    0.0000    0.1294    0.0001   -0.0000    0.1017
                0.2952  -2.9034e-003   3.7964e-004   3.2303e-003  -5.5740e+007   4.2762e+004   1.2760e+007    0.0000    0.1122    0.0001   -0.0000    0.1110
                0.3340  -2.4583e-003   3.2144e-004   3.4558e-003  -4.7194e+007   3.6458e+004   1.3650e+007    0.0000    0.0950    0.0001   -0.0000    0.1187
                0.3718  -2.0104e-003   2.6290e-004   3.6388e-003  -3.8597e+007   3.0118e+004   1.4373e+007    0.0000    0.0777    0.0001   -0.0000    0.1250
                0.4083  -1.5773e-003   2.0627e-004   3.7810e-003  -3.0280e+007   2.3987e+004   1.4935e+007    0.0000    0.0609    0.0001   -0.0000    0.1299
                0.4434  -1.1629e-003   1.5211e-004   3.8854e-003  -2.2326e+007   1.8124e+004   1.5347e+007    0.0000    0.0449    0.0001   -0.0000    0.1335
                0.4770  -7.6756e-004   1.0042e-004   3.9558e-003  -1.4735e+007   1.2529e+004   1.5625e+007    0.0000    0.0296    0.0000   -0.0000    0.1359
                0.5088  -3.9465e-004   5.1676e-005   3.9962e-003  -7.5764e+006   7.2551e+003   1.5785e+007    0.0000    0.0152    0.0000   -0.0000    0.1373
                0.5388   3.5044e-004  -4.5441e-005   4.0112e-003   6.7287e+006   2.5071e+003   1.5844e+007    0.0200   -0.0000    0.0000   -0.0000    0.1378
                0.5668   6.6495e-004  -8.6555e-005   4.0056e-003   1.2767e+007  -2.1758e+003   1.5822e+007    0.0379   -0.0000    0.0000    0.0000    0.1376
                0.5926   9.4543e-004  -1.2322e-004   3.9838e-003   1.8152e+007  -6.1238e+003   1.5736e+007    0.0539   -0.0000    0.0000    0.0000    0.1368
                0.6163   1.1912e-003  -1.5535e-004   3.9504e-003   2.2870e+007  -9.5914e+003   1.5604e+007    0.0679   -0.0000    0.0000    0.0000    0.1357
                0.6378   1.4147e-003  -1.8456e-004   3.9093e-003   2.7160e+007  -1.2736e+004   1.5442e+007    0.0806   -0.0000    0.0000    0.0000    0.1343
                0.6568   1.5980e-003  -2.0852e-004   3.8644e-003   3.0679e+007  -1.5308e+004   1.5264e+007    0.0910   -0.0000    0.0000    0.0000    0.1327
                0.6735   1.7551e-003  -2.2905e-004   3.8192e-003   3.3695e+007  -1.7526e+004   1.5086e+007    0.1000   -0.0000    0.0000    0.0001    0.1312
                0.6876   1.8876e-003  -2.4639e-004   3.7761e-003   3.6240e+007  -1.9391e+004   1.4916e+007    0.1075   -0.0000    0.0000    0.0001    0.1297
                0.6993   1.9915e-003  -2.5996e-004   3.7377e-003   3.8234e+007  -2.0850e+004   1.4764e+007    0.1135   -0.0000    0.0000    0.0001    0.1284
                0.7084   2.0712e-003  -2.7038e-004   3.7061e-003   3.9764e+007  -2.1985e+004   1.4639e+007    0.1180   -0.0000    0.0000    0.0001    0.1273
                0.7149   2.1299e-003  -2.7806e-004   3.6824e-003   4.0892e+007  -2.2829e+004   1.4546e+007    0.1213   -0.0000    0.0000    0.0001    0.1265
                0.7188   2.1664e-003  -2.8283e-004   3.6678e-003   4.1593e+007  -2.3353e+004   1.4488e+007    0.1234   -0.0000    0.0000    0.0001    0.1260
                0.7201   2.1789e-003  -2.8446e-004   3.6628e-003   4.1831e+007  -2.3529e+004   1.4468e+007    0.1241   -0.0000    0.0000    0.0001    0.1258

  Bottom:  panel  nNode   nLam     xc_St    xc_End         b         t         E_eff         G_eff      nu_eff     density  buckleCrit
            (-)    (-)    (-)       (-)       (-)       (m)       (m)          (Pa)          (Pa)         (-)    (kg/m^3)         (-)
              1     18      3    0.0000    0.2384    0.3457    0.0091   1.8734e+010   3.8555e+009      0.1301   1633.9344      0.0945
              2      9      5    0.2384    0.4616    0.2900    0.0142   5.7686e+010   4.2190e+009      0.1660   1591.0283      0.0022
              3     28      3    0.4616    1.0000    0.7142    0.0116   1.4805e+010   3.0580e+009      0.1307   1329.5861      0.1611

            panel:  1     
           lam_num    nPlies        tPly      fibAng     matID  matName
               (-)       (-)         (m)       (deg)       (-)  (-)
                 1         1    0.004447      0.0000         2  (blade-shell)
                 2         1    0.000224      0.0000         5  (LEP-core)
                 3         1    0.004447      0.0000         2  (blade-shell)

               lamina:  1     
              matName:  (blade-shell)
                     s           e11           e22           e12           s11           s22           s12   s11_fcT   s11_fcC   s22_fcT   s22_fcC   s12_fcS
                   (m)         (m/m)         (m/m)         (rad)          (Pa)          (Pa)          (Pa)       (-)       (-)       (-)       (-)       (-)
                0.0000   4.9386e-004  -6.4221e-005   6.9186e-003   9.4820e+006  -3.7388e+002   2.7328e+007    0.0281   -0.0000    0.0000    0.0000    0.2376
                0.0037   6.3735e-004  -8.2884e-005   6.9164e-003   1.2237e+007  -5.4394e+002   2.7320e+007    0.0363   -0.0000    0.0000    0.0000    0.2376
                0.0146   1.0882e-003  -1.4152e-004   6.9035e-003   2.0894e+007  -1.0406e+003   2.7269e+007    0.0620   -0.0000    0.0000    0.0000    0.2371
                0.0279   1.6792e-003  -2.1837e-004   6.8746e-003   3.2240e+007  -1.6264e+003   2.7155e+007    0.0957   -0.0000    0.0000    0.0000    0.2361
                0.0397   2.0942e-003  -2.7235e-004   6.8387e-003   4.0208e+007  -2.0307e+003   2.7013e+007    0.1193   -0.0000    0.0000    0.0000    0.2349
                0.0552   2.5857e-003  -3.3628e-004   6.7776e-003   4.9646e+007  -2.5720e+003   2.6772e+007    0.1473   -0.0000    0.0000    0.0000    0.2328
                0.0714   3.0071e-003  -3.9108e-004   6.7000e-003   5.7736e+007  -3.0219e+003   2.6465e+007    0.1713   -0.0000    0.0000    0.0000    0.2301
                0.0899   3.4101e-003  -4.4349e-004   6.5954e-003   6.5473e+007  -3.4848e+003   2.6052e+007    0.1943   -0.0000    0.0000    0.0000    0.2265
                0.1107   3.8585e-003  -5.0181e-004   6.4596e-003   7.4082e+007  -3.9907e+003   2.5516e+007    0.2198   -0.0000    0.0000    0.0000    0.2219
                0.1326   4.2029e-003  -5.4660e-004   6.2991e-003   8.0695e+007  -4.3801e+003   2.4881e+007    0.2395   -0.0000    0.0000    0.0000    0.2164
                0.1570   4.5753e-003  -5.9503e-004   6.1018e-003   8.7844e+007  -4.8150e+003   2.4102e+007    0.2607   -0.0000    0.0000    0.0000    0.2096
                0.1830   4.9216e-003  -6.4007e-004   5.8719e-003   9.4493e+007  -5.2137e+003   2.3194e+007    0.2804   -0.0000    0.0000    0.0000    0.2017
                0.2107   5.2193e-003  -6.7880e-004   5.6077e-003   1.0021e+008  -5.5615e+003   2.2150e+007    0.2974   -0.0000    0.0000    0.0000    0.1926
                0.2403   5.5381e-003  -7.2025e-004   5.3061e-003   1.0633e+008  -5.9331e+003   2.0959e+007    0.3155   -0.0000    0.0000    0.0000    0.1823
                0.2711   5.7752e-003  -7.5110e-004   4.9730e-003   1.1088e+008  -6.2083e+003   1.9643e+007    0.3290   -0.0000    0.0000    0.0000    0.1708
                0.3037   6.0033e-003  -7.8076e-004   4.6049e-003   1.1526e+008  -6.4769e+003   1.8189e+007    0.3420   -0.0000    0.0000    0.0000    0.1582
                0.3377   6.2166e-003  -8.0850e-004   4.2046e-003   1.1936e+008  -6.7275e+003   1.6608e+007    0.3542   -0.0000    0.0000    0.0000    0.1444
                0.3457   6.2473e-003  -8.1249e-004   4.1091e-003   1.1995e+008  -6.7599e+003   1.6231e+007    0.3559   -0.0000    0.0000    0.0000    0.1411

               lamina:  2     
              matName:  (LEP-core)
                     s           e11           e22           e12           s11           s22           s12   s11_fcT   s11_fcC   s22_fcT   s22_fcC   s12_fcS
                   (m)         (m/m)         (m/m)         (rad)          (Pa)          (Pa)          (Pa)       (-)       (-)       (-)       (-)       (-)
                0.0000   3.1976e-004  -4.1587e-005   6.9186e-003   7.2121e+004   1.5066e+004   6.7802e+005    0.0168   -0.0000    0.0035   -0.0000    0.2298
                0.0037   4.6325e-004  -6.0251e-005   6.9164e-003   1.0449e+005   2.1828e+004   6.7781e+005    0.0244   -0.0000    0.0051   -0.0000    0.2298
                0.0146   8.8309e-004  -1.1485e-004   6.9035e-003   1.9918e+005   4.1610e+004   6.7655e+005    0.0464   -0.0000    0.0097   -0.0000    0.2293
                0.0279   1.3797e-003  -1.7945e-004   6.8746e-003   3.1119e+005   6.5010e+004   6.7371e+005    0.0725   -0.0000    0.0152   -0.0000    0.2284
                0.0397   1.7227e-003  -2.2405e-004   6.8387e-003   3.8855e+005   8.1171e+004   6.7019e+005    0.0906   -0.0000    0.0189   -0.0000    0.2272
                0.0552   2.1802e-003  -2.8356e-004   6.7776e-003   4.9175e+005   1.0273e+005   6.6421e+005    0.1146   -0.0000    0.0239   -0.0000    0.2252
                0.0714   2.5609e-003  -3.3307e-004   6.7000e-003   5.7760e+005   1.2066e+005   6.5660e+005    0.1346   -0.0000    0.0281   -0.0000    0.2226
                0.0899   2.9517e-003  -3.8390e-004   6.5954e-003   6.6576e+005   1.3908e+005   6.4635e+005    0.1552   -0.0000    0.0324   -0.0000    0.2191
                0.1107   3.3792e-003  -4.3949e-004   6.4596e-003   7.6216e+005   1.5922e+005   6.3304e+005    0.1777   -0.0000    0.0371   -0.0000    0.2146
                0.1326   3.7081e-003  -4.8228e-004   6.2991e-003   8.3636e+005   1.7472e+005   6.1731e+005    0.1950   -0.0000    0.0407   -0.0000    0.2093
                0.1570   4.0752e-003  -5.3002e-004   6.1018e-003   9.1915e+005   1.9202e+005   5.9798e+005    0.2143   -0.0000    0.0448   -0.0000    0.2027
                0.1830   4.4119e-003  -5.7381e-004   5.8719e-003   9.9510e+005   2.0788e+005   5.7544e+005    0.2320   -0.0000    0.0485   -0.0000    0.1951
                0.2107   4.7054e-003  -6.1199e-004   5.6077e-003   1.0613e+006   2.2171e+005   5.4956e+005    0.2474   -0.0000    0.0517   -0.0000    0.1863
                0.2403   5.0191e-003  -6.5279e-004   5.3061e-003   1.1321e+006   2.3649e+005   5.2000e+005    0.2639   -0.0000    0.0551   -0.0000    0.1763
                0.2711   5.2515e-003  -6.8301e-004   4.9730e-003   1.1845e+006   2.4744e+005   4.8735e+005    0.2761   -0.0000    0.0577   -0.0000    0.1652
                0.3037   5.4781e-003  -7.1249e-004   4.6049e-003   1.2356e+006   2.5812e+005   4.5128e+005    0.2880   -0.0000    0.0602   -0.0000    0.1530
                0.3377   5.6897e-003  -7.4000e-004   4.2046e-003   1.2833e+006   2.6809e+005   4.1205e+005    0.2991   -0.0000    0.0625   -0.0000    0.1397
                0.3457   5.7171e-003  -7.4357e-004   4.1091e-003   1.2895e+006   2.6938e+005   4.0270e+005    0.3006   -0.0000    0.0628   -0.0000    0.1365

               lamina:  3     
              matName:  (blade-shell)
                     s           e11           e22           e12           s11           s22           s12   s11_fcT   s11_fcC   s22_fcT   s22_fcC   s12_fcS
                   (m)         (m/m)         (m/m)         (rad)          (Pa)          (Pa)          (Pa)       (-)       (-)       (-)       (-)       (-)
                0.0000   3.1100e-004  -4.0449e-005   6.9186e-003   5.9711e+006  -3.7375e+002   2.7328e+007    0.0177   -0.0000    0.0000    0.0000    0.2376
                0.0037   4.5450e-004  -5.9112e-005   6.9164e-003   8.7262e+006  -5.4381e+002   2.7320e+007    0.0259   -0.0000    0.0000    0.0000    0.2376
                0.0146   8.7277e-004  -1.1351e-004   6.9035e-003   1.6757e+007  -1.0404e+003   2.7269e+007    0.0497   -0.0000    0.0000    0.0000    0.2371
                0.0279   1.3647e-003  -1.7749e-004   6.8746e-003   2.6201e+007  -1.6262e+003   2.7155e+007    0.0777   -0.0000    0.0000    0.0000    0.2361
                0.0397   1.7040e-003  -2.2162e-004   6.8387e-003   3.2717e+007  -2.0305e+003   2.7013e+007    0.0971   -0.0000    0.0000    0.0000    0.2349
                0.0552   2.1598e-003  -2.8091e-004   6.7776e-003   4.1468e+007  -2.5717e+003   2.6772e+007    0.1231   -0.0000    0.0000    0.0000    0.2328
                0.0714   2.5384e-003  -3.3015e-004   6.7000e-003   4.8738e+007  -3.0216e+003   2.6465e+007    0.1446   -0.0000    0.0000    0.0000    0.2301
                0.0899   2.9287e-003  -3.8091e-004   6.5954e-003   5.6230e+007  -3.4844e+003   2.6052e+007    0.1669   -0.0000    0.0000    0.0000    0.2265
                0.1107   3.3550e-003  -4.3636e-004   6.4596e-003   6.4416e+007  -3.9903e+003   2.5516e+007    0.1911   -0.0000    0.0000    0.0000    0.2219
                0.1326   3.6832e-003  -4.7904e-004   6.2991e-003   7.0718e+007  -4.3797e+003   2.4881e+007    0.2098   -0.0000    0.0000    0.0000    0.2164
                0.1570   4.0500e-003  -5.2675e-004   6.1018e-003   7.7760e+007  -4.8146e+003   2.4102e+007    0.2307   -0.0000    0.0000    0.0000    0.2096
                0.1830   4.3863e-003  -5.7048e-004   5.8719e-003   8.4215e+007  -5.2133e+003   2.3194e+007    0.2499   -0.0000    0.0000    0.0000    0.2017
                0.2107   4.6796e-003  -6.0863e-004   5.6077e-003   8.9847e+007  -5.5611e+003   2.2150e+007    0.2666   -0.0000    0.0000    0.0000    0.1926
                0.2403   4.9930e-003  -6.4940e-004   5.3061e-003   9.5866e+007  -5.9327e+003   2.0959e+007    0.2845   -0.0000    0.0000    0.0000    0.1823
                0.2711   5.2252e-003  -6.7959e-004   4.9730e-003   1.0032e+008  -6.2079e+003   1.9643e+007    0.2977   -0.0000    0.0000    0.0000    0.1708
                0.3037   5.4517e-003  -7.0905e-004   4.6049e-003   1.0467e+008  -6.4765e+003   1.8189e+007    0.3106   -0.0000    0.0000    0.0000    0.1582
                0.3377   5.6632e-003  -7.3656e-004   4.2046e-003   1.0873e+008  -6.7271e+003   1.6608e+007    0.3226   -0.0000    0.0000    0.0000    0.1444
                0.3457   5.6904e-003  -7.4010e-004   4.1091e-003   1.0926e+008  -6.7595e+003   1.6231e+007    0.3242   -0.0000    0.0000    0.0000    0.1411

            panel:  2     
           lam_num    nPlies        tPly      fibAng     matID  matName
               (-)       (-)         (m)       (deg)       (-)  (-)
                 1         1    0.004447      0.0000         2  (blade-shell)
                 2         1    0.002632      0.0000         3  (spar-uni)
                 3         1    0.000047      0.0000         4  (spar-core)
                 4         1    0.002632      0.0000         3  (spar-uni)
                 5         1    0.004447      0.0000         2  (blade-shell)

               lamina:  1     
              matName:  (blade-shell)
                     s           e11           e22           e12           s11           s22           s12   s11_fcT   s11_fcC   s22_fcT   s22_fcC   s12_fcS
                   (m)         (m/m)         (m/m)         (rad)          (Pa)          (Pa)          (Pa)       (-)       (-)       (-)       (-)       (-)
                0.0000   7.6318e-003  -1.2022e-003   6.1796e-003   1.4600e+008  -4.1027e+006   2.4409e+007    0.4332   -0.0000    0.0000    0.0122    0.2123
                0.0271   7.7263e-003  -1.2179e-003   5.2686e-003   1.4780e+008  -4.1691e+006   2.0811e+007    0.4386   -0.0000    0.0000    0.0124    0.1810
                0.0634   7.8569e-003  -1.2394e-003   4.0219e-003   1.5030e+008  -4.2586e+006   1.5887e+007    0.4460   -0.0000    0.0000    0.0126    0.1381
                0.1006   7.9097e-003  -1.2481e-003   2.7234e-003   1.5131e+008  -4.2936e+006   1.0758e+007    0.4490   -0.0000    0.0000    0.0127    0.0935
                0.1389   7.9013e-003  -1.2467e-003   1.3786e-003   1.5115e+008  -4.2877e+006   5.4453e+006    0.4485   -0.0000    0.0000    0.0127    0.0474
                0.1778   7.8906e-003  -1.2450e-003   1.1951e-005   1.5094e+008  -4.2816e+006   4.7206e+004    0.4479   -0.0000    0.0000    0.0127    0.0004
                0.2177   7.7380e-003  -1.2199e-003   1.3681e-003   1.4803e+008  -4.1782e+006   5.4041e+006    0.4393   -0.0000    0.0000    0.0124    0.0470
                0.2582   7.5794e-003  -1.1936e-003   2.7390e-003   1.4500e+008  -4.0680e+006   1.0819e+007    0.4303   -0.0000    0.0000    0.0121    0.0941
                0.2900   7.4279e-003  -1.1685e-003   3.7875e-003   1.4210e+008  -3.9629e+006   1.4961e+007    0.4217   -0.0000    0.0000    0.0118    0.1301

               lamina:  2     
              matName:  (spar-uni)
                     s           e11           e22           e12           s11           s22           s12   s11_fcT   s11_fcC   s22_fcT   s22_fcC   s12_fcS
                   (m)         (m/m)         (m/m)         (rad)          (Pa)          (Pa)          (Pa)       (-)       (-)       (-)       (-)       (-)
                0.0000   6.3598e-003  -1.0316e-003   6.1796e-003   7.8466e+008   7.7570e+006   2.9106e+007    0.3965   -0.0000    0.1295   -0.0000    0.2826
                0.0271   6.4543e-003  -1.0473e-003   5.2686e-003   7.9631e+008   7.8692e+006   2.4815e+007    0.4024   -0.0000    0.1314   -0.0000    0.2409
                0.0634   6.5824e-003  -1.0685e-003   4.0219e-003   8.1212e+008   8.0218e+006   1.8943e+007    0.4104   -0.0000    0.1339   -0.0000    0.1839
                0.1006   6.6331e-003  -1.0769e-003   2.7234e-003   8.1838e+008   8.0824e+006   1.2827e+007    0.4135   -0.0000    0.1349   -0.0000    0.1245
                0.1389   6.6247e-003  -1.0755e-003   1.3786e-003   8.1734e+008   8.0724e+006   6.4931e+006    0.4130   -0.0000    0.1348   -0.0000    0.0630
                0.1778   6.6155e-003  -1.0740e-003   1.1951e-005   8.1620e+008   8.0612e+006   5.6288e+004    0.4124   -0.0000    0.1346   -0.0000    0.0005
                0.2177   6.4668e-003  -1.0494e-003   1.3681e-003   7.9786e+008   7.8840e+006   6.4439e+006    0.4032   -0.0000    0.1316   -0.0000    0.0626
                0.2582   6.3096e-003  -1.0233e-003   2.7390e-003   7.7847e+008   7.6970e+006   1.2900e+007    0.3934   -0.0000    0.1285   -0.0000    0.1252
                0.2900   6.1596e-003  -9.9847e-004   3.7875e-003   7.5996e+008   7.5185e+006   1.7839e+007    0.3840   -0.0000    0.1255   -0.0000    0.1732

               lamina:  3     
              matName:  (spar-core)
                     s           e11           e22           e12           s11           s22           s12   s11_fcT   s11_fcC   s22_fcT   s22_fcC   s12_fcS
                   (m)         (m/m)         (m/m)         (rad)          (Pa)          (Pa)          (Pa)       (-)       (-)       (-)       (-)       (-)
                0.0000   5.6069e-003  -9.3066e-004   6.1796e-003   1.2490e+006   2.1672e+005   6.0560e+005    0.2911   -0.0000    0.0505   -0.0000    0.2053
                0.0271   5.7013e-003  -9.4634e-004   5.2686e-003   1.2700e+006   2.2037e+005   5.1633e+005    0.2960   -0.0000    0.0514   -0.0000    0.1750
                0.0634   5.8280e-003  -9.6738e-004   4.0219e-003   1.2982e+006   2.2526e+005   3.9415e+005    0.3026   -0.0000    0.0525   -0.0000    0.1336
                0.1006   5.8775e-003  -9.7559e-004   2.7234e-003   1.3092e+006   2.2717e+005   2.6690e+005    0.3052   -0.0000    0.0530   -0.0000    0.0905
                0.1389   5.8690e-003  -9.7418e-004   1.3786e-003   1.3073e+006   2.2685e+005   1.3510e+005    0.3047   -0.0000    0.0529   -0.0000    0.0458
                0.1778   5.8606e-003  -9.7279e-004   1.1951e-005   1.3055e+006   2.2652e+005   1.1712e+003    0.3043   -0.0000    0.0528   -0.0000    0.0004
                0.2177   5.7143e-003  -9.4850e-004   1.3681e-003   1.2729e+006   2.2087e+005   1.3408e+005    0.2967   -0.0000    0.0515   -0.0000    0.0454
                0.2582   5.5579e-003  -9.2254e-004   2.7390e-003   1.2381e+006   2.1483e+005   2.6842e+005    0.2886   -0.0000    0.0501   -0.0000    0.0910
                0.2900   5.4089e-003  -8.9779e-004   3.7875e-003   1.2049e+006   2.0907e+005   3.7118e+005    0.2809   -0.0000    0.0487   -0.0000    0.1258

               lamina:  4     
              matName:  (spar-uni)
                     s           e11           e22           e12           s11           s22           s12   s11_fcT   s11_fcC   s22_fcT   s22_fcC   s12_fcS
                   (m)         (m/m)         (m/m)         (rad)          (Pa)          (Pa)          (Pa)       (-)       (-)       (-)       (-)       (-)
                0.0000   5.5935e-003  -9.2886e-004   6.1796e-003   6.9006e+008   6.6445e+006   2.9106e+007    0.3487   -0.0000    0.1109   -0.0000    0.2826
                0.0271   5.6879e-003  -9.4454e-004   5.2686e-003   7.0171e+008   6.7567e+006   2.4815e+007    0.3546   -0.0000    0.1128   -0.0000    0.2409
                0.0634   5.8146e-003  -9.6557e-004   4.0219e-003   7.1733e+008   6.9072e+006   1.8943e+007    0.3625   -0.0000    0.1153   -0.0000    0.1839
                0.1006   5.8640e-003  -9.7378e-004   2.7234e-003   7.2343e+008   6.9659e+006   1.2827e+007    0.3656   -0.0000    0.1163   -0.0000    0.1245
                0.1389   5.8555e-003  -9.7237e-004   1.3786e-003   7.2238e+008   6.9558e+006   6.4931e+006    0.3650   -0.0000    0.1161   -0.0000    0.0630
                0.1778   5.8472e-003  -9.7099e-004   1.1951e-005   7.2136e+008   6.9459e+006   5.6288e+004    0.3645   -0.0000    0.1160   -0.0000    0.0005
                0.2177   5.7009e-003  -9.4670e-004   1.3681e-003   7.0331e+008   6.7721e+006   6.4439e+006    0.3554   -0.0000    0.1131   -0.0000    0.0626
                0.2582   5.5445e-003  -9.2074e-004   2.7390e-003   6.8402e+008   6.5863e+006   1.2900e+007    0.3456   -0.0000    0.1100   -0.0000    0.1252
                0.2900   5.3955e-003  -8.9600e-004   3.7875e-003   6.6564e+008   6.4093e+006   1.7839e+007    0.3363   -0.0000    0.1070   -0.0000    0.1732

               lamina:  5     
              matName:  (blade-shell)
                     s           e11           e22           e12           s11           s22           s12   s11_fcT   s11_fcC   s22_fcT   s22_fcC   s12_fcS
                   (m)         (m/m)         (m/m)         (rad)          (Pa)          (Pa)          (Pa)       (-)       (-)       (-)       (-)       (-)
                0.0000   4.8405e-003  -8.2789e-004   6.1796e-003   9.2434e+007  -3.8792e+006   2.4409e+007    0.2743   -0.0000    0.0000    0.0115    0.2123
                0.0271   4.9349e-003  -8.4357e-004   5.2686e-003   9.4238e+007  -3.9456e+006   2.0811e+007    0.2796   -0.0000    0.0000    0.0117    0.1810
                0.0634   5.0602e-003  -8.6441e-004   4.0219e-003   9.6631e+007  -4.0346e+006   1.5887e+007    0.2867   -0.0000    0.0000    0.0120    0.1381
                0.1006   5.1084e-003  -8.7245e-004   2.7234e-003   9.7552e+007  -4.0693e+006   1.0758e+007    0.2895   -0.0000    0.0000    0.0121    0.0935
                0.1389   5.0998e-003  -8.7103e-004   1.3786e-003   9.7388e+007  -4.0633e+006   5.4453e+006    0.2890   -0.0000    0.0000    0.0121    0.0474
                0.1778   5.0924e-003  -8.6977e-004   1.1951e-005   9.7246e+007  -4.0576e+006   4.7206e+004    0.2886   -0.0000    0.0000    0.0120    0.0004
                0.2177   4.9484e-003  -8.4579e-004   1.3681e-003   9.4495e+007  -3.9548e+006   5.4041e+006    0.2804   -0.0000    0.0000    0.0117    0.0470
                0.2582   4.7929e-003  -8.1994e-004   2.7390e-003   9.1523e+007  -3.8449e+006   1.0819e+007    0.2716   -0.0000    0.0000    0.0114    0.0941
                0.2900   4.6448e-003  -7.9533e-004   3.7875e-003   8.8694e+007  -3.7401e+006   1.4961e+007    0.2632   -0.0000    0.0000    0.0111    0.1301

            panel:  3     
           lam_num    nPlies        tPly      fibAng     matID  matName
               (-)       (-)         (m)       (deg)       (-)  (-)
                 1         1    0.004447      0.0000         2  (blade-shell)
                 2         1    0.002680      0.0000         6  (TEP-core)
                 3         1    0.004447      0.0000         2  (blade-shell)

               lamina:  1     
              matName:  (blade-shell)
                     s           e11           e22           e12           s11           s22           s12   s11_fcT   s11_fcC   s22_fcT   s22_fcC   s12_fcS
                   (m)         (m/m)         (m/m)         (rad)          (Pa)          (Pa)          (Pa)       (-)       (-)       (-)       (-)       (-)
                0.0000   6.0060e-003  -7.8475e-004   8.2132e-004   1.1530e+008  -7.7537e+004   3.2442e+006    0.3422   -0.0000    0.0000    0.0002    0.0282
                0.0089   5.9617e-003  -7.7896e-004   7.1789e-004   1.1446e+008  -7.6946e+004   2.8357e+006    0.3396   -0.0000    0.0000    0.0002    0.0247
                0.0504   5.6942e-003  -7.4400e-004   2.5096e-004   1.0932e+008  -7.3170e+004   9.9128e+005    0.3244   -0.0000    0.0000    0.0002    0.0086
                0.0918   5.4265e-003  -7.0899e-004   1.9288e-004   1.0418e+008  -6.9396e+004   7.6188e+005    0.3091   -0.0000    0.0000    0.0002    0.0066
                0.1332   5.1143e-003  -6.6819e-004   6.1215e-004   9.8187e+007  -6.5004e+004   2.4180e+006    0.2914   -0.0000    0.0000    0.0002    0.0210
                0.1745   4.7847e-003  -6.2510e-004   1.0026e-003   9.1858e+007  -6.0348e+004   3.9601e+006    0.2726   -0.0000    0.0000    0.0002    0.0344
                0.2153   4.4575e-003  -5.8233e-004   1.3606e-003   8.5576e+007  -5.5729e+004   5.3744e+006    0.2539   -0.0000    0.0000    0.0002    0.0467
                0.2556   4.1112e-003  -5.3706e-004   1.6860e-003   7.8929e+007  -5.0840e+004   6.6598e+006    0.2342   -0.0000    0.0000    0.0002    0.0579
                0.2951   3.7726e-003  -4.9279e-004   1.9772e-003   7.2427e+007  -4.6044e+004   7.8098e+006    0.2149   -0.0000    0.0000    0.0001    0.0679
                0.3336   3.4475e-003  -4.5030e-004   2.2345e-003   6.6187e+007  -4.1438e+004   8.8262e+006    0.1964   -0.0000    0.0000    0.0001    0.0767
                0.3710   3.1389e-003  -4.0995e-004   2.4594e-003   6.0262e+007  -3.7067e+004   9.7146e+006    0.1788   -0.0000    0.0000    0.0001    0.0845
                0.4071   2.8413e-003  -3.7105e-004   2.6542e-003   5.4548e+007  -3.2838e+004   1.0484e+007    0.1619   -0.0000    0.0000    0.0001    0.0912
                0.4417   2.5880e-003  -3.3793e-004   2.8207e-003   4.9685e+007  -2.9233e+004   1.1142e+007    0.1474   -0.0000    0.0000    0.0001    0.0969
                0.4746   2.3539e-003  -3.0734e-004   2.9628e-003   4.5192e+007  -2.5913e+004   1.1703e+007    0.1341   -0.0000    0.0000    0.0001    0.1018
                0.5059   2.1413e-003  -2.7954e-004   3.0833e-003   4.1110e+007  -2.2878e+004   1.2179e+007    0.1220   -0.0000    0.0000    0.0001    0.1059
                0.5353   1.9860e-003  -2.5924e-004   3.1850e-003   3.8128e+007  -2.0659e+004   1.2581e+007    0.1131   -0.0000    0.0000    0.0001    0.1094
                0.5627   1.8405e-003  -2.4021e-004   3.2715e-003   3.5335e+007  -1.8587e+004   1.2922e+007    0.1049   -0.0000    0.0000    0.0001    0.1124
                0.5881   1.7366e-003  -2.2663e-004   3.3451e-003   3.3340e+007  -1.7094e+004   1.3213e+007    0.0989   -0.0000    0.0000    0.0001    0.1149
                0.6112   1.6671e-003  -2.1754e-004   3.4081e-003   3.2006e+007  -1.6102e+004   1.3462e+007    0.0950   -0.0000    0.0000    0.0000    0.1171
                0.6323   1.6043e-003  -2.0934e-004   3.4626e-003   3.0801e+007  -1.5201e+004   1.3677e+007    0.0914   -0.0000    0.0000    0.0000    0.1189
                0.6511   1.5941e-003  -2.0800e-004   3.5099e-003   3.0604e+007  -1.5048e+004   1.3864e+007    0.0908   -0.0000    0.0000    0.0000    0.1206
                0.6674   1.5898e-003  -2.0744e-004   3.5509e-003   3.0522e+007  -1.4988e+004   1.4026e+007    0.0906   -0.0000    0.0000    0.0000    0.1220
                0.6814   1.5968e-003  -2.0836e-004   3.5863e-003   3.0656e+007  -1.5092e+004   1.4166e+007    0.0910   -0.0000    0.0000    0.0000    0.1232
                0.6930   1.6296e-003  -2.1265e-004   3.6161e-003   3.1286e+007  -1.5570e+004   1.4284e+007    0.0928   -0.0000    0.0000    0.0000    0.1242
                0.7021   1.6550e-003  -2.1597e-004   3.6400e-003   3.1775e+007  -1.5946e+004   1.4378e+007    0.0943   -0.0000    0.0000    0.0000    0.1250
                0.7088   1.6874e-003  -2.2021e-004   3.6583e-003   3.2396e+007  -1.6450e+004   1.4450e+007    0.0961   -0.0000    0.0000    0.0000    0.1257
                0.7129   1.7134e-003  -2.2361e-004   3.6695e-003   3.2896e+007  -1.6849e+004   1.4494e+007    0.0976   -0.0000    0.0000    0.0000    0.1260
                0.7142   1.7225e-003  -2.2480e-004   3.6731e-003   3.3070e+007  -1.6978e+004   1.4509e+007    0.0981   -0.0000    0.0000    0.0001    0.1262

               lamina:  2     
              matName:  (TEP-core)
                     s           e11           e22           e12           s11           s22           s12   s11_fcT   s11_fcC   s22_fcT   s22_fcC   s12_fcS
                   (m)         (m/m)         (m/m)         (rad)          (Pa)          (Pa)          (Pa)       (-)       (-)       (-)       (-)       (-)
                0.0000   5.5831e-003  -7.2976e-004   8.2132e-004   1.2590e+006   2.6221e+005   8.0489e+004    0.2935   -0.0000    0.0611   -0.0000    0.0273
                0.0089   5.5408e-003  -7.2423e-004   7.1789e-004   1.2494e+006   2.6023e+005   7.0354e+004    0.2912   -0.0000    0.0607   -0.0000    0.0238
                0.0504   5.2739e-003  -6.8934e-004   2.5096e-004   1.1892e+006   2.4769e+005   2.4594e+004    0.2772   -0.0000    0.0577   -0.0000    0.0083
                0.0918   5.0070e-003  -6.5445e-004   1.9288e-004   1.1291e+006   2.3516e+005   1.8902e+004    0.2632   -0.0000    0.0548   -0.0000    0.0064
                0.1332   4.6963e-003  -6.1384e-004   6.1215e-004   1.0590e+006   2.2057e+005   5.9991e+004    0.2469   -0.0000    0.0514   -0.0000    0.0203
                0.1745   4.3672e-003  -5.7081e-004   1.0026e-003   9.8479e+005   2.0511e+005   9.8251e+004    0.2296   -0.0000    0.0478   -0.0000    0.0333
                0.2153   4.0406e-003  -5.2812e-004   1.3606e-003   9.1116e+005   1.8978e+005   1.3334e+005    0.2124   -0.0000    0.0442   -0.0000    0.0452
                0.2556   3.6950e-003  -4.8294e-004   1.6860e-003   8.3322e+005   1.7355e+005   1.6523e+005    0.1942   -0.0000    0.0405   -0.0000    0.0560
                0.2951   3.3562e-003  -4.3865e-004   1.9772e-003   7.5682e+005   1.5763e+005   1.9376e+005    0.1764   -0.0000    0.0367   -0.0000    0.0657
                0.3336   3.0308e-003  -3.9612e-004   2.2345e-003   6.8345e+005   1.4235e+005   2.1898e+005    0.1593   -0.0000    0.0332   -0.0000    0.0742
                0.3710   2.7220e-003  -3.5574e-004   2.4594e-003   6.1381e+005   1.2785e+005   2.4102e+005    0.1431   -0.0000    0.0298   -0.0000    0.0817
                0.4071   2.4235e-003  -3.1672e-004   2.6542e-003   5.4649e+005   1.1383e+005   2.6011e+005    0.1274   -0.0000    0.0265   -0.0000    0.0882
                0.4417   2.1690e-003  -2.8345e-004   2.8207e-003   4.8911e+005   1.0188e+005   2.7643e+005    0.1140   -0.0000    0.0237   -0.0000    0.0937
                0.4746   1.9345e-003  -2.5280e-004   2.9628e-003   4.3623e+005   9.0869e+004   2.9035e+005    0.1017   -0.0000    0.0212   -0.0000    0.0984
                0.5059   1.7204e-003  -2.2481e-004   3.0833e-003   3.8795e+005   8.0814e+004   3.0216e+005    0.0904   -0.0000    0.0188   -0.0000    0.1024
                0.5353   1.5639e-003  -2.0436e-004   3.1850e-003   3.5267e+005   7.3466e+004   3.1213e+005    0.0822   -0.0000    0.0171   -0.0000    0.1058
                0.5627   1.4177e-003  -1.8524e-004   3.2715e-003   3.1969e+005   6.6598e+004   3.2060e+005    0.0745   -0.0000    0.0155   -0.0000    0.1087
                0.5881   1.3125e-003  -1.7149e-004   3.3451e-003   2.9598e+005   6.1661e+004   3.2782e+005    0.0690   -0.0000    0.0144   -0.0000    0.1111
                0.6112   1.2425e-003  -1.6234e-004   3.4081e-003   2.8020e+005   5.8373e+004   3.3400e+005    0.0653   -0.0000    0.0136   -0.0000    0.1132
                0.6323   1.1791e-003  -1.5405e-004   3.4626e-003   2.6589e+005   5.5393e+004   3.3934e+005    0.0620   -0.0000    0.0129   -0.0000    0.1150
                0.6511   1.1684e-003  -1.5265e-004   3.5099e-003   2.6347e+005   5.4890e+004   3.4397e+005    0.0614   -0.0000    0.0128   -0.0000    0.1166
                0.6674   1.1641e-003  -1.5209e-004   3.5509e-003   2.6251e+005   5.4690e+004   3.4798e+005    0.0612   -0.0000    0.0127   -0.0000    0.1180
                0.6814   1.1714e-003  -1.5304e-004   3.5863e-003   2.6416e+005   5.5033e+004   3.5146e+005    0.0616   -0.0000    0.0128   -0.0000    0.1191
                0.6930   1.2050e-003  -1.5743e-004   3.6161e-003   2.7173e+005   5.6610e+004   3.5438e+005    0.0633   -0.0000    0.0132   -0.0000    0.1201
                0.7021   1.2313e-003  -1.6087e-004   3.6400e-003   2.7766e+005   5.7846e+004   3.5672e+005    0.0647   -0.0000    0.0135   -0.0000    0.1209
                0.7088   1.2663e-003  -1.6545e-004   3.6583e-003   2.8555e+005   5.9488e+004   3.5851e+005    0.0666   -0.0000    0.0139   -0.0000    0.1215
                0.7129   1.2940e-003  -1.6908e-004   3.6695e-003   2.9181e+005   6.0791e+004   3.5961e+005    0.0680   -0.0000    0.0142   -0.0000    0.1219
                0.7142   1.3032e-003  -1.7027e-004   3.6731e-003   2.9386e+005   6.1219e+004   3.5997e+005    0.0685   -0.0000    0.0143   -0.0000    0.1220

               lamina:  3     
              matName:  (blade-shell)
                     s           e11           e22           e12           s11           s22           s12   s11_fcT   s11_fcC   s22_fcT   s22_fcC   s12_fcS
                   (m)         (m/m)         (m/m)         (rad)          (Pa)          (Pa)          (Pa)       (-)       (-)       (-)       (-)       (-)
                0.0000   5.3282e-003  -6.9661e-004   8.2132e-004   1.0229e+008  -7.7135e+004   3.2442e+006    0.3035   -0.0000    0.0000    0.0002    0.0282
                0.0089   5.2871e-003  -6.9125e-004   7.1789e-004   1.0150e+008  -7.6546e+004   2.8357e+006    0.3012   -0.0000    0.0000    0.0002    0.0247
                0.0504   5.0205e-003  -6.5639e-004   2.5096e-004   9.6384e+007  -7.2770e+004   9.9128e+005    0.2860   -0.0000    0.0000    0.0002    0.0086
                0.0918   4.7542e-003  -6.2157e-004   1.9288e-004   9.1271e+007  -6.8998e+004   7.6188e+005    0.2708   -0.0000    0.0000    0.0002    0.0066
                0.1332   4.4444e-003  -5.8107e-004   6.1215e-004   8.5323e+007  -6.4607e+004   2.4180e+006    0.2532   -0.0000    0.0000    0.0002    0.0210
                0.1745   4.1155e-003  -5.3809e-004   1.0026e-003   7.9010e+007  -5.9951e+004   3.9601e+006    0.2345   -0.0000    0.0000    0.0002    0.0344
                0.2153   3.7894e-003  -4.9545e-004   1.3606e-003   7.2749e+007  -5.5333e+004   5.3744e+006    0.2159   -0.0000    0.0000    0.0002    0.0467
                0.2556   3.4442e-003  -4.5032e-004   1.6860e-003   6.6121e+007  -5.0444e+004   6.6598e+006    0.1962   -0.0000    0.0000    0.0001    0.0579
                0.2951   3.1053e-003  -4.0602e-004   1.9772e-003   5.9615e+007  -4.5649e+004   7.8098e+006    0.1769   -0.0000    0.0000    0.0001    0.0679
                0.3336   2.7797e-003  -3.6346e-004   2.2345e-003   5.3365e+007  -4.1042e+004   8.8262e+006    0.1584   -0.0000    0.0000    0.0001    0.0767
                0.3710   2.4707e-003  -3.2307e-004   2.4594e-003   4.7433e+007  -3.6671e+004   9.7146e+006    0.1408   -0.0000    0.0000    0.0001    0.0845
                0.4071   2.1716e-003  -2.8397e-004   2.6542e-003   4.1691e+007  -3.2441e+004   1.0484e+007    0.1237   -0.0000    0.0000    0.0001    0.0912
                0.4417   1.9165e-003  -2.5062e-004   2.8207e-003   3.6793e+007  -2.8835e+004   1.1142e+007    0.1092   -0.0000    0.0000    0.0001    0.0969
                0.4746   1.6817e-003  -2.1993e-004   2.9628e-003   3.2286e+007  -2.5514e+004   1.1703e+007    0.0958   -0.0000    0.0000    0.0001    0.1018
                0.5059   1.4667e-003  -1.9182e-004   3.0833e-003   2.8158e+007  -2.2478e+004   1.2179e+007    0.0836   -0.0000    0.0000    0.0001    0.1059
                0.5353   1.3096e-003  -1.7128e-004   3.1850e-003   2.5141e+007  -2.0258e+004   1.2581e+007    0.0746   -0.0000    0.0000    0.0001    0.1094
                0.5627   1.1629e-003  -1.5210e-004   3.2715e-003   2.2324e+007  -1.8185e+004   1.2922e+007    0.0662   -0.0000    0.0000    0.0001    0.1124
                0.5881   1.0570e-003  -1.3826e-004   3.3451e-003   2.0292e+007  -1.6692e+004   1.3213e+007    0.0602   -0.0000    0.0000    0.0000    0.1149
                0.6112   9.8667e-004  -1.2907e-004   3.4081e-003   1.8942e+007  -1.5699e+004   1.3462e+007    0.0562   -0.0000    0.0000    0.0000    0.1171
                0.6323   9.2277e-004  -1.2072e-004   3.4626e-003   1.7715e+007  -1.4797e+004   1.3677e+007    0.0526   -0.0000    0.0000    0.0000    0.1189
                0.6511   9.1181e-004  -1.1928e-004   3.5099e-003   1.7505e+007  -1.4644e+004   1.3864e+007    0.0519   -0.0000    0.0000    0.0000    0.1206
                0.6674   9.0753e-004  -1.1873e-004   3.5509e-003   1.7423e+007  -1.4583e+004   1.4026e+007    0.0517   -0.0000    0.0000    0.0000    0.1220
                0.6814   9.1504e-004  -1.1971e-004   3.5863e-003   1.7567e+007  -1.4688e+004   1.4166e+007    0.0521   -0.0000    0.0000    0.0000    0.1232
                0.6930   9.4907e-004  -1.2416e-004   3.6161e-003   1.8220e+007  -1.5167e+004   1.4284e+007    0.0541   -0.0000    0.0000    0.0000    0.1242
                0.7021   9.7592e-004  -1.2767e-004   3.6400e-003   1.8736e+007  -1.5543e+004   1.4378e+007    0.0556   -0.0000    0.0000    0.0000    0.1250
                0.7088   1.0125e-003  -1.3244e-004   3.6583e-003   1.9437e+007  -1.6050e+004   1.4450e+007    0.0577   -0.0000    0.0000    0.0000    0.1257
                0.7129   1.0413e-003  -1.3621e-004   3.6695e-003   1.9990e+007  -1.6450e+004   1.4494e+007    0.0593   -0.0000    0.0000    0.0000    0.1260
                0.7142   1.0504e-003  -1.3740e-004   3.6731e-003   2.0165e+007  -1.6579e+004   1.4509e+007    0.0598   -0.0000    0.0000    0.0000    0.1262

     Web:  panel  nNode   nLam     xc_St    xc_End         b         t         E_eff         G_eff      nu_eff     density  buckleCrit
            (-)    (-)    (-)       (-)       (-)       (m)       (m)          (Pa)          (Pa)         (-)    (kg/m^3)         (-)
              1     10      3    0.2384    0.2384    0.2761    0.0121   6.5707e+009   1.3870e+009      0.1347    691.8994      0.1356
              2     10      3    0.4616    0.4616    0.2578    0.0121   6.5707e+009   1.3870e+009      0.1347    691.8994      0.1249

            panel:  1     
           lam_num    nPlies        tPly      fibAng     matID  matName
               (-)       (-)         (m)       (deg)       (-)  (-)
                 1         1    0.002023      0.0000         7  (web-shell)
                 2         1    0.008047      0.0000         8  (web-core)
                 3         1    0.002023      0.0000         7  (web-shell)

               lamina:  1     
              matName:  (web-shell)
                     s           e11           e22           e12           s11           s22           s12   s11_fcT   s11_fcC   s22_fcT   s22_fcC   s12_fcS
                   (m)         (m/m)         (m/m)         (rad)          (Pa)          (Pa)          (Pa)       (-)       (-)       (-)       (-)       (-)
                0.0000  -5.7613e-003   7.7599e-004   1.3368e-002  -1.1055e+008   5.2766e+005   5.2805e+007    0.0000    0.2224    0.0016   -0.0000    0.4592
                0.0307  -4.5075e-003   6.0711e-004   1.3700e-002  -8.6490e+007   4.1291e+005   5.4114e+007    0.0000    0.1740    0.0012   -0.0000    0.4706
                0.0614  -3.2536e-003   4.3824e-004   1.3951e-002  -6.2431e+007   2.9815e+005   5.5107e+007    0.0000    0.1256    0.0009   -0.0000    0.4792
                0.0920  -1.9998e-003   2.6936e-004   1.4122e-002  -3.8372e+007   1.8340e+005   5.5783e+007    0.0000    0.0772    0.0005   -0.0000    0.4851
                0.1227  -7.4596e-004   1.0049e-004   1.4213e-002  -1.4314e+007   6.8641e+004   5.6143e+007    0.0000    0.0288    0.0002   -0.0000    0.4882
                0.1534   5.1045e-004  -6.8722e-005   1.4225e-002   9.7946e+006  -4.6165e+004   5.6187e+007    0.0291   -0.0000    0.0000    0.0001    0.4886
                0.1841   1.7643e-003  -2.3760e-004   1.4156e-002   3.3853e+007  -1.6092e+005   5.5914e+007    0.1005   -0.0000    0.0000    0.0005    0.4862
                0.2148   3.0181e-003  -4.0647e-004   1.4007e-002   5.7912e+007  -2.7568e+005   5.5326e+007    0.1718   -0.0000    0.0000    0.0008    0.4811
                0.2455   4.2720e-003  -5.7535e-004   1.3777e-002   8.1971e+007  -3.9043e+005   5.4421e+007    0.2432   -0.0000    0.0000    0.0012    0.4732
                0.2761   5.5258e-003  -7.4422e-004   1.3468e-002   1.0603e+008  -5.0519e+005   5.3199e+007    0.3146   -0.0000    0.0000    0.0015    0.4626

               lamina:  2     
              matName:  (web-core)
                     s           e11           e22           e12           s11           s22           s12   s11_fcT   s11_fcC   s22_fcT   s22_fcC   s12_fcS
                   (m)         (m/m)         (m/m)         (rad)          (Pa)          (Pa)          (Pa)       (-)       (-)       (-)       (-)       (-)
                0.0000  -5.7716e-003   7.7733e-004   1.3368e-002  -1.2997e+006  -2.6566e+005   1.3101e+006    0.0000    0.3030    0.0000    0.0619    0.4441
                0.0307  -4.5177e-003   6.0846e-004   1.3700e-002  -1.0173e+006  -2.0795e+005   1.3426e+006    0.0000    0.2371    0.0000    0.0485    0.4551
                0.0614  -3.2639e-003   4.3958e-004   1.3951e-002  -7.3499e+005  -1.5024e+005   1.3672e+006    0.0000    0.1713    0.0000    0.0350    0.4635
                0.0920  -2.0100e-003   2.7071e-004   1.4122e-002  -4.5264e+005  -9.2523e+004   1.3840e+006    0.0000    0.1055    0.0000    0.0216    0.4691
                0.1227  -7.5620e-004   1.0183e-004   1.4213e-002  -1.7029e+005  -3.4811e+004   1.3929e+006    0.0000    0.0397    0.0000    0.0081    0.4722
                0.1534   5.0787e-004  -6.8385e-005   1.4225e-002   1.1437e+005   2.3381e+004   1.3940e+006    0.0267   -0.0000    0.0055   -0.0000    0.4725
                0.1841   1.7617e-003  -2.3726e-004   1.4156e-002   3.9672e+005   8.1093e+004   1.3872e+006    0.0925   -0.0000    0.0189   -0.0000    0.4703
                0.2148   3.0156e-003  -4.0613e-004   1.4007e-002   6.7907e+005   1.3881e+005   1.3726e+006    0.1583   -0.0000    0.0324   -0.0000    0.4653
                0.2455   4.2694e-003  -5.7501e-004   1.3777e-002   9.6142e+005   1.9652e+005   1.3502e+006    0.2241   -0.0000    0.0458   -0.0000    0.4577
                0.2761   5.5232e-003  -7.4388e-004   1.3468e-002   1.2438e+006   2.5423e+005   1.3199e+006    0.2899   -0.0000    0.0593   -0.0000    0.4474

               lamina:  3     
              matName:  (web-shell)
                     s           e11           e22           e12           s11           s22           s12   s11_fcT   s11_fcC   s22_fcT   s22_fcC   s12_fcS
                   (m)         (m/m)         (m/m)         (rad)          (Pa)          (Pa)          (Pa)       (-)       (-)       (-)       (-)       (-)
                0.0000  -5.7741e-003   7.7767e-004   1.3368e-002  -1.1079e+008   5.2792e+005   5.2805e+007    0.0000    0.2229    0.0016   -0.0000    0.4592
                0.0307  -4.5203e-003   6.0879e-004   1.3700e-002  -8.6736e+007   4.1316e+005   5.4114e+007    0.0000    0.1745    0.0012   -0.0000    0.4706
                0.0614  -3.2664e-003   4.3992e-004   1.3951e-002  -6.2677e+007   2.9840e+005   5.5107e+007    0.0000    0.1261    0.0009   -0.0000    0.4792
                0.0920  -2.0126e-003   2.7104e-004   1.4122e-002  -3.8618e+007   1.8365e+005   5.5783e+007    0.0000    0.0777    0.0005   -0.0000    0.4851
                0.1227  -7.5877e-004   1.0217e-004   1.4213e-002  -1.4559e+007   6.8892e+004   5.6143e+007    0.0000    0.0293    0.0002   -0.0000    0.4882
                0.1534   4.9764e-004  -6.7044e-005   1.4225e-002   9.5487e+006  -4.5914e+004   5.6187e+007    0.0283   -0.0000    0.0000    0.0001    0.4886
                0.1841   1.7515e-003  -2.3592e-004   1.4156e-002   3.3607e+007  -1.6067e+005   5.5914e+007    0.0997   -0.0000    0.0000    0.0005    0.4862
                0.2148   3.0053e-003  -4.0479e-004   1.4007e-002   5.7666e+007  -2.7543e+005   5.5326e+007    0.1711   -0.0000    0.0000    0.0008    0.4811
                0.2455   4.2592e-003  -5.7367e-004   1.3777e-002   8.1725e+007  -3.9018e+005   5.4421e+007    0.2425   -0.0000    0.0000    0.0012    0.4732
                0.2761   5.5130e-003  -7.4254e-004   1.3468e-002   1.0578e+008  -5.0494e+005   5.3199e+007    0.3139   -0.0000    0.0000    0.0015    0.4626

            panel:  2     
           lam_num    nPlies        tPly      fibAng     matID  matName
               (-)       (-)         (m)       (deg)       (-)  (-)
                 1         1    0.002023      0.0000         7  (web-shell)
                 2         1    0.008047      0.0000         8  (web-core)
                 3         1    0.002023      0.0000         7  (web-shell)

               lamina:  1     
              matName:  (web-shell)
                     s           e11           e22           e12           s11           s22           s12   s11_fcT   s11_fcC   s22_fcT   s22_fcC   s12_fcS
                   (m)         (m/m)         (m/m)         (rad)          (Pa)          (Pa)          (Pa)       (-)       (-)       (-)       (-)       (-)
                0.0000  -5.4150e-003   7.2934e-004   1.5189e-002  -1.0390e+008   4.9596e+005   5.9997e+007    0.0000    0.2091    0.0015   -0.0000    0.5217
                0.0286  -4.2446e-003   5.7171e-004   1.5477e-002  -8.1445e+007   3.8884e+005   6.1133e+007    0.0000    0.1639    0.0012   -0.0000    0.5316
                0.0573  -3.0742e-003   4.1407e-004   1.5695e-002  -5.8987e+007   2.8172e+005   6.1993e+007    0.0000    0.1187    0.0008   -0.0000    0.5391
                0.0859  -1.9038e-003   2.5643e-004   1.5843e-002  -3.6529e+007   1.7459e+005   6.2578e+007    0.0000    0.0735    0.0005   -0.0000    0.5442
                0.1146  -7.3334e-004   9.8789e-005   1.5921e-002  -1.4071e+007   6.7474e+004   6.2888e+007    0.0000    0.0283    0.0002   -0.0000    0.5468
                0.1432   4.3957e-004  -5.9177e-005   1.5929e-002   8.4346e+006  -3.9695e+004   6.2921e+007    0.0250   -0.0000    0.0000    0.0001    0.5471
                0.1718   1.6100e-003  -2.1682e-004   1.5868e-002   3.0893e+007  -1.4682e+005   6.2680e+007    0.0917   -0.0000    0.0000    0.0004    0.5450
                0.2005   2.7804e-003  -3.7445e-004   1.5737e-002   5.3351e+007  -2.5394e+005   6.2162e+007    0.1583   -0.0000    0.0000    0.0008    0.5405
                0.2291   3.9508e-003  -5.3209e-004   1.5537e-002   7.5809e+007  -3.6106e+005   6.1369e+007    0.2250   -0.0000    0.0000    0.0011    0.5336
                0.2578   5.1212e-003  -6.8973e-004   1.5266e-002   9.8267e+007  -4.6818e+005   6.0301e+007    0.2916   -0.0000    0.0000    0.0014    0.5244

               lamina:  2     
              matName:  (web-core)
                     s           e11           e22           e12           s11           s22           s12   s11_fcT   s11_fcC   s22_fcT   s22_fcC   s12_fcS
                   (m)         (m/m)         (m/m)         (rad)          (Pa)          (Pa)          (Pa)       (-)       (-)       (-)       (-)       (-)
                0.0000  -5.4249e-003   7.3064e-004   1.5189e-002  -1.2216e+006  -2.4970e+005   1.4885e+006    0.0000    0.2848    0.0000    0.0582    0.5046
                0.0286  -4.2545e-003   5.7300e-004   1.5477e-002  -9.5807e+005  -1.9583e+005   1.5167e+006    0.0000    0.2233    0.0000    0.0456    0.5141
                0.0573  -3.0841e-003   4.1536e-004   1.5695e-002  -6.9450e+005  -1.4196e+005   1.5381e+006    0.0000    0.1619    0.0000    0.0331    0.5214
                0.0859  -1.9137e-003   2.5773e-004   1.5843e-002  -4.3094e+005  -8.8087e+004   1.5526e+006    0.0000    0.1005    0.0000    0.0205    0.5263
                0.1146  -7.4325e-004   1.0009e-004   1.5921e-002  -1.6737e+005  -3.4215e+004   1.5603e+006    0.0000    0.0390    0.0000    0.0080    0.5289
                0.1432   4.3708e-004  -5.8850e-005   1.5929e-002   9.8427e+004   2.0122e+004   1.5611e+006    0.0229   -0.0000    0.0047   -0.0000    0.5292
                0.1718   1.6075e-003  -2.1649e-004   1.5868e-002   3.6199e+005   7.3995e+004   1.5551e+006    0.0844   -0.0000    0.0172   -0.0000    0.5271
                0.2005   2.7779e-003  -3.7413e-004   1.5737e-002   6.2556e+005   1.2787e+005   1.5423e+006    0.1458   -0.0000    0.0298   -0.0000    0.5228
                0.2291   3.9483e-003  -5.3177e-004   1.5537e-002   8.8912e+005   1.8174e+005   1.5226e+006    0.2073   -0.0000    0.0424   -0.0000    0.5161
                0.2578   5.1187e-003  -6.8941e-004   1.5266e-002   1.1527e+006   2.3561e+005   1.4961e+006    0.2687   -0.0000    0.0549   -0.0000    0.5071

               lamina:  3     
              matName:  (web-shell)
                     s           e11           e22           e12           s11           s22           s12   s11_fcT   s11_fcC   s22_fcT   s22_fcC   s12_fcS
                   (m)         (m/m)         (m/m)         (rad)          (Pa)          (Pa)          (Pa)       (-)       (-)       (-)       (-)       (-)
                0.0000  -5.4274e-003   7.3097e-004   1.5189e-002  -1.0414e+008   4.9620e+005   5.9997e+007    0.0000    0.2095    0.0015   -0.0000    0.5217
                0.0286  -4.2570e-003   5.7333e-004   1.5477e-002  -8.1684e+007   3.8908e+005   6.1133e+007    0.0000    0.1644    0.0012   -0.0000    0.5316
                0.0573  -3.0866e-003   4.1569e-004   1.5695e-002  -5.9226e+007   2.8196e+005   6.1993e+007    0.0000    0.1192    0.0008   -0.0000    0.5391
                0.0859  -1.9162e-003   2.5805e-004   1.5843e-002  -3.6767e+007   1.7484e+005   6.2578e+007    0.0000    0.0740    0.0005   -0.0000    0.5442
                0.1146  -7.4574e-004   1.0041e-004   1.5921e-002  -1.4309e+007   6.7717e+004   6.2888e+007    0.0000    0.0288    0.0002   -0.0000    0.5468
                0.1432   4.2717e-004  -5.7552e-005   1.5929e-002   8.1965e+006  -3.9453e+004   6.2921e+007    0.0243   -0.0000    0.0000    0.0001    0.5471
                0.1718   1.5976e-003  -2.1519e-004   1.5868e-002   3.0655e+007  -1.4657e+005   6.2680e+007    0.0910   -0.0000    0.0000    0.0004    0.5450
                0.2005   2.7680e-003  -3.7283e-004   1.5737e-002   5.3113e+007  -2.5369e+005   6.2162e+007    0.1576   -0.0000    0.0000    0.0008    0.5405
                0.2291   3.9384e-003  -5.3047e-004   1.5537e-002   7.5571e+007  -3.6081e+005   6.1369e+007    0.2242   -0.0000    0.0000    0.0011    0.5336
                0.2578   5.1088e-003  -6.8811e-004   1.5266e-002   9.8029e+007  -4.6793e+005   6.0301e+007    0.2909   -0.0000    0.0000    0.0014    0.5244

================================================================================
sec        =  17     
zSec       =  4.7970  (m)
nPanelsTop =  3      
nPanelsBot =  3      
nWebs      =  2      

    Top:  panel  nNode   nLam     xc_St    xc_End         b         t         E_eff         G_eff      nu_eff     density  buckleCrit
            (-)    (-)    (-)       (-)       (-)       (m)       (m)          (Pa)          (Pa)         (-)    (kg/m^3)         (-)
              1     18      3    0.0000    0.2380    0.3491    0.0087   1.8728e+010   3.8543e+009      0.1301   1633.4801      0.3094
              2      9      5    0.2380    0.4620    0.2811    0.0135   5.6856e+010   4.2122e+009      0.1651   1592.3489      0.4534
              3     28      3    0.4620    1.0000    0.6953    0.0110   1.4907e+010   3.0787e+009      0.1307   1337.4997      0.8737

            panel:  1     
           lam_num    nPlies        tPly      fibAng     matID  matName
               (-)       (-)         (m)       (deg)       (-)  (-)
                 1         1    0.004266      0.0000         2  (blade-shell)
                 2         1    0.000217      0.0000         5  (LEP-core)
                 3         1    0.004266      0.0000         2  (blade-shell)

               lamina:  1     
              matName:  (blade-shell)
                     s           e11           e22           e12           s11           s22           s12   s11_fcT   s11_fcC   s22_fcT   s22_fcC   s12_fcS
                   (m)         (m/m)         (m/m)         (rad)          (Pa)          (Pa)          (Pa)       (-)       (-)       (-)       (-)       (-)
                0.0000   4.2475e-004  -5.5244e-005   6.9171e-003   8.1551e+006  -5.1515e+002   2.7322e+007    0.0242   -0.0000    0.0000    0.0000    0.2376
                0.0040   2.6738e-004  -3.4776e-005   6.9193e-003   5.1336e+006  -3.2624e+002   2.7331e+007    0.0152   -0.0000    0.0000    0.0000    0.2377
                0.0157  -3.9525e-004   5.1394e-005   6.9177e-003  -7.5887e+006   2.2842e+002   2.7325e+007    0.0000    0.0153    0.0000   -0.0000    0.2376
                0.0301  -1.0320e-003   1.3421e-004   6.8988e-003  -1.9814e+007   8.8914e+002   2.7250e+007    0.0000    0.0399    0.0000   -0.0000    0.2370
                0.0425  -1.4844e-003   1.9304e-004   6.8693e-003  -2.8500e+007   1.3499e+003   2.7134e+007    0.0000    0.0573    0.0000   -0.0000    0.2359
                0.0590  -2.0256e-003   2.6343e-004   6.8134e-003  -3.8891e+007   1.9624e+003   2.6913e+007    0.0000    0.0783    0.0000   -0.0000    0.2340
                0.0759  -2.5076e-003   3.2612e-004   6.7372e-003  -4.8146e+007   2.4950e+003   2.6612e+007    0.0000    0.0969    0.0000   -0.0000    0.2314
                0.0952  -2.9839e-003   3.8807e-004   6.6306e-003  -5.7291e+007   3.0521e+003   2.6191e+007    0.0000    0.1153    0.0000   -0.0000    0.2277
                0.1167  -3.5157e-003   4.5723e-004   6.4872e-003  -6.7501e+007   3.6612e+003   2.5624e+007    0.0000    0.1358    0.0000   -0.0000    0.2228
                0.1389  -3.9307e-003   5.1120e-004   6.3173e-003  -7.5468e+007   4.1369e+003   2.4953e+007    0.0000    0.1518    0.0000   -0.0000    0.2170
                0.1635  -4.3797e-003   5.6960e-004   6.1043e-003  -8.4089e+007   4.6678e+003   2.4112e+007    0.0000    0.1692    0.0000   -0.0000    0.2097
                0.1895  -4.8002e-003   6.2429e-004   5.8542e-003  -9.2163e+007   5.1576e+003   2.3124e+007    0.0000    0.1854    0.0000   -0.0000    0.2011
                0.2171  -5.1655e-003   6.7180e-004   5.5658e-003  -9.9176e+007   5.5893e+003   2.1985e+007    0.0000    0.1995    0.0000   -0.0000    0.1912
                0.2465  -5.5567e-003   7.2268e-004   5.2331e-003  -1.0669e+008   6.0504e+003   2.0671e+007    0.0000    0.2147    0.0000   -0.0000    0.1797
                0.2768  -5.8485e-003   7.6064e-004   4.8670e-003  -1.1229e+008   6.3923e+003   1.9225e+007    0.0000    0.2259    0.0000   -0.0000    0.1672
                0.3087  -6.1289e-003   7.9710e-004   4.4607e-003  -1.1767e+008   6.7263e+003   1.7620e+007    0.0000    0.2368    0.0000   -0.0000    0.1532
                0.3420  -6.3921e-003   8.3133e-004   4.0175e-003  -1.2273e+008   7.0393e+003   1.5869e+007    0.0000    0.2469    0.0000   -0.0000    0.1380
                0.3491  -6.4292e-003   8.3616e-004   3.9195e-003  -1.2344e+008   7.0780e+003   1.5482e+007    0.0000    0.2484    0.0000   -0.0000    0.1346

               lamina:  2     
              matName:  (LEP-core)
                     s           e11           e22           e12           s11           s22           s12   s11_fcT   s11_fcC   s22_fcT   s22_fcC   s12_fcS
                   (m)         (m/m)         (m/m)         (rad)          (Pa)          (Pa)          (Pa)       (-)       (-)       (-)       (-)       (-)
                0.0000   4.3355e-004  -5.6388e-005   6.9171e-003   9.7787e+004   2.0428e+004   6.7787e+005    0.0228   -0.0000    0.0048   -0.0000    0.2298
                0.0040   2.7617e-004  -3.5919e-005   6.9193e-003   6.2291e+004   1.3013e+004   6.7809e+005    0.0145   -0.0000    0.0030   -0.0000    0.2299
                0.0157  -1.9525e-004   2.5395e-005   6.9177e-003  -4.4040e+004  -9.2001e+003   6.7793e+005    0.0000    0.0103    0.0000    0.0021    0.2298
                0.0301  -7.4776e-004   9.7255e-005   6.8988e-003  -1.6866e+005  -3.5233e+004   6.7608e+005    0.0000    0.0393    0.0000    0.0082    0.2292
                0.0425  -1.1333e-003   1.4739e-004   6.8693e-003  -2.5561e+005  -5.3398e+004   6.7319e+005    0.0000    0.0596    0.0000    0.0124    0.2282
                0.0590  -1.6443e-003   2.1386e-004   6.8134e-003  -3.7087e+005  -7.7477e+004   6.6771e+005    0.0000    0.0865    0.0000    0.0181    0.2263
                0.0759  -2.0889e-003   2.7169e-004   6.7372e-003  -4.7115e+005  -9.8426e+004   6.6025e+005    0.0000    0.1098    0.0000    0.0229    0.2238
                0.0952  -2.5533e-003   3.3209e-004   6.6306e-003  -5.7590e+005  -1.2031e+005   6.4980e+005    0.0000    0.1342    0.0000    0.0280    0.2203
                0.1167  -3.0613e-003   3.9816e-004   6.4872e-003  -6.9048e+005  -1.4424e+005   6.3574e+005    0.0000    0.1610    0.0000    0.0336    0.2155
                0.1389  -3.4580e-003   4.4975e-004   6.3173e-003  -7.7994e+005  -1.6293e+005   6.1909e+005    0.0000    0.1818    0.0000    0.0380    0.2099
                0.1635  -3.9004e-003   5.0729e-004   6.1043e-003  -8.7973e+005  -1.8378e+005   5.9822e+005    0.0000    0.2051    0.0000    0.0428    0.2028
                0.1895  -4.3088e-003   5.6041e-004   5.8542e-003  -9.7185e+005  -2.0302e+005   5.7371e+005    0.0000    0.2265    0.0000    0.0473    0.1945
                0.2171  -4.6685e-003   6.0719e-004   5.5658e-003  -1.0530e+006  -2.1997e+005   5.4545e+005    0.0000    0.2455    0.0000    0.0513    0.1849
                0.2465  -5.0528e-003   6.5717e-004   5.2331e-003  -1.1397e+006  -2.3808e+005   5.1284e+005    0.0000    0.2657    0.0000    0.0555    0.1738
                0.2768  -5.3378e-003   6.9425e-004   4.8670e-003  -1.2039e+006  -2.5151e+005   4.7696e+005    0.0000    0.2806    0.0000    0.0586    0.1617
                0.3087  -5.6161e-003   7.3044e-004   4.4607e-003  -1.2667e+006  -2.6462e+005   4.3715e+005    0.0000    0.2953    0.0000    0.0617    0.1482
                0.3420  -5.8769e-003   7.6436e-004   4.0175e-003  -1.3255e+006  -2.7691e+005   3.9371e+005    0.0000    0.3090    0.0000    0.0645    0.1335
                0.3491  -5.9093e-003   7.6857e-004   3.9195e-003  -1.3328e+006  -2.7844e+005   3.8411e+005    0.0000    0.3107    0.0000    0.0649    0.1302

               lamina:  3     
              matName:  (blade-shell)
                     s           e11           e22           e12           s11           s22           s12   s11_fcT   s11_fcC   s22_fcT   s22_fcC   s12_fcS
                   (m)         (m/m)         (m/m)         (rad)          (Pa)          (Pa)          (Pa)       (-)       (-)       (-)       (-)       (-)
                0.0000   6.0623e-004  -7.8837e-005   6.9171e-003   1.1640e+007  -5.1528e+002   2.7322e+007    0.0345   -0.0000    0.0000    0.0000    0.2376
                0.0040   4.4886e-004  -5.8368e-005   6.9193e-003   8.6181e+006  -3.2637e+002   2.7331e+007    0.0256   -0.0000    0.0000    0.0000    0.2377
                0.0157  -1.8506e-004   2.4070e-005   6.9177e-003  -3.5532e+006   2.2826e+002   2.7325e+007    0.0000    0.0071    0.0000   -0.0000    0.2376
                0.0301  -7.3328e-004   9.5372e-005   6.8988e-003  -1.4079e+007   8.8892e+002   2.7250e+007    0.0000    0.0283    0.0000   -0.0000    0.2370
                0.0425  -1.1154e-003   1.4507e-004   6.8693e-003  -2.1415e+007   1.3496e+003   2.7134e+007    0.0000    0.0431    0.0000   -0.0000    0.2359
                0.0590  -1.6249e-003   2.1133e-004   6.8134e-003  -3.1197e+007   1.9622e+003   2.6913e+007    0.0000    0.0628    0.0000   -0.0000    0.2340
                0.0759  -2.0676e-003   2.6891e-004   6.7372e-003  -3.9697e+007   2.4947e+003   2.6612e+007    0.0000    0.0799    0.0000   -0.0000    0.2314
                0.0952  -2.5314e-003   3.2923e-004   6.6306e-003  -4.8602e+007   3.0518e+003   2.6191e+007    0.0000    0.0978    0.0000   -0.0000    0.2277
                0.1167  -3.0382e-003   3.9515e-004   6.4872e-003  -5.8332e+007   3.6609e+003   2.5624e+007    0.0000    0.1174    0.0000   -0.0000    0.2228
                0.1389  -3.4339e-003   4.4662e-004   6.3173e-003  -6.5930e+007   4.1365e+003   2.4953e+007    0.0000    0.1327    0.0000   -0.0000    0.2170
                0.1635  -3.8760e-003   5.0412e-004   6.1043e-003  -7.4418e+007   4.6674e+003   2.4112e+007    0.0000    0.1497    0.0000   -0.0000    0.2097
                0.1895  -4.2838e-003   5.5715e-004   5.8542e-003  -8.2248e+007   5.1573e+003   2.3124e+007    0.0000    0.1655    0.0000   -0.0000    0.2011
                0.2171  -4.6432e-003   6.0390e-004   5.5658e-003  -8.9149e+007   5.5889e+003   2.1985e+007    0.0000    0.1794    0.0000   -0.0000    0.1912
                0.2465  -5.0271e-003   6.5384e-004   5.2331e-003  -9.6520e+007   6.0500e+003   2.0671e+007    0.0000    0.1942    0.0000   -0.0000    0.1797
                0.2768  -5.3118e-003   6.9086e-004   4.8670e-003  -1.0199e+008   6.3919e+003   1.9225e+007    0.0000    0.2052    0.0000   -0.0000    0.1672
                0.3087  -5.5900e-003   7.2705e-004   4.4607e-003  -1.0733e+008   6.7260e+003   1.7620e+007    0.0000    0.2160    0.0000   -0.0000    0.1532
                0.3420  -5.8507e-003   7.6095e-004   4.0175e-003  -1.1233e+008   7.0389e+003   1.5869e+007    0.0000    0.2260    0.0000   -0.0000    0.1380
                0.3491  -5.8828e-003   7.6513e-004   3.9195e-003  -1.1295e+008   7.0776e+003   1.5482e+007    0.0000    0.2273    0.0000   -0.0000    0.1346

            panel:  2     
           lam_num    nPlies        tPly      fibAng     matID  matName
               (-)       (-)         (m)       (deg)       (-)  (-)
                 1         1    0.004266      0.0000         2  (blade-shell)
                 2         1    0.002441      0.0000         3  (spar-uni)
                 3         1    0.000047      0.0000         4  (spar-core)
                 4         1    0.002441      0.0000         3  (spar-uni)
                 5         1    0.004266      0.0000         2  (blade-shell)

               lamina:  1     
              matName:  (blade-shell)
                     s           e11           e22           e12           s11           s22           s12   s11_fcT   s11_fcC   s22_fcT   s22_fcC   s12_fcS
                   (m)         (m/m)         (m/m)         (rad)          (Pa)          (Pa)          (Pa)       (-)       (-)       (-)       (-)       (-)
                0.0000  -7.7648e-003   1.2202e-003   6.2363e-003  -1.4855e+008   4.1170e+006   2.4633e+007    0.0000    0.2989    0.0122   -0.0000    0.2142
                0.0268  -7.8868e-003   1.2404e-003   5.2237e-003  -1.5088e+008   4.2005e+006   2.0634e+007    0.0000    0.3036    0.0125   -0.0000    0.1794
                0.0621  -8.0532e-003   1.2676e-003   3.8615e-003  -1.5406e+008   4.3108e+006   1.5253e+007    0.0000    0.3100    0.0128   -0.0000    0.1326
                0.0980  -8.1275e-003   1.2797e-003   2.4478e-003  -1.5548e+008   4.3584e+006   9.6688e+006    0.0000    0.3128    0.0129   -0.0000    0.0841
                0.1350  -8.1285e-003   1.2799e-003   9.8601e-004  -1.5550e+008   4.3588e+006   3.8947e+006    0.0000    0.3129    0.0129   -0.0000    0.0339
                0.1726  -8.1270e-003   1.2797e-003   4.9729e-004  -1.5547e+008   4.3592e+006   1.9643e+006    0.0000    0.3128    0.0129   -0.0000    0.0171
                0.2109  -7.9620e-003   1.2527e-003   1.9879e-003  -1.5232e+008   4.2509e+006   7.8521e+006    0.0000    0.3065    0.0126   -0.0000    0.0683
                0.2500  -7.7903e-003   1.2245e-003   3.4645e-003  -1.4904e+008   4.1352e+006   1.3685e+007    0.0000    0.2999    0.0123   -0.0000    0.1190
                0.2811  -7.6195e-003   1.1964e-003   4.6072e-003  -1.4577e+008   4.0203e+006   1.8199e+007    0.0000    0.2933    0.0119   -0.0000    0.1582

               lamina:  2     
              matName:  (spar-uni)
                     s           e11           e22           e12           s11           s22           s12   s11_fcT   s11_fcC   s22_fcT   s22_fcC   s12_fcS
                   (m)         (m/m)         (m/m)         (rad)          (Pa)          (Pa)          (Pa)       (-)       (-)       (-)       (-)       (-)
                0.0000  -6.5181e-003   1.0534e-003   6.2363e-003  -8.0420e+008  -7.9826e+006   2.9373e+007    0.0000    0.8042    0.0000    0.1333    0.2852
                0.0268  -6.6401e-003   1.0735e-003   5.2237e-003  -8.1925e+008  -8.1285e+006   2.4604e+007    0.0000    0.8192    0.0000    0.1357    0.2389
                0.0621  -6.8028e-003   1.1003e-003   3.8615e-003  -8.3932e+008  -8.3236e+006   1.8188e+007    0.0000    0.8393    0.0000    0.1390    0.1766
                0.0980  -6.8737e-003   1.1119e-003   2.4478e-003  -8.4807e+008  -8.4090e+006   1.1529e+007    0.0000    0.8481    0.0000    0.1404    0.1119
                0.1350  -6.8743e-003   1.1120e-003   9.8601e-004  -8.4815e+008  -8.4098e+006   4.6441e+006    0.0000    0.8481    0.0000    0.1404    0.0451
                0.1726  -6.8743e-003   1.1121e-003   4.9729e-004  -8.4815e+008  -8.4096e+006   2.3422e+006    0.0000    0.8481    0.0000    0.1404    0.0227
                0.2109  -6.7142e-003   1.0857e-003   1.9879e-003  -8.2840e+008  -8.2174e+006   9.3629e+006    0.0000    0.8284    0.0000    0.1372    0.0909
                0.2500  -6.5444e-003   1.0577e-003   3.4645e-003  -8.0745e+008  -8.0139e+006   1.6318e+007    0.0000    0.8074    0.0000    0.1338    0.1584
                0.2811  -6.3757e-003   1.0299e-003   4.6072e-003  -7.8663e+008  -7.8118e+006   2.1700e+007    0.0000    0.7866    0.0000    0.1304    0.2107

               lamina:  3     
              matName:  (spar-core)
                     s           e11           e22           e12           s11           s22           s12   s11_fcT   s11_fcC   s22_fcT   s22_fcC   s12_fcS
                   (m)         (m/m)         (m/m)         (rad)          (Pa)          (Pa)          (Pa)       (-)       (-)       (-)       (-)       (-)
                0.0000  -5.8048e-003   9.5790e-004   6.2363e-003  -1.2935e+006  -2.2569e+005   6.1116e+005    0.0000    0.3015    0.0000    0.0526    0.2072
                0.0268  -5.9268e-003   9.7803e-004   5.2237e-003  -1.3207e+006  -2.3043e+005   5.1192e+005    0.0000    0.3078    0.0000    0.0537    0.1735
                0.0621  -6.0873e-003   1.0045e-003   3.8615e-003  -1.3564e+006  -2.3668e+005   3.7843e+005    0.0000    0.3162    0.0000    0.0552    0.1283
                0.0980  -6.1563e-003   1.0159e-003   2.4478e-003  -1.3718e+006  -2.3936e+005   2.3988e+005    0.0000    0.3198    0.0000    0.0558    0.0813
                0.1350  -6.1568e-003   1.0160e-003   9.8601e-004  -1.3719e+006  -2.3938e+005   9.6629e+004    0.0000    0.3198    0.0000    0.0558    0.0328
                0.1726  -6.1577e-003   1.0161e-003   4.9729e-004  -1.3721e+006  -2.3941e+005   4.8734e+004    0.0000    0.3198    0.0000    0.0558    0.0165
                0.2109  -6.0003e-003   9.9017e-004   1.9879e-003  -1.3371e+006  -2.3329e+005   1.9481e+005    0.0000    0.3117    0.0000    0.0544    0.0660
                0.2500  -5.8316e-003   9.6231e-004   3.4645e-003  -1.2995e+006  -2.2673e+005   3.3952e+005    0.0000    0.3029    0.0000    0.0529    0.1151
                0.2811  -5.6641e-003   9.3467e-004   4.6072e-003  -1.2621e+006  -2.2022e+005   4.5151e+005    0.0000    0.2942    0.0000    0.0513    0.1531

               lamina:  4     
              matName:  (spar-uni)
                     s           e11           e22           e12           s11           s22           s12   s11_fcT   s11_fcC   s22_fcT   s22_fcC   s12_fcS
                   (m)         (m/m)         (m/m)         (rad)          (Pa)          (Pa)          (Pa)       (-)       (-)       (-)       (-)       (-)
                0.0000  -5.7911e-003   9.5606e-004   6.2363e-003  -7.1445e+008  -6.9257e+006   2.9373e+007    0.0000    0.7145    0.0000    0.1156    0.2852
                0.0268  -5.9131e-003   9.7619e-004   5.2237e-003  -7.2950e+008  -7.0716e+006   2.4604e+007    0.0000    0.7295    0.0000    0.1181    0.2389
                0.0621  -6.0736e-003   1.0027e-003   3.8615e-003  -7.4930e+008  -7.2636e+006   1.8188e+007    0.0000    0.7493    0.0000    0.1213    0.1766
                0.0980  -6.1425e-003   1.0141e-003   2.4478e-003  -7.5781e+008  -7.3460e+006   1.1529e+007    0.0000    0.7578    0.0000    0.1226    0.1119
                0.1350  -6.1430e-003   1.0141e-003   9.8601e-004  -7.5787e+008  -7.3466e+006   4.6441e+006    0.0000    0.7579    0.0000    0.1226    0.0451
                0.1726  -6.1439e-003   1.0143e-003   4.9729e-004  -7.5798e+008  -7.3477e+006   2.3422e+006    0.0000    0.7580    0.0000    0.1227    0.0227
                0.2109  -5.9866e-003   9.8833e-004   1.9879e-003  -7.3857e+008  -7.1595e+006   9.3629e+006    0.0000    0.7386    0.0000    0.1195    0.0909
                0.2500  -5.8179e-003   9.6048e-004   3.4645e-003  -7.1776e+008  -6.9577e+006   1.6318e+007    0.0000    0.7178    0.0000    0.1162    0.1584
                0.2811  -5.6504e-003   9.3284e-004   4.6072e-003  -6.9710e+008  -6.7574e+006   2.1700e+007    0.0000    0.6971    0.0000    0.1128    0.2107

               lamina:  5     
              matName:  (blade-shell)
                     s           e11           e22           e12           s11           s22           s12   s11_fcT   s11_fcC   s22_fcT   s22_fcC   s12_fcS
                   (m)         (m/m)         (m/m)         (rad)          (Pa)          (Pa)          (Pa)       (-)       (-)       (-)       (-)       (-)
                0.0000  -5.0778e-003   8.6059e-004   6.2363e-003  -9.6985e+007   3.9153e+006   2.4633e+007    0.0000    0.1951    0.0116   -0.0000    0.2142
                0.0268  -5.1998e-003   8.8072e-004   5.2237e-003  -9.9316e+007   3.9988e+006   2.0634e+007    0.0000    0.1998    0.0119   -0.0000    0.1794
                0.0621  -5.3582e-003   9.0693e-004   3.8615e-003  -1.0234e+008   4.1086e+006   1.5253e+007    0.0000    0.2059    0.0122   -0.0000    0.1326
                0.0980  -5.4252e-003   9.1806e-004   2.4478e-003  -1.0362e+008   4.1556e+006   9.6688e+006    0.0000    0.2085    0.0123   -0.0000    0.0841
                0.1350  -5.4255e-003   9.1811e-004   9.8601e-004  -1.0363e+008   4.1559e+006   3.8947e+006    0.0000    0.2085    0.0123   -0.0000    0.0339
                0.1726  -5.4272e-003   9.1837e-004   4.9729e-004  -1.0366e+008   4.1566e+006   1.9643e+006    0.0000    0.2086    0.0123   -0.0000    0.0171
                0.2109  -5.2727e-003   8.9278e-004   1.9879e-003  -1.0071e+008   4.0491e+006   7.8521e+006    0.0000    0.2026    0.0120   -0.0000    0.0683
                0.2500  -5.1051e-003   8.6507e-004   3.4645e-003  -9.7506e+007   3.9337e+006   1.3685e+007    0.0000    0.1962    0.0117   -0.0000    0.1190
                0.2811  -4.9388e-003   8.3760e-004   4.6072e-003  -9.4329e+007   3.8191e+006   1.8199e+007    0.0000    0.1898    0.0113   -0.0000    0.1582

            panel:  3     
           lam_num    nPlies        tPly      fibAng     matID  matName
               (-)       (-)         (m)       (deg)       (-)  (-)
                 1         1    0.004266      0.0000         2  (blade-shell)
                 2         1    0.002494      0.0000         6  (TEP-core)
                 3         1    0.004266      0.0000         2  (blade-shell)

               lamina:  1     
              matName:  (blade-shell)
                     s           e11           e22           e12           s11           s22           s12   s11_fcT   s11_fcC   s22_fcT   s22_fcC   s12_fcS
                   (m)         (m/m)         (m/m)         (rad)          (Pa)          (Pa)          (Pa)       (-)       (-)       (-)       (-)       (-)
                0.0000  -6.2475e-003   8.1621e-004   2.9626e-004  -1.1994e+008   7.8660e+004   1.1702e+006    0.0000    0.2413    0.0002   -0.0000    0.0102
                0.0081  -6.2007e-003   8.1009e-004   4.0137e-004  -1.1904e+008   7.8065e+004   1.5854e+006    0.0000    0.2395    0.0002   -0.0000    0.0138
                0.0480  -5.8952e-003   7.7016e-004   9.0556e-004  -1.1318e+008   7.3883e+004   3.5770e+006    0.0000    0.2277    0.0002   -0.0000    0.0311
                0.0879  -5.5890e-003   7.3015e-004   1.3805e-003  -1.0730e+008   6.9707e+004   5.4528e+006    0.0000    0.2159    0.0002   -0.0000    0.0474
                0.1279  -5.2161e-003   6.8141e-004   1.8248e-003  -1.0014e+008   6.4632e+004   7.2078e+006    0.0000    0.2015    0.0002   -0.0000    0.0627
                0.1678  -4.8165e-003   6.2918e-004   2.2325e-003  -9.2469e+007   5.9162e+004   8.8185e+006    0.0000    0.1861    0.0002   -0.0000    0.0767
                0.2072  -4.4176e-003   5.7704e-004   2.5985e-003  -8.4811e+007   5.3719e+004   1.0264e+007    0.0000    0.1706    0.0002   -0.0000    0.0893
                0.2463  -3.9655e-003   5.1796e-004   2.9232e-003  -7.6132e+007   4.7546e+004   1.1546e+007    0.0000    0.1532    0.0001   -0.0000    0.1004
                0.2847  -3.5238e-003   4.6022e-004   3.2020e-003  -6.7651e+007   4.1488e+004   1.2648e+007    0.0000    0.1361    0.0001   -0.0000    0.1100
                0.3222  -3.0812e-003   4.0237e-004   3.4356e-003  -5.9155e+007   3.5429e+004   1.3571e+007    0.0000    0.1190    0.0001   -0.0000    0.1180
                0.3587  -2.6366e-003   3.4426e-004   3.6255e-003  -5.0619e+007   2.9335e+004   1.4321e+007    0.0000    0.1018    0.0001   -0.0000    0.1245
                0.3941  -2.2076e-003   2.8819e-004   3.7732e-003  -4.2382e+007   2.3443e+004   1.4904e+007    0.0000    0.0853    0.0001   -0.0000    0.1296
                0.4280  -1.7973e-003   2.3456e-004   3.8818e-003  -3.4505e+007   1.7809e+004   1.5333e+007    0.0000    0.0694    0.0001   -0.0000    0.1333
                0.4604  -1.4058e-003   1.8339e-004   3.9553e-003  -2.6990e+007   1.2432e+004   1.5624e+007    0.0000    0.0543    0.0000   -0.0000    0.1359
                0.4912  -1.0378e-003   1.3528e-004   3.9978e-003  -1.9924e+007   7.3640e+003   1.5791e+007    0.0000    0.0401    0.0000   -0.0000    0.1373
                0.5201  -7.0636e-004   9.1970e-005   4.0141e-003  -1.3562e+007   2.8016e+003   1.5856e+007    0.0000    0.0273    0.0000   -0.0000    0.1379
                0.5471  -3.9636e-004   5.1452e-005   4.0091e-003  -7.6103e+006  -1.6886e+003   1.5836e+007    0.0000    0.0153    0.0000    0.0000    0.1377
                0.5721   2.8516e-004  -3.7351e-005   3.9873e-003   5.4743e+006  -5.4817e+003   1.5750e+007    0.0162   -0.0000    0.0000    0.0000    0.1370
                0.5950   5.2770e-004  -6.9052e-005   3.9535e-003   1.0131e+007  -8.8138e+003   1.5616e+007    0.0301   -0.0000    0.0000    0.0000    0.1358
                0.6157   7.4748e-004  -9.7779e-005   3.9116e-003   1.4350e+007  -1.1835e+004   1.5451e+007    0.0426   -0.0000    0.0000    0.0000    0.1344
                0.6341   9.2712e-004  -1.2126e-004   3.8658e-003   1.7799e+007  -1.4306e+004   1.5270e+007    0.0528   -0.0000    0.0000    0.0000    0.1328
                0.6502   1.0823e-003  -1.4154e-004   3.8196e-003   2.0777e+007  -1.6437e+004   1.5087e+007    0.0617   -0.0000    0.0000    0.0000    0.1312
                0.6639   1.2126e-003  -1.5857e-004   3.7755e-003   2.3279e+007  -1.8229e+004   1.4913e+007    0.0691   -0.0000    0.0000    0.0001    0.1297
                0.6752   1.3146e-003  -1.7190e-004   3.7363e-003   2.5237e+007  -1.9631e+004   1.4758e+007    0.0749   -0.0000    0.0000    0.0001    0.1283
                0.6839   1.3941e-003  -1.8229e-004   3.7038e-003   2.6764e+007  -2.0722e+004   1.4630e+007    0.0794   -0.0000    0.0000    0.0001    0.1272
                0.6902   1.4535e-003  -1.9006e-004   3.6796e-003   2.7904e+007  -2.1534e+004   1.4535e+007    0.0828   -0.0000    0.0000    0.0001    0.1264
                0.6940   1.4903e-003  -1.9486e-004   3.6646e-003   2.8611e+007  -2.2038e+004   1.4475e+007    0.0849   -0.0000    0.0000    0.0001    0.1259
                0.6953   1.5026e-003  -1.9647e-004   3.6595e-003   2.8847e+007  -2.2207e+004   1.4455e+007    0.0856   -0.0000    0.0000    0.0001    0.1257

               lamina:  2     
              matName:  (TEP-core)
                     s           e11           e22           e12           s11           s22           s12   s11_fcT   s11_fcC   s22_fcT   s22_fcC   s12_fcS
                   (m)         (m/m)         (m/m)         (rad)          (Pa)          (Pa)          (Pa)       (-)       (-)       (-)       (-)       (-)
                0.0000  -5.8299e-003   7.6190e-004   2.9626e-004  -1.3146e+006  -2.7383e+005   2.9034e+004    0.0000    0.3064    0.0000    0.0638    0.0098
                0.0081  -5.7859e-003   7.5616e-004   4.0137e-004  -1.3047e+006  -2.7177e+005   3.9334e+004    0.0000    0.3041    0.0000    0.0633    0.0133
                0.0480  -5.4811e-003   7.1632e-004   9.0556e-004  -1.2360e+006  -2.5745e+005   8.8745e+004    0.0000    0.2881    0.0000    0.0600    0.0301
                0.0879  -5.1766e-003   6.7651e-004   1.3805e-003  -1.1673e+006  -2.4315e+005   1.3528e+005    0.0000    0.2721    0.0000    0.0567    0.0459
                0.1279  -4.8063e-003   6.2811e-004   1.8248e-003  -1.0838e+006  -2.2575e+005   1.7883e+005    0.0000    0.2526    0.0000    0.0526    0.0606
                0.1678  -4.4076e-003   5.7601e-004   2.2325e-003  -9.9392e+005  -2.0703e+005   2.1879e+005    0.0000    0.2317    0.0000    0.0483    0.0742
                0.2072  -4.0106e-003   5.2412e-004   2.5985e-003  -9.0440e+005  -1.8839e+005   2.5465e+005    0.0000    0.2108    0.0000    0.0439    0.0863
                0.2463  -3.5606e-003   4.6530e-004   2.9232e-003  -8.0291e+005  -1.6725e+005   2.8647e+005    0.0000    0.1872    0.0000    0.0390    0.0971
                0.2847  -3.1192e-003   4.0761e-004   3.2020e-003  -7.0339e+005  -1.4652e+005   3.1379e+005    0.0000    0.1640    0.0000    0.0342    0.1064
                0.3222  -2.6776e-003   3.4989e-004   3.4356e-003  -6.0381e+005  -1.2578e+005   3.3669e+005    0.0000    0.1407    0.0000    0.0293    0.1141
                0.3587  -2.2336e-003   2.9186e-004   3.6255e-003  -5.0368e+005  -1.0492e+005   3.5530e+005    0.0000    0.1174    0.0000    0.0245    0.1204
                0.3941  -1.8045e-003   2.3577e-004   3.7732e-003  -4.0692e+005  -8.4770e+004   3.6977e+005    0.0000    0.0949    0.0000    0.0198    0.1253
                0.4280  -1.3941e-003   1.8213e-004   3.8818e-003  -3.1437e+005  -6.5494e+004   3.8042e+005    0.0000    0.0733    0.0000    0.0153    0.1290
                0.4604  -1.0025e-003   1.3095e-004   3.9553e-003  -2.2606e+005  -4.7102e+004   3.8762e+005    0.0000    0.0527    0.0000    0.0110    0.1314
                0.4912  -6.3355e-004   8.2727e-005   3.9978e-003  -1.4287e+005  -2.9775e+004   3.9179e+005    0.0000    0.0333    0.0000    0.0069    0.1328
                0.5201  -3.0140e-004   3.9315e-005   4.0141e-003  -6.7973e+004  -1.4175e+004   3.9338e+005    0.0000    0.0158    0.0000    0.0033    0.1334
                0.5471   2.4631e-004  -3.2113e-005   4.0091e-003   5.5549e+004   1.1587e+004   3.9289e+005    0.0129   -0.0000    0.0027   -0.0000    0.1332
                0.5721   5.2296e-004  -6.8273e-005   3.9873e-003   1.1793e+005   2.4581e+004   3.9075e+005    0.0275   -0.0000    0.0057   -0.0000    0.1325
                0.5950   7.6585e-004  -1.0002e-004   3.9535e-003   1.7271e+005   3.5989e+004   3.8744e+005    0.0403   -0.0000    0.0084   -0.0000    0.1313
                0.6157   9.8623e-004  -1.2882e-004   3.9116e-003   2.2240e+005   4.6339e+004   3.8334e+005    0.0518   -0.0000    0.0108   -0.0000    0.1299
                0.6341   1.1666e-003  -1.5240e-004   3.8658e-003   2.6307e+005   5.4810e+004   3.7885e+005    0.0613   -0.0000    0.0128   -0.0000    0.1284
                0.6502   1.3219e-003  -1.7270e-004   3.8196e-003   2.9810e+005   6.2105e+004   3.7432e+005    0.0695   -0.0000    0.0145   -0.0000    0.1269
                0.6639   1.4526e-003  -1.8978e-004   3.7755e-003   3.2757e+005   6.8244e+004   3.7000e+005    0.0764   -0.0000    0.0159   -0.0000    0.1254
                0.6752   1.5549e-003  -2.0315e-004   3.7363e-003   3.5064e+005   7.3049e+004   3.6615e+005    0.0817   -0.0000    0.0170   -0.0000    0.1241
                0.6839   1.6343e-003  -2.1352e-004   3.7038e-003   3.6853e+005   7.6775e+004   3.6298e+005    0.0859   -0.0000    0.0179   -0.0000    0.1230
                0.6902   1.6932e-003  -2.2123e-004   3.6796e-003   3.8182e+005   7.9544e+004   3.6060e+005    0.0890   -0.0000    0.0185   -0.0000    0.1222
                0.6940   1.7298e-003  -2.2601e-004   3.6646e-003   3.9007e+005   8.1262e+004   3.5913e+005    0.0909   -0.0000    0.0189   -0.0000    0.1217
                0.6953   1.7421e-003  -2.2762e-004   3.6595e-003   3.9285e+005   8.1840e+004   3.5863e+005    0.0916   -0.0000    0.0191   -0.0000    0.1216

               lamina:  3     
              matName:  (blade-shell)
                     s           e11           e22           e12           s11           s22           s12   s11_fcT   s11_fcC   s22_fcT   s22_fcC   s12_fcS
                   (m)         (m/m)         (m/m)         (rad)          (Pa)          (Pa)          (Pa)       (-)       (-)       (-)       (-)       (-)
                0.0000  -5.5858e-003   7.3016e-004   2.9626e-004  -1.0724e+008   7.8295e+004   1.1702e+006    0.0000    0.2158    0.0002   -0.0000    0.0102
                0.0081  -5.5434e-003   7.2463e-004   4.0137e-004  -1.0642e+008   7.7703e+004   1.5854e+006    0.0000    0.2141    0.0002   -0.0000    0.0138
                0.0480  -5.2390e-003   6.8484e-004   9.0556e-004  -1.0058e+008   7.3521e+004   3.5770e+006    0.0000    0.2024    0.0002   -0.0000    0.0311
                0.0879  -4.9354e-003   6.4515e-004   1.3805e-003  -9.4751e+007   6.9346e+004   5.4528e+006    0.0000    0.1906    0.0002   -0.0000    0.0474
                0.1279  -4.5666e-003   5.9695e-004   1.8248e-003  -8.7671e+007   6.4273e+004   7.2078e+006    0.0000    0.1764    0.0002   -0.0000    0.0627
                0.1678  -4.1686e-003   5.4493e-004   2.2325e-003  -8.0029e+007   5.8805e+004   8.8185e+006    0.0000    0.1610    0.0002   -0.0000    0.0767
                0.2072  -3.7727e-003   4.9319e-004   2.5985e-003  -7.2429e+007   5.3363e+004   1.0264e+007    0.0000    0.1457    0.0002   -0.0000    0.0893
                0.2463  -3.3238e-003   4.3451e-004   2.9232e-003  -6.3811e+007   4.7192e+004   1.1546e+007    0.0000    0.1284    0.0001   -0.0000    0.1004
                0.2847  -2.8827e-003   3.7686e-004   3.2020e-003  -5.5343e+007   4.1135e+004   1.2648e+007    0.0000    0.1114    0.0001   -0.0000    0.1100
                0.3222  -2.4417e-003   3.1921e-004   3.4356e-003  -4.6876e+007   3.5076e+004   1.3571e+007    0.0000    0.0943    0.0001   -0.0000    0.1180
                0.3587  -1.9980e-003   2.6122e-004   3.6255e-003  -3.8358e+007   2.8982e+004   1.4321e+007    0.0000    0.0772    0.0001   -0.0000    0.1245
                0.3941  -1.5688e-003   2.0513e-004   3.7732e-003  -3.0119e+007   2.3091e+004   1.4904e+007    0.0000    0.0606    0.0001   -0.0000    0.1296
                0.4280  -1.1584e-003   1.5148e-004   3.8818e-003  -2.2238e+007   1.7456e+004   1.5333e+007    0.0000    0.0447    0.0001   -0.0000    0.1333
                0.4604  -7.6667e-004   1.0029e-004   3.9553e-003  -1.4719e+007   1.2079e+004   1.5624e+007    0.0000    0.0296    0.0000   -0.0000    0.1359
                0.4912  -3.9725e-004   5.2001e-005   3.9978e-003  -7.6262e+006   7.0106e+003   1.5791e+007    0.0000    0.0153    0.0000   -0.0000    0.1373
                0.5201   3.4029e-004  -4.4124e-005   4.0141e-003   6.5338e+006   2.4475e+003   1.5856e+007    0.0194   -0.0000    0.0000   -0.0000    0.1379
                0.5471   6.5188e-004  -8.4848e-005   4.0091e-003   1.2516e+007  -2.0432e+003   1.5836e+007    0.0371   -0.0000    0.0000    0.0000    0.1377
                0.5721   9.2973e-004  -1.2116e-004   3.9873e-003   1.7850e+007  -5.8373e+003   1.5750e+007    0.0530   -0.0000    0.0000    0.0000    0.1370
                0.5950   1.1732e-003  -1.5299e-004   3.9535e-003   2.2525e+007  -9.1700e+003   1.5616e+007    0.0668   -0.0000    0.0000    0.0000    0.1358
                0.6157   1.3946e-003  -1.8193e-004   3.9116e-003   2.6775e+007  -1.2192e+004   1.5451e+007    0.0795   -0.0000    0.0000    0.0000    0.1344
                0.6341   1.5762e-003  -2.0566e-004   3.8658e-003   3.0261e+007  -1.4664e+004   1.5270e+007    0.0898   -0.0000    0.0000    0.0000    0.1328
                0.6502   1.7318e-003  -2.2600e-004   3.8196e-003   3.3249e+007  -1.6796e+004   1.5087e+007    0.0987   -0.0000    0.0000    0.0000    0.1312
                0.6639   1.8632e-003  -2.4317e-004   3.7755e-003   3.5771e+007  -1.8588e+004   1.4913e+007    0.1061   -0.0000    0.0000    0.0001    0.1297
                0.6752   1.9661e-003  -2.5661e-004   3.7363e-003   3.7746e+007  -1.9991e+004   1.4758e+007    0.1120   -0.0000    0.0000    0.0001    0.1283
                0.6839   2.0450e-003  -2.6693e-004   3.7038e-003   3.9262e+007  -2.1081e+004   1.4630e+007    0.1165   -0.0000    0.0000    0.0001    0.1272
                0.6902   2.1033e-003  -2.7455e-004   3.6796e-003   4.0380e+007  -2.1893e+004   1.4535e+007    0.1198   -0.0000    0.0000    0.0001    0.1264
                0.6940   2.1394e-003  -2.7927e-004   3.6646e-003   4.1074e+007  -2.2396e+004   1.4475e+007    0.1219   -0.0000    0.0000    0.0001    0.1259
                0.6953   2.1518e-003  -2.8088e-004   3.6595e-003   4.1311e+007  -2.2565e+004   1.4455e+007    0.1226   -0.0000    0.0000    0.0001    0.1257

  Bottom:  panel  nNode   nLam     xc_St    xc_End         b         t         E_eff         G_eff      nu_eff     density  buckleCrit
            (-)    (-)    (-)       (-)       (-)       (m)       (m)          (Pa)          (Pa)         (-)    (kg/m^3)         (-)
              1     18      3    0.0000    0.2380    0.3335    0.0087   1.8728e+010   3.8543e+009      0.1301   1633.4801      0.0950
              2      9      5    0.2380    0.4620    0.2812    0.0135   5.6856e+010   4.2122e+009      0.1651   1592.3489      0.0025
              3     28      3    0.4620    1.0000    0.6895    0.0110   1.4907e+010   3.0787e+009      0.1307   1337.4997      0.1655

            panel:  1     
           lam_num    nPlies        tPly      fibAng     matID  matName
               (-)       (-)         (m)       (deg)       (-)  (-)
                 1         1    0.004266      0.0000         2  (blade-shell)
                 2         1    0.000217      0.0000         5  (LEP-core)
                 3         1    0.004266      0.0000         2  (blade-shell)

               lamina:  1     
              matName:  (blade-shell)
                     s           e11           e22           e12           s11           s22           s12   s11_fcT   s11_fcC   s22_fcT   s22_fcC   s12_fcS
                   (m)         (m/m)         (m/m)         (rad)          (Pa)          (Pa)          (Pa)       (-)       (-)       (-)       (-)       (-)
                0.0000   4.8413e-004  -6.2955e-005   6.9171e-003   9.2952e+006  -3.7067e+002   2.7322e+007    0.0276   -0.0000    0.0000    0.0000    0.2376
                0.0036   6.2625e-004  -8.1440e-005   6.9148e-003   1.2024e+007  -5.4127e+002   2.7313e+007    0.0357   -0.0000    0.0000    0.0000    0.2375
                0.0141   1.0726e-003  -1.3950e-004   6.9013e-003   2.0595e+007  -1.0396e+003   2.7260e+007    0.0611   -0.0000    0.0000    0.0000    0.2370
                0.0270   1.6574e-003  -2.1555e-004   6.8713e-003   3.1823e+007  -1.6275e+003   2.7142e+007    0.0944   -0.0000    0.0000    0.0000    0.2360
                0.0383   2.0682e-003  -2.6896e-004   6.8341e-003   3.9708e+007  -2.0334e+003   2.6995e+007    0.1178   -0.0000    0.0000    0.0000    0.2347
                0.0534   2.5548e-003  -3.3226e-004   6.7708e-003   4.9053e+007  -2.5765e+003   2.6745e+007    0.1456   -0.0000    0.0000    0.0000    0.2326
                0.0690   2.9720e-003  -3.8652e-004   6.6904e-003   5.7062e+007  -3.0280e+003   2.6427e+007    0.1693   -0.0000    0.0000    0.0000    0.2298
                0.0869   3.3711e-003  -4.3842e-004   6.5822e-003   6.4724e+007  -3.4924e+003   2.6000e+007    0.1921   -0.0000    0.0000    0.0000    0.2261
                0.1070   3.8152e-003  -4.9618e-004   6.4418e-003   7.3251e+007  -4.0001e+003   2.5445e+007    0.2174   -0.0000    0.0000    0.0000    0.2213
                0.1281   4.1563e-003  -5.4054e-004   6.2758e-003   7.9800e+007  -4.3909e+003   2.4789e+007    0.2368   -0.0000    0.0000    0.0000    0.2156
                0.1517   4.5251e-003  -5.8851e-004   6.0718e-003   8.6882e+007  -4.8273e+003   2.3983e+007    0.2578   -0.0000    0.0000    0.0000    0.2086
                0.1768   4.8681e-003  -6.3313e-004   5.8340e-003   9.3468e+007  -5.2274e+003   2.3044e+007    0.2774   -0.0000    0.0000    0.0000    0.2004
                0.2036   5.1631e-003  -6.7149e-004   5.5610e-003   9.9132e+007  -5.5764e+003   2.1966e+007    0.2942   -0.0000    0.0000    0.0000    0.1910
                0.2322   5.4789e-003  -7.1256e-004   5.2493e-003   1.0519e+008  -5.9494e+003   2.0735e+007    0.3121   -0.0000    0.0000    0.0000    0.1803
                0.2620   5.7139e-003  -7.4312e-004   4.9050e-003   1.0971e+008  -6.2256e+003   1.9375e+007    0.3255   -0.0000    0.0000    0.0000    0.1685
                0.2935   5.9399e-003  -7.7251e-004   4.5247e-003   1.1404e+008  -6.4952e+003   1.7873e+007    0.3384   -0.0000    0.0000    0.0000    0.1554
                0.3264   6.1512e-003  -8.0000e-004   4.1111e-003   1.1810e+008  -6.7468e+003   1.6239e+007    0.3505   -0.0000    0.0000    0.0000    0.1412
                0.3335   6.1799e-003  -8.0374e-004   4.0188e-003   1.1865e+008  -6.7773e+003   1.5874e+007    0.3521   -0.0000    0.0000    0.0000    0.1380

               lamina:  2     
              matName:  (LEP-core)
                     s           e11           e22           e12           s11           s22           s12   s11_fcT   s11_fcC   s22_fcT   s22_fcC   s12_fcS
                   (m)         (m/m)         (m/m)         (rad)          (Pa)          (Pa)          (Pa)       (-)       (-)       (-)       (-)       (-)
                0.0000   3.1304e-004  -4.0715e-005   6.9171e-003   7.0606e+004   1.4750e+004   6.7787e+005    0.0165   -0.0000    0.0034   -0.0000    0.2298
                0.0036   4.5516e-004  -5.9199e-005   6.9148e-003   1.0266e+005   2.1446e+004   6.7765e+005    0.0239   -0.0000    0.0050   -0.0000    0.2297
                0.0141   8.7104e-004  -1.1329e-004   6.9013e-003   1.9646e+005   4.1042e+004   6.7633e+005    0.0458   -0.0000    0.0096   -0.0000    0.2293
                0.0270   1.3631e-003  -1.7729e-004   6.8713e-003   3.0746e+005   6.4229e+004   6.7338e+005    0.0717   -0.0000    0.0150   -0.0000    0.2283
                0.0383   1.7030e-003  -2.2150e-004   6.8341e-003   3.8411e+005   8.0243e+004   6.6974e+005    0.0895   -0.0000    0.0187   -0.0000    0.2270
                0.0534   2.1563e-003  -2.8045e-004   6.7708e-003   4.8635e+005   1.0160e+005   6.6354e+005    0.1134   -0.0000    0.0237   -0.0000    0.2249
                0.0690   2.5334e-003  -3.2950e-004   6.6904e-003   5.7141e+005   1.1937e+005   6.5566e+005    0.1332   -0.0000    0.0278   -0.0000    0.2223
                0.0869   2.9206e-003  -3.7986e-004   6.5822e-003   6.5874e+005   1.3761e+005   6.4506e+005    0.1536   -0.0000    0.0321   -0.0000    0.2187
                0.1070   3.3440e-003  -4.3493e-004   6.4418e-003   7.5424e+005   1.5756e+005   6.3129e+005    0.1758   -0.0000    0.0367   -0.0000    0.2140
                0.1281   3.6699e-003  -4.7732e-004   6.2758e-003   8.2775e+005   1.7292e+005   6.1502e+005    0.1929   -0.0000    0.0403   -0.0000    0.2085
                0.1517   4.0336e-003  -5.2461e-004   6.0718e-003   9.0977e+005   1.9006e+005   5.9503e+005    0.2121   -0.0000    0.0443   -0.0000    0.2017
                0.1768   4.3672e-003  -5.6800e-004   5.8340e-003   9.8501e+005   2.0577e+005   5.7174e+005    0.2296   -0.0000    0.0480   -0.0000    0.1938
                0.2036   4.6580e-003  -6.0583e-004   5.5610e-003   1.0506e+006   2.1948e+005   5.4498e+005    0.2449   -0.0000    0.0512   -0.0000    0.1847
                0.2322   4.9688e-003  -6.4625e-004   5.2493e-003   1.1207e+006   2.3412e+005   5.1443e+005    0.2612   -0.0000    0.0546   -0.0000    0.1744
                0.2620   5.1991e-003  -6.7620e-004   4.9050e-003   1.1727e+006   2.4497e+005   4.8069e+005    0.2733   -0.0000    0.0571   -0.0000    0.1629
                0.2935   5.4237e-003  -7.0541e-004   4.5247e-003   1.2233e+006   2.5555e+005   4.4343e+005    0.2852   -0.0000    0.0596   -0.0000    0.1503
                0.3264   5.6333e-003  -7.3268e-004   4.1111e-003   1.2706e+006   2.6543e+005   4.0288e+005    0.2962   -0.0000    0.0619   -0.0000    0.1366
                0.3335   5.6588e-003  -7.3599e-004   4.0188e-003   1.2763e+006   2.6663e+005   3.9384e+005    0.2975   -0.0000    0.0622   -0.0000    0.1335

               lamina:  3     
              matName:  (blade-shell)
                     s           e11           e22           e12           s11           s22           s12   s11_fcT   s11_fcC   s22_fcT   s22_fcC   s12_fcS
                   (m)         (m/m)         (m/m)         (rad)          (Pa)          (Pa)          (Pa)       (-)       (-)       (-)       (-)       (-)
                0.0000   3.0433e-004  -3.9581e-005   6.9171e-003   5.8430e+006  -3.7054e+002   2.7322e+007    0.0173   -0.0000    0.0000    0.0000    0.2376
                0.0036   4.4644e-004  -5.8065e-005   6.9148e-003   8.5717e+006  -5.4114e+002   2.7313e+007    0.0254   -0.0000    0.0000    0.0000    0.2375
                0.0141   8.6077e-004  -1.1195e-004   6.9013e-003   1.6527e+007  -1.0394e+003   2.7260e+007    0.0490   -0.0000    0.0000    0.0000    0.2370
                0.0270   1.3481e-003  -1.7534e-004   6.8713e-003   2.5884e+007  -1.6273e+003   2.7142e+007    0.0768   -0.0000    0.0000    0.0000    0.2360
                0.0383   1.6844e-003  -2.1908e-004   6.8341e-003   3.2341e+007  -2.0331e+003   2.6995e+007    0.0960   -0.0000    0.0000    0.0000    0.2347
                0.0534   2.1360e-003  -2.7781e-004   6.7708e-003   4.1010e+007  -2.5762e+003   2.6745e+007    0.1217   -0.0000    0.0000    0.0000    0.2326
                0.0690   2.5111e-003  -3.2659e-004   6.6904e-003   4.8212e+007  -3.0277e+003   2.6427e+007    0.1431   -0.0000    0.0000    0.0000    0.2298
                0.0869   2.8976e-003  -3.7687e-004   6.5822e-003   5.5634e+007  -3.4921e+003   2.6000e+007    0.1651   -0.0000    0.0000    0.0000    0.2261
                0.1070   3.3200e-003  -4.3181e-004   6.4418e-003   6.3744e+007  -3.9998e+003   2.5445e+007    0.1892   -0.0000    0.0000    0.0000    0.2213
                0.1281   3.6452e-003  -4.7410e-004   6.2758e-003   6.9987e+007  -4.3905e+003   2.4789e+007    0.2077   -0.0000    0.0000    0.0000    0.2156
                0.1517   4.0085e-003  -5.2136e-004   6.0718e-003   7.6963e+007  -4.8269e+003   2.3983e+007    0.2284   -0.0000    0.0000    0.0000    0.2086
                0.1768   4.3416e-003  -5.6468e-004   5.8340e-003   8.3359e+007  -5.2270e+003   2.3044e+007    0.2474   -0.0000    0.0000    0.0000    0.2004
                0.2036   4.6323e-003  -6.0248e-004   5.5610e-003   8.8939e+007  -5.5760e+003   2.1966e+007    0.2639   -0.0000    0.0000    0.0000    0.1910
                0.2322   4.9428e-003  -6.4287e-004   5.2493e-003   9.4902e+007  -5.9490e+003   2.0735e+007    0.2816   -0.0000    0.0000    0.0000    0.1803
                0.2620   5.1729e-003  -6.7279e-004   4.9050e-003   9.9318e+007  -6.2253e+003   1.9375e+007    0.2947   -0.0000    0.0000    0.0000    0.1685
                0.2935   5.3974e-003  -7.0199e-004   4.5247e-003   1.0363e+008  -6.4948e+003   1.7873e+007    0.3075   -0.0000    0.0000    0.0000    0.1554
                0.3264   5.6069e-003  -7.2925e-004   4.1111e-003   1.0765e+008  -6.7464e+003   1.6239e+007    0.3194   -0.0000    0.0000    0.0000    0.1412
                0.3335   5.6322e-003  -7.3254e-004   4.0188e-003   1.0814e+008  -6.7769e+003   1.5874e+007    0.3209   -0.0000    0.0000    0.0000    0.1380

            panel:  2     
           lam_num    nPlies        tPly      fibAng     matID  matName
               (-)       (-)         (m)       (deg)       (-)  (-)
                 1         1    0.004266      0.0000         2  (blade-shell)
                 2         1    0.002441      0.0000         3  (spar-uni)
                 3         1    0.000047      0.0000         4  (spar-core)
                 4         1    0.002441      0.0000         3  (spar-uni)
                 5         1    0.004266      0.0000         2  (blade-shell)

               lamina:  1     
              matName:  (blade-shell)
                     s           e11           e22           e12           s11           s22           s12   s11_fcT   s11_fcC   s22_fcT   s22_fcC   s12_fcS
                   (m)         (m/m)         (m/m)         (rad)          (Pa)          (Pa)          (Pa)       (-)       (-)       (-)       (-)       (-)
                0.0000   7.5185e-003  -1.1794e-003   6.3256e-003   1.4384e+008  -3.9456e+006   2.4986e+007    0.4268   -0.0000    0.0000    0.0117    0.2173
                0.0266   7.6139e-003  -1.1952e-003   5.3788e-003   1.4567e+008  -4.0109e+006   2.1246e+007    0.4322   -0.0000    0.0000    0.0119    0.1847
                0.0617   7.7434e-003  -1.2164e-003   4.1063e-003   1.4814e+008  -4.0972e+006   1.6220e+007    0.4396   -0.0000    0.0000    0.0122    0.1410
                0.0977   7.7957e-003  -1.2250e-003   2.7811e-003   1.4914e+008  -4.1311e+006   1.0985e+007    0.4426   -0.0000    0.0000    0.0123    0.0955
                0.1347   7.7876e-003  -1.2236e-003   1.4088e-003   1.4899e+008  -4.1255e+006   5.5647e+006    0.4421   -0.0000    0.0000    0.0122    0.0484
                0.1723   7.7773e-003  -1.2220e-003   1.4260e-005   1.4879e+008  -4.1197e+006   5.6326e+004    0.4415   -0.0000    0.0000    0.0122    0.0005
                0.2108   7.6264e-003  -1.1973e-003   1.3939e-003   1.4591e+008  -4.0202e+006   5.5059e+006    0.4330   -0.0000    0.0000    0.0119    0.0479
                0.2500   7.4696e-003  -1.1715e-003   2.7924e-003   1.4291e+008  -3.9141e+006   1.1030e+007    0.4241   -0.0000    0.0000    0.0116    0.0959
                0.2812   7.3173e-003  -1.1464e-003   3.8788e-003   1.4000e+008  -3.8114e+006   1.5321e+007    0.4154   -0.0000    0.0000    0.0113    0.1332

               lamina:  2     
              matName:  (spar-uni)
                     s           e11           e22           e12           s11           s22           s12   s11_fcT   s11_fcC   s22_fcT   s22_fcC   s12_fcS
                   (m)         (m/m)         (m/m)         (rad)          (Pa)          (Pa)          (Pa)       (-)       (-)       (-)       (-)       (-)
                0.0000   6.2690e-003  -1.0122e-003   6.3256e-003   7.7347e+008   7.6850e+006   2.9794e+007    0.3908   -0.0000    0.1283   -0.0000    0.2893
                0.0266   6.3643e-003  -1.0279e-003   5.3788e-003   7.8523e+008   7.7991e+006   2.5334e+007    0.3968   -0.0000    0.1302   -0.0000    0.2460
                0.0617   6.4914e-003  -1.0489e-003   4.1063e-003   8.0090e+008   7.9514e+006   1.9341e+007    0.4047   -0.0000    0.1327   -0.0000    0.1878
                0.0977   6.5417e-003  -1.0571e-003   2.7811e-003   8.0711e+008   8.0119e+006   1.3099e+007    0.4078   -0.0000    0.1338   -0.0000    0.1272
                0.1347   6.5335e-003  -1.0558e-003   1.4088e-003   8.0610e+008   8.0021e+006   6.6354e+006    0.4073   -0.0000    0.1336   -0.0000    0.0644
                0.1723   6.5246e-003  -1.0543e-003   1.4260e-005   8.0500e+008   7.9912e+006   6.7163e+004    0.4068   -0.0000    0.1334   -0.0000    0.0007
                0.2108   6.3776e-003  -1.0301e-003   1.3939e-003   7.8687e+008   7.8148e+006   6.5653e+006    0.3976   -0.0000    0.1305   -0.0000    0.0637
                0.2500   6.2221e-003  -1.0045e-003   2.7924e-003   7.6768e+008   7.6286e+006   1.3152e+007    0.3879   -0.0000    0.1274   -0.0000    0.1277
                0.2812   6.0714e-003  -9.7965e-004   3.8788e-003   7.4909e+008   7.4481e+006   1.8269e+007    0.3785   -0.0000    0.1243   -0.0000    0.1774

               lamina:  3     
              matName:  (spar-core)
                     s           e11           e22           e12           s11           s22           s12   s11_fcT   s11_fcC   s22_fcT   s22_fcC   s12_fcS
                   (m)         (m/m)         (m/m)         (rad)          (Pa)          (Pa)          (Pa)       (-)       (-)       (-)       (-)       (-)
                0.0000   5.5541e-003  -9.1651e-004   6.3256e-003   1.2376e+006   2.1595e+005   6.1991e+005    0.2885   -0.0000    0.0503   -0.0000    0.2101
                0.0266   5.6494e-003  -9.3225e-004   5.3788e-003   1.2589e+006   2.1965e+005   5.2712e+005    0.2934   -0.0000    0.0512   -0.0000    0.1787
                0.0617   5.7751e-003  -9.5299e-004   4.1063e-003   1.2869e+006   2.2454e+005   4.0242e+005    0.3000   -0.0000    0.0523   -0.0000    0.1364
                0.0977   5.8242e-003  -9.6110e-004   2.7811e-003   1.2978e+006   2.2645e+005   2.7255e+005    0.3025   -0.0000    0.0528   -0.0000    0.0924
                0.1347   5.8160e-003  -9.5974e-004   1.4088e-003   1.2960e+006   2.2613e+005   1.3806e+005    0.3021   -0.0000    0.0527   -0.0000    0.0468
                0.1723   5.8079e-003  -9.5840e-004   1.4260e-005   1.2942e+006   2.2581e+005   1.3974e+003    0.3017   -0.0000    0.0526   -0.0000    0.0005
                0.2108   5.6631e-003  -9.3451e-004   1.3939e-003   1.2619e+006   2.2019e+005   1.3660e+005    0.2942   -0.0000    0.0513   -0.0000    0.0463
                0.2500   5.5084e-003  -9.0897e-004   2.7924e-003   1.2274e+006   2.1417e+005   2.7365e+005    0.2861   -0.0000    0.0499   -0.0000    0.0928
                0.2812   5.3586e-003  -8.8424e-004   3.8788e-003   1.1941e+006   2.0835e+005   3.8012e+005    0.2783   -0.0000    0.0486   -0.0000    0.1289

               lamina:  4     
              matName:  (spar-uni)
                     s           e11           e22           e12           s11           s22           s12   s11_fcT   s11_fcC   s22_fcT   s22_fcC   s12_fcS
                   (m)         (m/m)         (m/m)         (rad)          (Pa)          (Pa)          (Pa)       (-)       (-)       (-)       (-)       (-)
                0.0000   5.5403e-003  -9.1467e-004   6.3256e-003   6.8351e+008   6.6257e+006   2.9794e+007    0.3454   -0.0000    0.1106   -0.0000    0.2893
                0.0266   5.6357e-003  -9.3041e-004   5.3788e-003   6.9528e+008   6.7397e+006   2.5334e+007    0.3513   -0.0000    0.1125   -0.0000    0.2460
                0.0617   5.7613e-003  -9.5114e-004   4.1063e-003   7.1078e+008   6.8900e+006   1.9341e+007    0.3592   -0.0000    0.1150   -0.0000    0.1878
                0.0977   5.8104e-003  -9.5925e-004   2.7811e-003   7.1684e+008   6.9488e+006   1.3099e+007    0.3622   -0.0000    0.1160   -0.0000    0.1272
                0.1347   5.8022e-003  -9.5789e-004   1.4088e-003   7.1582e+008   6.9389e+006   6.6354e+006    0.3617   -0.0000    0.1158   -0.0000    0.0644
                0.1723   5.7941e-003  -9.5656e-004   1.4260e-005   7.1482e+008   6.9292e+006   6.7163e+004    0.3612   -0.0000    0.1157   -0.0000    0.0007
                0.2108   5.6494e-003  -9.3267e-004   1.3939e-003   6.9697e+008   6.7561e+006   6.5653e+006    0.3522   -0.0000    0.1128   -0.0000    0.0637
                0.2500   5.4947e-003  -9.0714e-004   2.7924e-003   6.7788e+008   6.5711e+006   1.3152e+007    0.3425   -0.0000    0.1097   -0.0000    0.1277
                0.2812   5.3449e-003  -8.8241e-004   3.8788e-003   6.5940e+008   6.3919e+006   1.8269e+007    0.3332   -0.0000    0.1067   -0.0000    0.1774

               lamina:  5     
              matName:  (blade-shell)
                     s           e11           e22           e12           s11           s22           s12   s11_fcT   s11_fcC   s22_fcT   s22_fcC   s12_fcS
                   (m)         (m/m)         (m/m)         (rad)          (Pa)          (Pa)          (Pa)       (-)       (-)       (-)       (-)       (-)
                0.0000   4.8254e-003  -8.1898e-004   6.3256e-003   9.2161e+007  -3.7435e+006   2.4986e+007    0.2735   -0.0000    0.0000    0.0111    0.2173
                0.0266   4.9208e-003  -8.3472e-004   5.3788e-003   9.3984e+007  -3.8088e+006   2.1246e+007    0.2789   -0.0000    0.0000    0.0113    0.1847
                0.0617   5.0450e-003  -8.5527e-004   4.1063e-003   9.6358e+007  -3.8947e+006   1.6220e+007    0.2859   -0.0000    0.0000    0.0116    0.1410
                0.0977   5.0930e-003  -8.6323e-004   2.7811e-003   9.7274e+007  -3.9283e+006   1.0985e+007    0.2886   -0.0000    0.0000    0.0117    0.0955
                0.1347   5.0846e-003  -8.6185e-004   1.4088e-003   9.7115e+007  -3.9226e+006   5.5647e+006    0.2882   -0.0000    0.0000    0.0116    0.0484
                0.1723   5.0774e-003  -8.6063e-004   1.4260e-005   9.6976e+007  -3.9171e+006   5.6326e+004    0.2878   -0.0000    0.0000    0.0116    0.0005
                0.2108   4.9349e-003  -8.3704e-004   1.3939e-003   9.4253e+007  -3.8182e+006   5.5059e+006    0.2797   -0.0000    0.0000    0.0113    0.0479
                0.2500   4.7810e-003  -8.1161e-004   2.7924e-003   9.1312e+007  -3.7124e+006   1.1030e+007    0.2710   -0.0000    0.0000    0.0110    0.0959
                0.2812   4.6321e-003  -7.8700e-004   3.8788e-003   8.8466e+007  -3.6099e+006   1.5321e+007    0.2625   -0.0000    0.0000    0.0107    0.1332

            panel:  3     
           lam_num    nPlies        tPly      fibAng     matID  matName
               (-)       (-)         (m)       (deg)       (-)  (-)
                 1         1    0.004266      0.0000         2  (blade-shell)
                 2         1    0.002494      0.0000         6  (TEP-core)
                 3         1    0.004266      0.0000         2  (blade-shell)

               lamina:  1     
              matName:  (blade-shell)
                     s           e11           e22           e12           s11           s22           s12   s11_fcT   s11_fcC   s22_fcT   s22_fcC   s12_fcS
                   (m)         (m/m)         (m/m)         (rad)          (Pa)          (Pa)          (Pa)       (-)       (-)       (-)       (-)       (-)
                0.0000   5.9430e-003  -7.7641e-004   9.6041e-004   1.1410e+008  -7.4467e+004   3.7936e+006    0.3386   -0.0000    0.0000    0.0002    0.0330
                0.0081   5.9016e-003  -7.7099e-004   8.5963e-004   1.1330e+008  -7.3932e+004   3.3955e+006    0.3362   -0.0000    0.0000    0.0002    0.0295
                0.0482   5.6369e-003  -7.3639e-004   3.7730e-004   1.0822e+008  -7.0306e+004   1.4903e+006    0.3211   -0.0000    0.0000    0.0002    0.0130
                0.0882   5.3719e-003  -7.0176e-004   8.1106e-005   1.0313e+008  -6.6683e+004   3.2037e+005    0.3060   -0.0000    0.0000    0.0002    0.0028
                0.1282   5.0629e-003  -6.6138e-004   5.1409e-004   9.7200e+007  -6.2466e+004   2.0307e+006    0.2884   -0.0000    0.0000    0.0002    0.0177
                0.1681   4.7366e-003  -6.1873e-004   9.1723e-004   9.0935e+007  -5.7995e+004   3.6230e+006    0.2698   -0.0000    0.0000    0.0002    0.0315
                0.2075   4.4127e-003  -5.7640e-004   1.2869e-003   8.4718e+007  -5.3560e+004   5.0832e+006    0.2514   -0.0000    0.0000    0.0002    0.0442
                0.2465   4.0700e-003  -5.3160e-004   1.6228e-003   7.8138e+007  -4.8865e+004   6.4101e+006    0.2319   -0.0000    0.0000    0.0001    0.0557
                0.2846   3.7348e-003  -4.8778e-004   1.9233e-003   7.1702e+007  -4.4260e+004   7.5970e+006    0.2128   -0.0000    0.0000    0.0001    0.0661
                0.3218   3.4130e-003  -4.4573e-004   2.1888e-003   6.5525e+007  -3.9837e+004   8.6457e+006    0.1944   -0.0000    0.0000    0.0001    0.0752
                0.3579   3.1075e-003  -4.0580e-004   2.4208e-003   5.9660e+007  -3.5640e+004   9.5622e+006    0.1770   -0.0000    0.0000    0.0001    0.0831
                0.3928   2.8129e-003  -3.6730e-004   2.6217e-003   5.4004e+007  -3.1580e+004   1.0356e+007    0.1602   -0.0000    0.0000    0.0001    0.0900
                0.4262   2.5622e-003  -3.3452e-004   2.7934e-003   4.9190e+007  -2.8118e+004   1.1034e+007    0.1460   -0.0000    0.0000    0.0001    0.0959
                0.4581   2.3306e-003  -3.0425e-004   2.9397e-003   4.4743e+007  -2.4930e+004   1.1612e+007    0.1328   -0.0000    0.0000    0.0001    0.1010
                0.4883   2.1201e-003  -2.7674e-004   3.0639e-003   4.0703e+007  -2.2016e+004   1.2102e+007    0.1208   -0.0000    0.0000    0.0001    0.1052
                0.5167   1.9664e-003  -2.5665e-004   3.1685e-003   3.7752e+007  -1.9887e+004   1.2516e+007    0.1120   -0.0000    0.0000    0.0001    0.1088
                0.5432   1.8224e-003  -2.3783e-004   3.2575e-003   3.4988e+007  -1.7897e+004   1.2867e+007    0.1038   -0.0000    0.0000    0.0001    0.1119
                0.5677   1.7196e-003  -2.2439e-004   3.3332e-003   3.3014e+007  -1.6465e+004   1.3166e+007    0.0980   -0.0000    0.0000    0.0000    0.1145
                0.5901   1.6509e-003  -2.1541e-004   3.3980e-003   3.1695e+007  -1.5513e+004   1.3422e+007    0.0940   -0.0000    0.0000    0.0000    0.1167
                0.6104   1.5888e-003  -2.0730e-004   3.4540e-003   3.0503e+007  -1.4649e+004   1.3643e+007    0.0905   -0.0000    0.0000    0.0000    0.1186
                0.6286   1.5787e-003  -2.0597e-004   3.5025e-003   3.0309e+007  -1.4503e+004   1.3835e+007    0.0899   -0.0000    0.0000    0.0000    0.1203
                0.6443   1.5746e-003  -2.0543e-004   3.5446e-003   3.0230e+007  -1.4446e+004   1.4001e+007    0.0897   -0.0000    0.0000    0.0000    0.1217
                0.6579   1.5815e-003  -2.0635e-004   3.5809e-003   3.0364e+007  -1.4547e+004   1.4145e+007    0.0901   -0.0000    0.0000    0.0000    0.1230
                0.6691   1.6141e-003  -2.1060e-004   3.6115e-003   3.0989e+007  -1.5007e+004   1.4266e+007    0.0920   -0.0000    0.0000    0.0000    0.1240
                0.6779   1.6393e-003  -2.1390e-004   3.6361e-003   3.1473e+007  -1.5368e+004   1.4363e+007    0.0934   -0.0000    0.0000    0.0000    0.1249
                0.6844   1.6714e-003  -2.1810e-004   3.6548e-003   3.2089e+007  -1.5853e+004   1.4436e+007    0.0952   -0.0000    0.0000    0.0000    0.1255
                0.6883   1.6972e-003  -2.2147e-004   3.6663e-003   3.2584e+007  -1.6236e+004   1.4482e+007    0.0967   -0.0000    0.0000    0.0000    0.1259
                0.6895   1.7062e-003  -2.2265e-004   3.6701e-003   3.2757e+007  -1.6360e+004   1.4497e+007    0.0972   -0.0000    0.0000    0.0000    0.1261

               lamina:  2     
              matName:  (TEP-core)
                     s           e11           e22           e12           s11           s22           s12   s11_fcT   s11_fcC   s22_fcT   s22_fcC   s12_fcS
                   (m)         (m/m)         (m/m)         (rad)          (Pa)          (Pa)          (Pa)       (-)       (-)       (-)       (-)       (-)
                0.0000   5.5247e-003  -7.2201e-004   9.6041e-004   1.2458e+006   2.5950e+005   9.4120e+004    0.2904   -0.0000    0.0605   -0.0000    0.0319
                0.0081   5.4852e-003  -7.1685e-004   8.5963e-004   1.2369e+006   2.5764e+005   8.4243e+004    0.2883   -0.0000    0.0601   -0.0000    0.0286
                0.0482   5.2210e-003  -6.8232e-004   3.7730e-004   1.1773e+006   2.4523e+005   3.6975e+004    0.2744   -0.0000    0.0572   -0.0000    0.0125
                0.0882   4.9569e-003  -6.4780e-004   8.1106e-005   1.1178e+006   2.3283e+005   7.9484e+003    0.2606   -0.0000    0.0543   -0.0000    0.0027
                0.1282   4.6494e-003  -6.0761e-004   5.1409e-004   1.0484e+006   2.1839e+005   5.0381e+004    0.2444   -0.0000    0.0509   -0.0000    0.0171
                0.1681   4.3236e-003  -5.6502e-004   9.1723e-004   9.7497e+005   2.0309e+005   8.9888e+004    0.2273   -0.0000    0.0473   -0.0000    0.0305
                0.2075   4.0004e-003  -5.2278e-004   1.2869e-003   9.0209e+005   1.8790e+005   1.2612e+005    0.2103   -0.0000    0.0438   -0.0000    0.0428
                0.2465   3.6583e-003  -4.7806e-004   1.6228e-003   8.2494e+005   1.7184e+005   1.5903e+005    0.1923   -0.0000    0.0401   -0.0000    0.0539
                0.2846   3.3229e-003  -4.3423e-004   1.9233e-003   7.4931e+005   1.5608e+005   1.8848e+005    0.1747   -0.0000    0.0364   -0.0000    0.0639
                0.3218   3.0008e-003  -3.9213e-004   2.1888e-003   6.7669e+005   1.4096e+005   2.1450e+005    0.1577   -0.0000    0.0329   -0.0000    0.0727
                0.3579   2.6951e-003  -3.5218e-004   2.4208e-003   6.0775e+005   1.2660e+005   2.3724e+005    0.1417   -0.0000    0.0295   -0.0000    0.0804
                0.3928   2.3996e-003  -3.1355e-004   2.6217e-003   5.4111e+005   1.1272e+005   2.5692e+005    0.1261   -0.0000    0.0263   -0.0000    0.0871
                0.4262   2.1477e-003  -2.8063e-004   2.7934e-003   4.8432e+005   1.0089e+005   2.7375e+005    0.1129   -0.0000    0.0235   -0.0000    0.0928
                0.4581   1.9156e-003  -2.5030e-004   2.9397e-003   4.3198e+005   8.9991e+004   2.8809e+005    0.1007   -0.0000    0.0210   -0.0000    0.0977
                0.4883   1.7037e-003  -2.2260e-004   3.0639e-003   3.8419e+005   8.0038e+004   3.0026e+005    0.0896   -0.0000    0.0187   -0.0000    0.1018
                0.5167   1.5489e-003  -2.0236e-004   3.1685e-003   3.4928e+005   7.2766e+004   3.1051e+005    0.0814   -0.0000    0.0170   -0.0000    0.1053
                0.5432   1.4042e-003  -1.8344e-004   3.2575e-003   3.1664e+005   6.5968e+004   3.1924e+005    0.0738   -0.0000    0.0154   -0.0000    0.1082
                0.5677   1.3001e-003  -1.6985e-004   3.3332e-003   2.9319e+005   6.1083e+004   3.2665e+005    0.0683   -0.0000    0.0142   -0.0000    0.1107
                0.5901   1.2309e-003  -1.6080e-004   3.3980e-003   2.7757e+005   5.7832e+004   3.3300e+005    0.0647   -0.0000    0.0135   -0.0000    0.1129
                0.6104   1.1681e-003  -1.5260e-004   3.4540e-003   2.6342e+005   5.4884e+004   3.3849e+005    0.0614   -0.0000    0.0128   -0.0000    0.1147
                0.6286   1.1576e-003  -1.5122e-004   3.5025e-003   2.6105e+005   5.4390e+004   3.4325e+005    0.0609   -0.0000    0.0127   -0.0000    0.1164
                0.6443   1.1535e-003  -1.5068e-004   3.5446e-003   2.6011e+005   5.4194e+004   3.4737e+005    0.0606   -0.0000    0.0126   -0.0000    0.1178
                0.6579   1.1608e-003  -1.5163e-004   3.5809e-003   2.6176e+005   5.4537e+004   3.5093e+005    0.0610   -0.0000    0.0127   -0.0000    0.1190
                0.6691   1.1941e-003  -1.5598e-004   3.6115e-003   2.6927e+005   5.6101e+004   3.5393e+005    0.0628   -0.0000    0.0131   -0.0000    0.1200
                0.6779   1.2202e-003  -1.5940e-004   3.6361e-003   2.7515e+005   5.7327e+004   3.5634e+005    0.0641   -0.0000    0.0134   -0.0000    0.1208
                0.6844   1.2548e-003  -1.6393e-004   3.6548e-003   2.8297e+005   5.8956e+004   3.5817e+005    0.0660   -0.0000    0.0137   -0.0000    0.1214
                0.6883   1.2823e-003  -1.6752e-004   3.6663e-003   2.8917e+005   6.0247e+004   3.5930e+005    0.0674   -0.0000    0.0140   -0.0000    0.1218
                0.6895   1.2914e-003  -1.6870e-004   3.6701e-003   2.9121e+005   6.0671e+004   3.5967e+005    0.0679   -0.0000    0.0141   -0.0000    0.1219

               lamina:  3     
              matName:  (blade-shell)
                     s           e11           e22           e12           s11           s22           s12   s11_fcT   s11_fcC   s22_fcT   s22_fcC   s12_fcS
                   (m)         (m/m)         (m/m)         (rad)          (Pa)          (Pa)          (Pa)       (-)       (-)       (-)       (-)       (-)
                0.0000   5.2801e-003  -6.9021e-004   9.6041e-004   1.0137e+008  -7.4101e+004   3.7936e+006    0.3008   -0.0000    0.0000    0.0002    0.0330
                0.0081   5.2418e-003  -6.8520e-004   8.5963e-004   1.0063e+008  -7.3568e+004   3.3955e+006    0.2986   -0.0000    0.0000    0.0002    0.0295
                0.0482   4.9779e-003  -6.5071e-004   3.7730e-004   9.5566e+007  -6.9943e+004   1.4903e+006    0.2836   -0.0000    0.0000    0.0002    0.0130
                0.0882   4.7143e-003  -6.1625e-004   8.1106e-005   9.0506e+007  -6.6320e+004   3.2037e+005    0.2686   -0.0000    0.0000    0.0002    0.0028
                0.1282   4.4076e-003  -5.7617e-004   5.1409e-004   8.4618e+007  -6.2104e+004   2.0307e+006    0.2511   -0.0000    0.0000    0.0002    0.0177
                0.1681   4.0821e-003  -5.3363e-004   9.1723e-004   7.8370e+007  -5.7634e+004   3.6230e+006    0.2326   -0.0000    0.0000    0.0002    0.0315
                0.2075   3.7593e-003  -4.9143e-004   1.2869e-003   7.2171e+007  -5.3199e+004   5.0832e+006    0.2142   -0.0000    0.0000    0.0002    0.0442
                0.2465   3.4175e-003  -4.4676e-004   1.6228e-003   6.5611e+007  -4.8505e+004   6.4101e+006    0.1947   -0.0000    0.0000    0.0001    0.0557
                0.2846   3.0821e-003  -4.0292e-004   1.9233e-003   5.9170e+007  -4.3900e+004   7.5970e+006    0.1756   -0.0000    0.0000    0.0001    0.0661
                0.3218   2.7598e-003  -3.6080e-004   2.1888e-003   5.2983e+007  -3.9477e+004   8.6457e+006    0.1572   -0.0000    0.0000    0.0001    0.0752
                0.3579   2.4540e-003  -3.2083e-004   2.4208e-003   4.7112e+007  -3.5279e+004   9.5622e+006    0.1398   -0.0000    0.0000    0.0001    0.0831
                0.3928   2.1580e-003  -2.8213e-004   2.6217e-003   4.1429e+007  -3.1218e+004   1.0356e+007    0.1229   -0.0000    0.0000    0.0001    0.0900
                0.4262   1.9054e-003  -2.4913e-004   2.7934e-003   3.6581e+007  -2.7756e+004   1.1034e+007    0.1085   -0.0000    0.0000    0.0001    0.0959
                0.4581   1.6731e-003  -2.1876e-004   2.9397e-003   3.2120e+007  -2.4567e+004   1.1612e+007    0.0953   -0.0000    0.0000    0.0001    0.1010
                0.4883   1.4603e-003  -1.9095e-004   3.0639e-003   2.8035e+007  -2.1652e+004   1.2102e+007    0.0832   -0.0000    0.0000    0.0001    0.1052
                0.5167   1.3048e-003  -1.7062e-004   3.1685e-003   2.5050e+007  -1.9522e+004   1.2516e+007    0.0743   -0.0000    0.0000    0.0001    0.1088
                0.5432   1.1596e-003  -1.5165e-004   3.2575e-003   2.2263e+007  -1.7532e+004   1.2867e+007    0.0661   -0.0000    0.0000    0.0001    0.1119
                0.5677   1.0549e-003  -1.3796e-004   3.3332e-003   2.0252e+007  -1.6098e+004   1.3166e+007    0.0601   -0.0000    0.0000    0.0000    0.1145
                0.5901   9.8539e-004  -1.2888e-004   3.3980e-003   1.8918e+007  -1.5146e+004   1.3422e+007    0.0561   -0.0000    0.0000    0.0000    0.1167
                0.6104   9.2221e-004  -1.2062e-004   3.4540e-003   1.7705e+007  -1.4281e+004   1.3643e+007    0.0525   -0.0000    0.0000    0.0000    0.1186
                0.6286   9.1144e-004  -1.1921e-004   3.5025e-003   1.7498e+007  -1.4135e+004   1.3835e+007    0.0519   -0.0000    0.0000    0.0000    0.1203
                0.6443   9.0727e-004  -1.1867e-004   3.5446e-003   1.7418e+007  -1.4078e+004   1.4001e+007    0.0517   -0.0000    0.0000    0.0000    0.1217
                0.6579   9.1477e-004  -1.1965e-004   3.5809e-003   1.7562e+007  -1.4180e+004   1.4145e+007    0.0521   -0.0000    0.0000    0.0000    0.1230
                0.6691   9.4850e-004  -1.2405e-004   3.6115e-003   1.8209e+007  -1.4640e+004   1.4266e+007    0.0540   -0.0000    0.0000    0.0000    0.1240
                0.6779   9.7512e-004  -1.2753e-004   3.6361e-003   1.8720e+007  -1.5002e+004   1.4363e+007    0.0556   -0.0000    0.0000    0.0000    0.1249
                0.6844   1.0113e-003  -1.3226e-004   3.6548e-003   1.9415e+007  -1.5489e+004   1.4436e+007    0.0576   -0.0000    0.0000    0.0000    0.1255
                0.6883   1.0398e-003  -1.3599e-004   3.6663e-003   1.9962e+007  -1.5873e+004   1.4482e+007    0.0592   -0.0000    0.0000    0.0000    0.1259
                0.6895   1.0488e-003  -1.3717e-004   3.6701e-003   2.0136e+007  -1.5997e+004   1.4497e+007    0.0597   -0.0000    0.0000    0.0000    0.1261

     Web:  panel  nNode   nLam     xc_St    xc_End         b         t         E_eff         G_eff      nu_eff     density  buckleCrit
            (-)    (-)    (-)       (-)       (-)       (m)       (m)          (Pa)          (Pa)         (-)    (kg/m^3)         (-)
              1     10      3    0.2380    0.2380    0.2668    0.0121   6.5707e+009   1.3870e+009      0.1347    691.8994      0.1157
              2     10      3    0.4620    0.4620    0.2495    0.0121   6.5707e+009   1.3870e+009      0.1347    691.8994      0.1069

            panel:  1     
           lam_num    nPlies        tPly      fibAng     matID  matName
               (-)       (-)         (m)       (deg)       (-)  (-)
                 1         1    0.002023      0.0000         7  (web-shell)
                 2         1    0.008047      0.0000         8  (web-core)
                 3         1    0.002023      0.0000         7  (web-shell)

               lamina:  1     
              matName:  (web-shell)
                     s           e11           e22           e12           s11           s22           s12   s11_fcT   s11_fcC   s22_fcT   s22_fcC   s12_fcS
                   (m)         (m/m)         (m/m)         (rad)          (Pa)          (Pa)          (Pa)       (-)       (-)       (-)       (-)       (-)
                0.0000  -5.7086e-003   7.6889e-004   1.3199e-002  -1.0954e+008   5.2285e+005   5.2137e+007    0.0000    0.2204    0.0016   -0.0000    0.4534
                0.0296  -4.4667e-003   6.0163e-004   1.3541e-002  -8.5708e+007   4.0919e+005   5.3489e+007    0.0000    0.1725    0.0012   -0.0000    0.4651
                0.0593  -3.2249e-003   4.3437e-004   1.3801e-002  -6.1879e+007   2.9553e+005   5.4514e+007    0.0000    0.1245    0.0009   -0.0000    0.4740
                0.0889  -1.9830e-003   2.6710e-004   1.3978e-002  -3.8050e+007   1.8187e+005   5.5212e+007    0.0000    0.0766    0.0005   -0.0000    0.4801
                0.1186  -7.4114e-004   9.9841e-005   1.4072e-002  -1.4221e+007   6.8211e+004   5.5583e+007    0.0000    0.0286    0.0002   -0.0000    0.4833
                0.1482   5.0337e-004  -6.7768e-005   1.4083e-002   9.6587e+006  -4.5500e+004   5.5628e+007    0.0287   -0.0000    0.0000    0.0001    0.4837
                0.1779   1.7452e-003  -2.3503e-004   1.4012e-002   3.3488e+007  -1.5916e+005   5.5347e+007    0.0994   -0.0000    0.0000    0.0005    0.4813
                0.2075   2.9871e-003  -4.0229e-004   1.3858e-002   5.7317e+007  -2.7282e+005   5.4738e+007    0.1701   -0.0000    0.0000    0.0008    0.4760
                0.2372   4.2290e-003  -5.6955e-004   1.3621e-002   8.1146e+007  -3.8648e+005   5.3803e+007    0.2408   -0.0000    0.0000    0.0011    0.4679
                0.2668   5.4708e-003  -7.3682e-004   1.3302e-002   1.0497e+008  -5.0014e+005   5.2542e+007    0.3115   -0.0000    0.0000    0.0015    0.4569

               lamina:  2     
              matName:  (web-core)
                     s           e11           e22           e12           s11           s22           s12   s11_fcT   s11_fcC   s22_fcT   s22_fcC   s12_fcS
                   (m)         (m/m)         (m/m)         (rad)          (Pa)          (Pa)          (Pa)       (-)       (-)       (-)       (-)       (-)
                0.0000  -5.7191e-003   7.7027e-004   1.3199e-002  -1.2879e+006  -2.6325e+005   1.2935e+006    0.0000    0.3002    0.0000    0.0614    0.4385
                0.0296  -4.4773e-003   6.0301e-004   1.3541e-002  -1.0082e+006  -2.0609e+005   1.3271e+006    0.0000    0.2350    0.0000    0.0480    0.4499
                0.0593  -3.2354e-003   4.3575e-004   1.3801e-002  -7.2858e+005  -1.4892e+005   1.3525e+006    0.0000    0.1698    0.0000    0.0347    0.4585
                0.0889  -1.9935e-003   2.6848e-004   1.3978e-002  -4.4893e+005  -9.1764e+004   1.3698e+006    0.0000    0.1046    0.0000    0.0214    0.4643
                0.1186  -7.5168e-004   1.0122e-004   1.4072e-002  -1.6927e+005  -3.4603e+004   1.3790e+006    0.0000    0.0395    0.0000    0.0081    0.4675
                0.1482   5.0072e-004  -6.7420e-005   1.4083e-002   1.1276e+005   2.3052e+004   1.3801e+006    0.0263   -0.0000    0.0054   -0.0000    0.4678
                0.1779   1.7426e-003  -2.3468e-004   1.4012e-002   3.9241e+005   8.0213e+004   1.3732e+006    0.0915   -0.0000    0.0187   -0.0000    0.4655
                0.2075   2.9844e-003  -4.0194e-004   1.3858e-002   6.7207e+005   1.3737e+005   1.3581e+006    0.1567   -0.0000    0.0320   -0.0000    0.4604
                0.2372   4.2263e-003  -5.6921e-004   1.3621e-002   9.5172e+005   1.9453e+005   1.3349e+006    0.2218   -0.0000    0.0453   -0.0000    0.4525
                0.2668   5.4682e-003  -7.3647e-004   1.3302e-002   1.2314e+006   2.5170e+005   1.3036e+006    0.2870   -0.0000    0.0587   -0.0000    0.4419

               lamina:  3     
              matName:  (web-shell)
                     s           e11           e22           e12           s11           s22           s12   s11_fcT   s11_fcC   s22_fcT   s22_fcC   s12_fcS
                   (m)         (m/m)         (m/m)         (rad)          (Pa)          (Pa)          (Pa)       (-)       (-)       (-)       (-)       (-)
                0.0000  -5.7218e-003   7.7062e-004   1.3199e-002  -1.0979e+008   5.2311e+005   5.2137e+007    0.0000    0.2209    0.0016   -0.0000    0.4534
                0.0296  -4.4799e-003   6.0335e-004   1.3541e-002  -8.5961e+007   4.0945e+005   5.3489e+007    0.0000    0.1730    0.0012   -0.0000    0.4651
                0.0593  -3.2381e-003   4.3609e-004   1.3801e-002  -6.2132e+007   2.9579e+005   5.4514e+007    0.0000    0.1250    0.0009   -0.0000    0.4740
                0.0889  -1.9962e-003   2.6883e-004   1.3978e-002  -3.8303e+007   1.8213e+005   5.5212e+007    0.0000    0.0771    0.0005   -0.0000    0.4801
                0.1186  -7.5433e-004   1.0157e-004   1.4072e-002  -1.4474e+007   6.8469e+004   5.5583e+007    0.0000    0.0291    0.0002   -0.0000    0.4833
                0.1482   4.9018e-004  -6.6040e-005   1.4083e-002   9.4056e+006  -4.5242e+004   5.5628e+007    0.0279   -0.0000    0.0000    0.0001    0.4837
                0.1779   1.7320e-003  -2.3330e-004   1.4012e-002   3.3235e+007  -1.5890e+005   5.5347e+007    0.0986   -0.0000    0.0000    0.0005    0.4813
                0.2075   2.9739e-003  -4.0056e-004   1.3858e-002   5.7064e+007  -2.7256e+005   5.4738e+007    0.1693   -0.0000    0.0000    0.0008    0.4760
                0.2372   4.2158e-003  -5.6783e-004   1.3621e-002   8.0893e+007  -3.8622e+005   5.3803e+007    0.2400   -0.0000    0.0000    0.0011    0.4679
                0.2668   5.4576e-003  -7.3509e-004   1.3302e-002   1.0472e+008  -4.9988e+005   5.2542e+007    0.3107   -0.0000    0.0000    0.0015    0.4569

            panel:  2     
           lam_num    nPlies        tPly      fibAng     matID  matName
               (-)       (-)         (m)       (deg)       (-)  (-)
                 1         1    0.002023      0.0000         7  (web-shell)
                 2         1    0.008047      0.0000         8  (web-core)
                 3         1    0.002023      0.0000         7  (web-shell)

               lamina:  1     
              matName:  (web-shell)
                     s           e11           e22           e12           s11           s22           s12   s11_fcT   s11_fcC   s22_fcT   s22_fcC   s12_fcS
                   (m)         (m/m)         (m/m)         (rad)          (Pa)          (Pa)          (Pa)       (-)       (-)       (-)       (-)       (-)
                0.0000  -5.3725e-003   7.2362e-004   1.4973e-002  -1.0309e+008   4.9208e+005   5.9144e+007    0.0000    0.2074    0.0015   -0.0000    0.5143
                0.0277  -4.2115e-003   5.6725e-004   1.5271e-002  -8.0811e+007   3.8582e+005   6.0322e+007    0.0000    0.1626    0.0011   -0.0000    0.5245
                0.0554  -3.0505e-003   4.1087e-004   1.5497e-002  -5.8533e+007   2.7956e+005   6.1214e+007    0.0000    0.1178    0.0008   -0.0000    0.5323
                0.0832  -1.8894e-003   2.5450e-004   1.5651e-002  -3.6255e+007   1.7329e+005   6.1820e+007    0.0000    0.0729    0.0005   -0.0000    0.5376
                0.1109  -7.2841e-004   9.8126e-005   1.5732e-002  -1.3977e+007   6.7034e+004   6.2141e+007    0.0000    0.0281    0.0002   -0.0000    0.5404
                0.1386   4.3518e-004  -5.8584e-005   1.5741e-002   8.3503e+006  -3.9278e+004   6.2177e+007    0.0248   -0.0000    0.0000    0.0001    0.5407
                0.1663   1.5962e-003  -2.1496e-004   1.5678e-002   3.0628e+007  -1.4554e+005   6.1927e+007    0.0909   -0.0000    0.0000    0.0004    0.5385
                0.1940   2.7572e-003  -3.7133e-004   1.5542e-002   5.2906e+007  -2.5180e+005   6.1391e+007    0.1570   -0.0000    0.0000    0.0007    0.5338
                0.2217   3.9183e-003  -5.2771e-004   1.5334e-002   7.5184e+007  -3.5806e+005   6.0570e+007    0.2231   -0.0000    0.0000    0.0011    0.5267
                0.2495   5.0793e-003  -6.8408e-004   1.5054e-002   9.7462e+007  -4.6432e+005   5.9464e+007    0.2892   -0.0000    0.0000    0.0014    0.5171

               lamina:  2     
              matName:  (web-core)
                     s           e11           e22           e12           s11           s22           s12   s11_fcT   s11_fcC   s22_fcT   s22_fcC   s12_fcS
                   (m)         (m/m)         (m/m)         (rad)          (Pa)          (Pa)          (Pa)       (-)       (-)       (-)       (-)       (-)
                0.0000  -5.3827e-003   7.2496e-004   1.4973e-002  -1.2121e+006  -2.4776e+005   1.4674e+006    0.0000    0.2825    0.0000    0.0578    0.4974
                0.0277  -4.2217e-003   5.6858e-004   1.5271e-002  -9.5068e+005  -1.9432e+005   1.4966e+006    0.0000    0.2216    0.0000    0.0453    0.5073
                0.0554  -3.0607e-003   4.1221e-004   1.5497e-002  -6.8923e+005  -1.4088e+005   1.5187e+006    0.0000    0.1607    0.0000    0.0328    0.5148
                0.0832  -1.8996e-003   2.5584e-004   1.5651e-002  -4.2778e+005  -8.7442e+004   1.5338e+006    0.0000    0.0997    0.0000    0.0204    0.5199
                0.1109  -7.3861e-004   9.9462e-005   1.5732e-002  -1.6633e+005  -3.4001e+004   1.5417e+006    0.0000    0.0388    0.0000    0.0079    0.5226
                0.1386   4.3261e-004  -5.8248e-005   1.5741e-002   9.7421e+004   1.9917e+004   1.5426e+006    0.0227   -0.0000    0.0046   -0.0000    0.5229
                0.1663   1.5936e-003  -2.1462e-004   1.5678e-002   3.5887e+005   7.3357e+004   1.5364e+006    0.0837   -0.0000    0.0171   -0.0000    0.5208
                0.1940   2.7547e-003  -3.7100e-004   1.5542e-002   6.2032e+005   1.2680e+005   1.5231e+006    0.1446   -0.0000    0.0296   -0.0000    0.5163
                0.2217   3.9157e-003  -5.2737e-004   1.5334e-002   8.8177e+005   1.8024e+005   1.5028e+006    0.2055   -0.0000    0.0420   -0.0000    0.5094
                0.2495   5.0767e-003  -6.8375e-004   1.5054e-002   1.1432e+006   2.3368e+005   1.4753e+006    0.2665   -0.0000    0.0545   -0.0000    0.5001

               lamina:  3     
              matName:  (web-shell)
                     s           e11           e22           e12           s11           s22           s12   s11_fcT   s11_fcC   s22_fcT   s22_fcC   s12_fcS
                   (m)         (m/m)         (m/m)         (rad)          (Pa)          (Pa)          (Pa)       (-)       (-)       (-)       (-)       (-)
                0.0000  -5.3853e-003   7.2530e-004   1.4973e-002  -1.0333e+008   4.9233e+005   5.9144e+007    0.0000    0.2079    0.0015   -0.0000    0.5143
                0.0277  -4.2243e-003   5.6892e-004   1.5271e-002  -8.1055e+007   3.8607e+005   6.0322e+007    0.0000    0.1631    0.0011   -0.0000    0.5245
                0.0554  -3.0632e-003   4.1255e-004   1.5497e-002  -5.8778e+007   2.7981e+005   6.1214e+007    0.0000    0.1183    0.0008   -0.0000    0.5323
                0.0832  -1.9022e-003   2.5617e-004   1.5651e-002  -3.6500e+007   1.7354e+005   6.1820e+007    0.0000    0.0734    0.0005   -0.0000    0.5376
                0.1109  -7.4117e-004   9.9798e-005   1.5732e-002  -1.4222e+007   6.7284e+004   6.2141e+007    0.0000    0.0286    0.0002   -0.0000    0.5404
                0.1386   4.2242e-004  -5.6913e-005   1.5741e-002   8.1053e+006  -3.9028e+004   6.2177e+007    0.0241   -0.0000    0.0000    0.0001    0.5407
                0.1663   1.5834e-003  -2.1329e-004   1.5678e-002   3.0383e+007  -1.4529e+005   6.1927e+007    0.0902   -0.0000    0.0000    0.0004    0.5385
                0.1940   2.7445e-003  -3.6966e-004   1.5542e-002   5.2661e+007  -2.5155e+005   6.1391e+007    0.1563   -0.0000    0.0000    0.0007    0.5338
                0.2217   3.9055e-003  -5.2604e-004   1.5334e-002   7.4939e+007  -3.5781e+005   6.0570e+007    0.2224   -0.0000    0.0000    0.0011    0.5267
                0.2495   5.0665e-003  -6.8241e-004   1.5054e-002   9.7217e+007  -4.6407e+005   5.9464e+007    0.2885   -0.0000    0.0000    0.0014    0.5171

================================================================================
sec        =  18     
zSec       =  5.1030  (m)
nPanelsTop =  3      
nPanelsBot =  3      
nWebs      =  2      

    Top:  panel  nNode   nLam     xc_St    xc_End         b         t         E_eff         G_eff      nu_eff     density  buckleCrit
            (-)    (-)    (-)       (-)       (-)       (m)       (m)          (Pa)          (Pa)         (-)    (kg/m^3)         (-)
              1     18      3    0.0000    0.2378    0.3370    0.0084   1.8722e+010   3.8530e+009      0.1301   1632.9682      0.3082
              2      9      5    0.2378    0.4622    0.2720    0.0127   5.5898e+010   4.2044e+009      0.1639   1593.8732      0.4627
              3     28      3    0.4622    1.0000    0.6712    0.0105   1.5023e+010   3.1024e+009      0.1307   1346.5209      0.8863

            panel:  1     
           lam_num    nPlies        tPly      fibAng     matID  matName
               (-)       (-)         (m)       (deg)       (-)  (-)
                 1         1    0.004079      0.0000         2  (blade-shell)
                 2         1    0.000211      0.0000         5  (LEP-core)
                 3         1    0.004079      0.0000         2  (blade-shell)

               lamina:  1     
              matName:  (blade-shell)
                     s           e11           e22           e12           s11           s22           s12   s11_fcT   s11_fcC   s22_fcT   s22_fcC   s12_fcS
                   (m)         (m/m)         (m/m)         (rad)          (Pa)          (Pa)          (Pa)       (-)       (-)       (-)       (-)       (-)
                0.0000   4.1649e-004  -5.4169e-005   6.8723e-003   7.9964e+006  -5.1242e+002   2.7146e+007    0.0237   -0.0000    0.0000    0.0000    0.2360
                0.0038   2.6191e-004  -3.4064e-005   6.8747e-003   5.0285e+006  -3.2419e+002   2.7155e+007    0.0149   -0.0000    0.0000    0.0000    0.2361
                0.0151  -3.8698e-004   5.0319e-005   6.8733e-003  -7.4300e+006   2.2855e+002   2.7149e+007    0.0000    0.0149    0.0000   -0.0000    0.2361
                0.0291  -1.0119e-003   1.3159e-004   6.8540e-003  -1.9428e+007   8.8721e+002   2.7073e+007    0.0000    0.0391    0.0000   -0.0000    0.2354
                0.0411  -1.4558e-003   1.8932e-004   6.8238e-003  -2.7951e+007   1.3466e+003   2.6954e+007    0.0000    0.0562    0.0000   -0.0000    0.2344
                0.0570  -1.9872e-003   2.5844e-004   6.7664e-003  -3.8154e+007   1.9571e+003   2.6727e+007    0.0000    0.0768    0.0000   -0.0000    0.2324
                0.0733  -2.4605e-003   3.1999e-004   6.6881e-003  -4.7240e+007   2.4879e+003   2.6418e+007    0.0000    0.0951    0.0000   -0.0000    0.2297
                0.0919  -2.9283e-003   3.8083e-004   6.5783e-003  -5.6223e+007   3.0431e+003   2.5984e+007    0.0000    0.1131    0.0000   -0.0000    0.2260
                0.1128  -3.4505e-003   4.4875e-004   6.4307e-003  -6.6250e+007   3.6501e+003   2.5401e+007    0.0000    0.1333    0.0000   -0.0000    0.2209
                0.1341  -3.8580e-003   5.0176e-004   6.2557e-003  -7.4074e+007   4.1242e+003   2.4710e+007    0.0000    0.1490    0.0000   -0.0000    0.2149
                0.1580  -4.2991e-003   5.5912e-004   6.0364e-003  -8.2542e+007   4.6532e+003   2.3844e+007    0.0000    0.1661    0.0000   -0.0000    0.2073
                0.1831  -4.7122e-003   6.1285e-004   5.7787e-003  -9.0473e+007   5.1415e+003   2.2826e+007    0.0000    0.1820    0.0000   -0.0000    0.1985
                0.2097  -5.0710e-003   6.5951e-004   5.4815e-003  -9.7362e+007   5.5717e+003   2.1652e+007    0.0000    0.1959    0.0000   -0.0000    0.1883
                0.2381  -5.4553e-003   7.0950e-004   5.1386e-003  -1.0474e+008   6.0312e+003   2.0297e+007    0.0000    0.2107    0.0000   -0.0000    0.1765
                0.2673  -5.7420e-003   7.4679e-004   4.7612e-003  -1.1025e+008   6.3721e+003   1.8807e+007    0.0000    0.2218    0.0000   -0.0000    0.1635
                0.2982  -6.0175e-003   7.8262e-004   4.3423e-003  -1.1554e+008   6.7050e+003   1.7152e+007    0.0000    0.2325    0.0000   -0.0000    0.1491
                0.3303  -6.2761e-003   8.1625e-004   3.8853e-003  -1.2050e+008   7.0170e+003   1.5347e+007    0.0000    0.2425    0.0000   -0.0000    0.1335
                0.3370  -6.3114e-003   8.2085e-004   3.7881e-003  -1.2118e+008   7.0542e+003   1.4963e+007    0.0000    0.2438    0.0000   -0.0000    0.1301

               lamina:  2     
              matName:  (LEP-core)
                     s           e11           e22           e12           s11           s22           s12   s11_fcT   s11_fcC   s22_fcT   s22_fcC   s12_fcS
                   (m)         (m/m)         (m/m)         (rad)          (Pa)          (Pa)          (Pa)       (-)       (-)       (-)       (-)       (-)
                0.0000   4.2516e-004  -5.5297e-005   6.8723e-003   9.5894e+004   2.0033e+004   6.7349e+005    0.0224   -0.0000    0.0047   -0.0000    0.2283
                0.0038   2.7058e-004  -3.5192e-005   6.8747e-003   6.1029e+004   1.2749e+004   6.7373e+005    0.0142   -0.0000    0.0030   -0.0000    0.2284
                0.0151  -1.9260e-004   2.5050e-005   6.8733e-003  -4.3441e+004  -9.0750e+003   6.7358e+005    0.0000    0.0101    0.0000    0.0021    0.2283
                0.0291  -7.3558e-004   9.5671e-005   6.8540e-003  -1.6591e+005  -3.4659e+004   6.7169e+005    0.0000    0.0387    0.0000    0.0081    0.2277
                0.0411  -1.1145e-003   1.4495e-004   6.8238e-003  -2.5137e+005  -5.2513e+004   6.6873e+005    0.0000    0.0586    0.0000    0.0122    0.2267
                0.0570  -1.6166e-003   2.1025e-004   6.7664e-003  -3.6462e+005  -7.6170e+004   6.6311e+005    0.0000    0.0850    0.0000    0.0178    0.2248
                0.0733  -2.0534e-003   2.6707e-004   6.6881e-003  -4.6315e+005  -9.6754e+004   6.5543e+005    0.0000    0.1080    0.0000    0.0226    0.2222
                0.0919  -2.5097e-003   3.2641e-004   6.5783e-003  -5.6605e+005  -1.1825e+005   6.4468e+005    0.0000    0.1319    0.0000    0.0276    0.2185
                0.1128  -3.0088e-003   3.9133e-004   6.4307e-003  -6.7863e+005  -1.4177e+005   6.3021e+005    0.0000    0.1582    0.0000    0.0330    0.2136
                0.1341  -3.3985e-003   4.4202e-004   6.2557e-003  -7.6654e+005  -1.6013e+005   6.1306e+005    0.0000    0.1787    0.0000    0.0373    0.2078
                0.1580  -3.8332e-003   4.9855e-004   6.0364e-003  -8.6457e+005  -1.8061e+005   5.9156e+005    0.0000    0.2015    0.0000    0.0421    0.2005
                0.1831  -4.2345e-003   5.5074e-004   5.7787e-003  -9.5508e+005  -1.9952e+005   5.6631e+005    0.0000    0.2226    0.0000    0.0465    0.1920
                0.2097  -4.5879e-003   5.9671e-004   5.4815e-003  -1.0348e+006  -2.1617e+005   5.3719e+005    0.0000    0.2412    0.0000    0.0504    0.1821
                0.2381  -4.9655e-003   6.4582e-004   5.1386e-003  -1.1200e+006  -2.3396e+005   5.0358e+005    0.0000    0.2611    0.0000    0.0545    0.1707
                0.2673  -5.2456e-003   6.8225e-004   4.7612e-003  -1.1831e+006  -2.4716e+005   4.6660e+005    0.0000    0.2758    0.0000    0.0576    0.1582
                0.2982  -5.5190e-003   7.1782e-004   4.3423e-003  -1.2448e+006  -2.6005e+005   4.2555e+005    0.0000    0.2902    0.0000    0.0606    0.1443
                0.3303  -5.7753e-003   7.5115e-004   3.8853e-003  -1.3026e+006  -2.7212e+005   3.8076e+005    0.0000    0.3036    0.0000    0.0634    0.1291
                0.3370  -5.8060e-003   7.5514e-004   3.7881e-003  -1.3095e+006  -2.7357e+005   3.7123e+005    0.0000    0.3053    0.0000    0.0638    0.1258

               lamina:  3     
              matName:  (blade-shell)
                     s           e11           e22           e12           s11           s22           s12   s11_fcT   s11_fcC   s22_fcT   s22_fcC   s12_fcS
                   (m)         (m/m)         (m/m)         (rad)          (Pa)          (Pa)          (Pa)       (-)       (-)       (-)       (-)       (-)
                0.0000   5.9299e-004  -7.7116e-005   6.8723e-003   1.1385e+007  -5.1255e+002   2.7146e+007    0.0338   -0.0000    0.0000    0.0000    0.2360
                0.0038   4.3842e-004  -5.7011e-005   6.8747e-003   8.4175e+006  -3.2432e+002   2.7155e+007    0.0250   -0.0000    0.0000    0.0000    0.2361
                0.0151  -1.8255e-004   2.3744e-005   6.8733e-003  -3.5050e+006   2.2840e+002   2.7149e+007    0.0000    0.0071    0.0000   -0.0000    0.2361
                0.0291  -7.2130e-004   9.3815e-005   6.8540e-003  -1.3849e+007   8.8699e+002   2.7073e+007    0.0000    0.0279    0.0000   -0.0000    0.2354
                0.0411  -1.0968e-003   1.4266e-004   6.8238e-003  -2.1059e+007   1.3463e+003   2.6954e+007    0.0000    0.0424    0.0000   -0.0000    0.2344
                0.0570  -1.5974e-003   2.0776e-004   6.7664e-003  -3.0670e+007   1.9568e+003   2.6727e+007    0.0000    0.0617    0.0000   -0.0000    0.2324
                0.0733  -2.0324e-003   2.6434e-004   6.6881e-003  -3.9022e+007   2.4876e+003   2.6418e+007    0.0000    0.0785    0.0000   -0.0000    0.2297
                0.0919  -2.4880e-003   3.2360e-004   6.5783e-003  -4.7770e+007   3.0427e+003   2.5984e+007    0.0000    0.0961    0.0000   -0.0000    0.2260
                0.1128  -2.9860e-003   3.8836e-004   6.4307e-003  -5.7330e+007   3.6498e+003   2.5401e+007    0.0000    0.1154    0.0000   -0.0000    0.2209
                0.1341  -3.3748e-003   4.3893e-004   6.2557e-003  -6.4795e+007   4.1238e+003   2.4710e+007    0.0000    0.1304    0.0000   -0.0000    0.2149
                0.1580  -3.8091e-003   4.9542e-004   6.0364e-003  -7.3134e+007   4.6529e+003   2.3844e+007    0.0000    0.1472    0.0000   -0.0000    0.2073
                0.1831  -4.2098e-003   5.4753e-004   5.7787e-003  -8.0827e+007   5.1411e+003   2.2826e+007    0.0000    0.1626    0.0000   -0.0000    0.1985
                0.2097  -4.5629e-003   5.9346e-004   5.4815e-003  -8.7607e+007   5.5713e+003   2.1652e+007    0.0000    0.1763    0.0000   -0.0000    0.1883
                0.2381  -4.9401e-003   6.4253e-004   5.1386e-003  -9.4850e+007   6.0308e+003   2.0297e+007    0.0000    0.1908    0.0000   -0.0000    0.1765
                0.2673  -5.2199e-003   6.7891e-004   4.7612e-003  -1.0022e+008   6.3717e+003   1.8807e+007    0.0000    0.2017    0.0000   -0.0000    0.1635
                0.2982  -5.4933e-003   7.1447e-004   4.3423e-003  -1.0547e+008   6.7046e+003   1.7152e+007    0.0000    0.2122    0.0000   -0.0000    0.1491
                0.3303  -5.7494e-003   7.4779e-004   3.8853e-003  -1.1039e+008   7.0166e+003   1.5347e+007    0.0000    0.2221    0.0000   -0.0000    0.1335
                0.3370  -5.7798e-003   7.5174e-004   3.7881e-003  -1.1097e+008   7.0538e+003   1.4963e+007    0.0000    0.2233    0.0000   -0.0000    0.1301

            panel:  2     
           lam_num    nPlies        tPly      fibAng     matID  matName
               (-)       (-)         (m)       (deg)       (-)  (-)
                 1         1    0.004079      0.0000         2  (blade-shell)
                 2         1    0.002243      0.0000         3  (spar-uni)
                 3         1    0.000047      0.0000         4  (spar-core)
                 4         1    0.002243      0.0000         3  (spar-uni)
                 5         1    0.004079      0.0000         2  (blade-shell)

               lamina:  1     
              matName:  (blade-shell)
                     s           e11           e22           e12           s11           s22           s12   s11_fcT   s11_fcC   s22_fcT   s22_fcC   s12_fcS
                   (m)         (m/m)         (m/m)         (rad)          (Pa)          (Pa)          (Pa)       (-)       (-)       (-)       (-)       (-)
                0.0000  -7.5841e-003   1.1862e-003   6.3535e-003  -1.4511e+008   3.9111e+006   2.5096e+007    0.0000    0.2920    0.0116   -0.0000    0.2182
                0.0261  -7.7051e-003   1.2060e-003   5.3141e-003  -1.4742e+008   3.9914e+006   2.0991e+007    0.0000    0.2966    0.0118   -0.0000    0.1825
                0.0602  -7.8686e-003   1.2327e-003   3.9291e-003  -1.5054e+008   4.0964e+006   1.5520e+007    0.0000    0.3029    0.0122   -0.0000    0.1350
                0.0949  -7.9416e-003   1.2445e-003   2.4914e-003  -1.5194e+008   4.1418e+006   9.8409e+006    0.0000    0.3057    0.0123   -0.0000    0.0856
                0.1307  -7.9427e-003   1.2446e-003   1.0048e-003  -1.5196e+008   4.1422e+006   3.9691e+006    0.0000    0.3058    0.0123   -0.0000    0.0345
                0.1670  -7.9414e-003   1.2445e-003   5.0393e-004  -1.5194e+008   4.1427e+006   1.9905e+006    0.0000    0.3057    0.0123   -0.0000    0.0173
                0.2040  -7.7797e-003   1.2182e-003   2.0203e-003  -1.4885e+008   4.0398e+006   7.9803e+006    0.0000    0.2995    0.0120   -0.0000    0.0694
                0.2417  -7.6113e-003   1.1907e-003   3.5225e-003  -1.4563e+008   3.9298e+006   1.3914e+007    0.0000    0.2930    0.0117   -0.0000    0.1210
                0.2720  -7.4422e-003   1.1631e-003   4.6950e-003  -1.4239e+008   3.8197e+006   1.8545e+007    0.0000    0.2865    0.0113   -0.0000    0.1613

               lamina:  2     
              matName:  (spar-uni)
                     s           e11           e22           e12           s11           s22           s12   s11_fcT   s11_fcC   s22_fcT   s22_fcC   s12_fcS
                   (m)         (m/m)         (m/m)         (rad)          (Pa)          (Pa)          (Pa)       (-)       (-)       (-)       (-)       (-)
                0.0000  -6.3738e-003   1.0245e-003   6.3535e-003  -7.8641e+008  -7.8512e+006   2.9925e+007    0.0000    0.7864    0.0000    0.1311    0.2905
                0.0261  -6.4949e-003   1.0444e-003   5.3141e-003  -8.0135e+008  -7.9972e+006   2.5029e+007    0.0000    0.8014    0.0000    0.1335    0.2430
                0.0602  -6.6547e-003   1.0705e-003   3.9291e-003  -8.2107e+008  -8.1903e+006   1.8506e+007    0.0000    0.8211    0.0000    0.1367    0.1797
                0.0949  -6.7245e-003   1.0819e-003   2.4914e-003  -8.2967e+008  -8.2748e+006   1.1734e+007    0.0000    0.8297    0.0000    0.1381    0.1139
                0.1307  -6.7252e-003   1.0820e-003   1.0048e-003  -8.2977e+008  -8.2758e+006   4.7327e+006    0.0000    0.8298    0.0000    0.1382    0.0459
                0.1670  -6.7254e-003   1.0821e-003   5.0393e-004  -8.2979e+008  -8.2758e+006   2.3735e+006    0.0000    0.8298    0.0000    0.1382    0.0230
                0.2040  -6.5684e-003   1.0564e-003   2.0203e-003  -8.1042e+008  -8.0860e+006   9.5157e+006    0.0000    0.8104    0.0000    0.1350    0.0924
                0.2417  -6.4018e-003   1.0291e-003   3.5225e-003  -7.8987e+008  -7.8849e+006   1.6591e+007    0.0000    0.7899    0.0000    0.1316    0.1611
                0.2720  -6.2348e-003   1.0018e-003   4.6950e-003  -7.6927e+008  -7.6833e+006   2.2114e+007    0.0000    0.7693    0.0000    0.1283    0.2147

               lamina:  3     
              matName:  (spar-core)
                     s           e11           e22           e12           s11           s22           s12   s11_fcT   s11_fcC   s22_fcT   s22_fcC   s12_fcS
                   (m)         (m/m)         (m/m)         (rad)          (Pa)          (Pa)          (Pa)       (-)       (-)       (-)       (-)       (-)
                0.0000  -5.7083e-003   9.3566e-004   6.3535e-003  -1.2725e+006  -2.2343e+005   6.2264e+005    0.0000    0.2966    0.0000    0.0521    0.2111
                0.0261  -5.8294e-003   9.5551e-004   5.3141e-003  -1.2995e+006  -2.2817e+005   5.2078e+005    0.0000    0.3029    0.0000    0.0532    0.1765
                0.0602  -5.9872e-003   9.8139e-004   3.9291e-003  -1.3347e+006  -2.3434e+005   3.8505e+005    0.0000    0.3111    0.0000    0.0546    0.1305
                0.0949  -6.0552e-003   9.9253e-004   2.4914e-003  -1.3498e+006  -2.3700e+005   2.4415e+005    0.0000    0.3146    0.0000    0.0552    0.0828
                0.1307  -6.0557e-003   9.9262e-004   1.0048e-003  -1.3499e+006  -2.3702e+005   9.8473e+004    0.0000    0.3147    0.0000    0.0553    0.0334
                0.1670  -6.0567e-003   9.9279e-004   5.0393e-004  -1.3501e+006  -2.3706e+005   4.9385e+004    0.0000    0.3147    0.0000    0.0553    0.0167
                0.2040  -5.9023e-003   9.6747e-004   2.0203e-003  -1.3157e+006  -2.3102e+005   1.9799e+005    0.0000    0.3067    0.0000    0.0539    0.0671
                0.2417  -5.7367e-003   9.4032e-004   3.5225e-003  -1.2788e+006  -2.2454e+005   3.4520e+005    0.0000    0.2981    0.0000    0.0523    0.1170
                0.2720  -5.5709e-003   9.1314e-004   4.6950e-003  -1.2418e+006  -2.1805e+005   4.6011e+005    0.0000    0.2895    0.0000    0.0508    0.1560

               lamina:  4     
              matName:  (spar-uni)
                     s           e11           e22           e12           s11           s22           s12   s11_fcT   s11_fcC   s22_fcT   s22_fcC   s12_fcS
                   (m)         (m/m)         (m/m)         (rad)          (Pa)          (Pa)          (Pa)       (-)       (-)       (-)       (-)       (-)
                0.0000  -5.6944e-003   9.3381e-004   6.3535e-003  -7.0254e+008  -6.8619e+006   2.9925e+007    0.0000    0.7025    0.0000    0.1146    0.2905
                0.0261  -5.8155e-003   9.5366e-004   5.3141e-003  -7.1748e+008  -7.0079e+006   2.5029e+007    0.0000    0.7175    0.0000    0.1170    0.2430
                0.0602  -5.9733e-003   9.7953e-004   3.9291e-003  -7.3695e+008  -7.1981e+006   1.8506e+007    0.0000    0.7369    0.0000    0.1202    0.1797
                0.0949  -6.0412e-003   9.9066e-004   2.4914e-003  -7.4532e+008  -7.2799e+006   1.1734e+007    0.0000    0.7453    0.0000    0.1215    0.1139
                0.1307  -6.0418e-003   9.9076e-004   1.0048e-003  -7.4539e+008  -7.2806e+006   4.7327e+006    0.0000    0.7454    0.0000    0.1215    0.0459
                0.1670  -6.0428e-003   9.9092e-004   5.0393e-004  -7.4552e+008  -7.2818e+006   2.3735e+006    0.0000    0.7455    0.0000    0.1216    0.0230
                0.2040  -5.8884e-003   9.6561e-004   2.0203e-003  -7.2647e+008  -7.0958e+006   9.5157e+006    0.0000    0.7265    0.0000    0.1185    0.0924
                0.2417  -5.7228e-003   9.3846e-004   3.5225e-003  -7.0604e+008  -6.8962e+006   1.6591e+007    0.0000    0.7060    0.0000    0.1151    0.1611
                0.2720  -5.5570e-003   9.1128e-004   4.6950e-003  -6.8559e+008  -6.6963e+006   2.2114e+007    0.0000    0.6856    0.0000    0.1118    0.2147

               lamina:  5     
              matName:  (blade-shell)
                     s           e11           e22           e12           s11           s22           s12   s11_fcT   s11_fcC   s22_fcT   s22_fcC   s12_fcS
                   (m)         (m/m)         (m/m)         (rad)          (Pa)          (Pa)          (Pa)       (-)       (-)       (-)       (-)       (-)
                0.0000  -5.0289e-003   8.4492e-004   6.3535e-003  -9.6069e+007   3.7335e+006   2.5096e+007    0.0000    0.1933    0.0111   -0.0000    0.2182
                0.0261  -5.1500e-003   8.6477e-004   5.3141e-003  -9.8384e+007   3.8137e+006   2.0991e+007    0.0000    0.1980    0.0113   -0.0000    0.1825
                0.0602  -5.3058e-003   8.9038e-004   3.9291e-003  -1.0136e+008   3.9182e+006   1.5520e+007    0.0000    0.2039    0.0116   -0.0000    0.1350
                0.0949  -5.3719e-003   9.0127e-004   2.4914e-003  -1.0262e+008   3.9631e+006   9.8409e+006    0.0000    0.2065    0.0118   -0.0000    0.0856
                0.1307  -5.3723e-003   9.0134e-004   1.0048e-003  -1.0263e+008   3.9635e+006   3.9691e+006    0.0000    0.2065    0.0118   -0.0000    0.0345
                0.1670  -5.3741e-003   9.0161e-004   5.0393e-004  -1.0267e+008   3.9642e+006   1.9905e+006    0.0000    0.2066    0.0118   -0.0000    0.0173
                0.2040  -5.2223e-003   8.7665e-004   2.0203e-003  -9.9766e+007   3.8620e+006   7.9803e+006    0.0000    0.2007    0.0115   -0.0000    0.0694
                0.2417  -5.0577e-003   8.4964e-004   3.5225e-003  -9.6621e+007   3.7523e+006   1.3914e+007    0.0000    0.1944    0.0111   -0.0000    0.1210
                0.2720  -4.8931e-003   8.2261e-004   4.6950e-003  -9.3474e+007   3.6425e+006   1.8545e+007    0.0000    0.1881    0.0108   -0.0000    0.1613

            panel:  3     
           lam_num    nPlies        tPly      fibAng     matID  matName
               (-)       (-)         (m)       (deg)       (-)  (-)
                 1         1    0.004079      0.0000         2  (blade-shell)
                 2         1    0.002302      0.0000         6  (TEP-core)
                 3         1    0.004079      0.0000         2  (blade-shell)

               lamina:  1     
              matName:  (blade-shell)
                     s           e11           e22           e12           s11           s22           s12   s11_fcT   s11_fcC   s22_fcT   s22_fcC   s12_fcS
                   (m)         (m/m)         (m/m)         (rad)          (Pa)          (Pa)          (Pa)       (-)       (-)       (-)       (-)       (-)
                0.0000  -6.1354e-003   8.0143e-004   1.5102e-004  -1.1779e+008   7.4630e+004   5.9653e+005    0.0000    0.2370    0.0002   -0.0000    0.0052
                0.0075  -6.0909e-003   7.9561e-004   2.5603e-004  -1.1694e+008   7.4085e+004   1.0113e+006    0.0000    0.2353    0.0002   -0.0000    0.0088
                0.0461  -5.7910e-003   7.5642e-004   7.7680e-004  -1.1118e+008   7.0121e+004   3.0684e+006    0.0000    0.2237    0.0002   -0.0000    0.0267
                0.0846  -5.4904e-003   7.1714e-004   1.2674e-003  -1.0541e+008   6.6164e+004   5.0063e+006    0.0000    0.2121    0.0002   -0.0000    0.0435
                0.1233  -5.1243e-003   6.6930e-004   1.7266e-003  -9.8379e+007   6.1353e+004   6.8200e+006    0.0000    0.1979    0.0002   -0.0000    0.0593
                0.1618  -4.7319e-003   6.1803e-004   2.1481e-003  -9.0846e+007   5.6169e+004   8.4851e+006    0.0000    0.1828    0.0002   -0.0000    0.0738
                0.1999  -4.3403e-003   5.6685e-004   2.5266e-003  -8.3326e+007   5.1009e+004   9.9801e+006    0.0000    0.1677    0.0002   -0.0000    0.0868
                0.2376  -3.8964e-003   5.0885e-004   2.8625e-003  -7.4805e+007   4.5159e+004   1.1307e+007    0.0000    0.1505    0.0001   -0.0000    0.0983
                0.2747  -3.4627e-003   4.5216e-004   3.1512e-003  -6.6478e+007   3.9416e+004   1.2447e+007    0.0000    0.1338    0.0001   -0.0000    0.1082
                0.3110  -3.0281e-003   3.9538e-004   3.3934e-003  -5.8135e+007   3.3673e+004   1.3404e+007    0.0000    0.1170    0.0001   -0.0000    0.1166
                0.3462  -2.5915e-003   3.3833e-004   3.5904e-003  -4.9754e+007   2.7896e+004   1.4182e+007    0.0000    0.1001    0.0001   -0.0000    0.1233
                0.3803  -2.1703e-003   2.8328e-004   3.7439e-003  -4.1666e+007   2.2312e+004   1.4789e+007    0.0000    0.0838    0.0001   -0.0000    0.1286
                0.4131  -1.7674e-003   2.3063e-004   3.8572e-003  -3.3931e+007   1.6971e+004   1.5236e+007    0.0000    0.0683    0.0001   -0.0000    0.1325
                0.4444  -1.3830e-003   1.8040e-004   3.9342e-003  -2.6552e+007   1.1875e+004   1.5540e+007    0.0000    0.0534    0.0000   -0.0000    0.1351
                0.4741  -1.0216e-003   1.3317e-004   3.9793e-003  -1.9614e+007   7.0711e+003   1.5718e+007    0.0000    0.0395    0.0000   -0.0000    0.1367
                0.5020  -6.9620e-004   9.0646e-005   3.9972e-003  -1.3367e+007   2.7466e+003   1.5789e+007    0.0000    0.0269    0.0000   -0.0000    0.1373
                0.5282  -3.9181e-004   5.0868e-005   3.9931e-003  -7.5229e+006  -1.4988e+003   1.5773e+007    0.0000    0.0151    0.0000    0.0000    0.1372
                0.5523   2.7629e-004  -3.6178e-005   3.9717e-003   5.3040e+006  -5.0940e+003   1.5688e+007    0.0157   -0.0000    0.0000    0.0000    0.1364
                0.5744   5.1443e-004  -6.7299e-005   3.9379e-003   9.8761e+006  -8.2522e+003   1.5555e+007    0.0293   -0.0000    0.0000    0.0000    0.1353
                0.5944   7.3023e-004  -9.5499e-005   3.8957e-003   1.4019e+007  -1.1116e+004   1.5388e+007    0.0416   -0.0000    0.0000    0.0000    0.1338
                0.6122   9.0661e-004  -1.1855e-004   3.8493e-003   1.7405e+007  -1.3458e+004   1.5205e+007    0.0516   -0.0000    0.0000    0.0000    0.1322
                0.6277   1.0589e-003  -1.3845e-004   3.8023e-003   2.0330e+007  -1.5477e+004   1.5019e+007    0.0603   -0.0000    0.0000    0.0000    0.1306
                0.6409   1.1869e-003  -1.5517e-004   3.7576e-003   2.2786e+007  -1.7175e+004   1.4842e+007    0.0676   -0.0000    0.0000    0.0001    0.1291
                0.6518   1.2870e-003  -1.6826e-004   3.7176e-003   2.4708e+007  -1.8504e+004   1.4684e+007    0.0733   -0.0000    0.0000    0.0001    0.1277
                0.6603   1.3651e-003  -1.7846e-004   3.6846e-003   2.6207e+007  -1.9538e+004   1.4554e+007    0.0778   -0.0000    0.0000    0.0001    0.1266
                0.6664   1.4234e-003  -1.8608e-004   3.6599e-003   2.7327e+007  -2.0308e+004   1.4457e+007    0.0811   -0.0000    0.0000    0.0001    0.1257
                0.6700   1.4595e-003  -1.9080e-004   3.6446e-003   2.8020e+007  -2.0786e+004   1.4396e+007    0.0831   -0.0000    0.0000    0.0001    0.1252
                0.6712   1.4716e-003  -1.9238e-004   3.6394e-003   2.8252e+007  -2.0946e+004   1.4376e+007    0.0838   -0.0000    0.0000    0.0001    0.1250

               lamina:  2     
              matName:  (TEP-core)
                     s           e11           e22           e12           s11           s22           s12   s11_fcT   s11_fcC   s22_fcT   s22_fcC   s12_fcS
                   (m)         (m/m)         (m/m)         (rad)          (Pa)          (Pa)          (Pa)       (-)       (-)       (-)       (-)       (-)
                0.0000  -5.7265e-003   7.4825e-004   1.5102e-004  -1.2913e+006  -2.6901e+005   1.4800e+004    0.0000    0.3010    0.0000    0.0627    0.0050
                0.0075  -5.6847e-003   7.4280e-004   2.5603e-004  -1.2819e+006  -2.6705e+005   2.5091e+004    0.0000    0.2988    0.0000    0.0622    0.0085
                0.0461  -5.3855e-003   7.0370e-004   7.7680e-004  -1.2144e+006  -2.5299e+005   7.6126e+004    0.0000    0.2831    0.0000    0.0590    0.0258
                0.0846  -5.0865e-003   6.6462e-004   1.2674e-003  -1.1470e+006  -2.3895e+005   1.2421e+005    0.0000    0.2674    0.0000    0.0557    0.0421
                0.1233  -4.7229e-003   6.1711e-004   1.7266e-003  -1.0650e+006  -2.2187e+005   1.6921e+005    0.0000    0.2483    0.0000    0.0517    0.0574
                0.1618  -4.3315e-003   5.6597e-004   2.1481e-003  -9.7677e+005  -2.0348e+005   2.1052e+005    0.0000    0.2277    0.0000    0.0474    0.0714
                0.1999  -3.9418e-003   5.1503e-004   2.5266e-003  -8.8888e+005  -1.8517e+005   2.4761e+005    0.0000    0.2072    0.0000    0.0432    0.0839
                0.2376  -3.4999e-003   4.5728e-004   2.8625e-003  -7.8923e+005  -1.6442e+005   2.8053e+005    0.0000    0.1840    0.0000    0.0383    0.0951
                0.2747  -3.0665e-003   4.0065e-004   3.1512e-003  -6.9150e+005  -1.4406e+005   3.0882e+005    0.0000    0.1612    0.0000    0.0336    0.1047
                0.3110  -2.6329e-003   3.4399e-004   3.3934e-003  -5.9373e+005  -1.2369e+005   3.3255e+005    0.0000    0.1384    0.0000    0.0288    0.1127
                0.3462  -2.1969e-003   2.8701e-004   3.5904e-003  -4.9541e+005  -1.0321e+005   3.5186e+005    0.0000    0.1155    0.0000    0.0241    0.1193
                0.3803  -1.7755e-003   2.3195e-004   3.7439e-003  -4.0039e+005  -8.3420e+004   3.6691e+005    0.0000    0.0933    0.0000    0.0194    0.1244
                0.4131  -1.3726e-003   1.7929e-004   3.8572e-003  -3.0952e+005  -6.4490e+004   3.7801e+005    0.0000    0.0721    0.0000    0.0150    0.1281
                0.4444  -9.8804e-004   1.2904e-004   3.9342e-003  -2.2281e+005  -4.6428e+004   3.8555e+005    0.0000    0.0519    0.0000    0.0108    0.1307
                0.4741  -6.2579e-004   8.1704e-005   3.9793e-003  -1.4112e+005  -2.9412e+004   3.8997e+005    0.0000    0.0329    0.0000    0.0069    0.1322
                0.5020  -2.9965e-004   3.9085e-005   3.9972e-003  -6.7578e+004  -1.4093e+004   3.9173e+005    0.0000    0.0158    0.0000    0.0033    0.1328
                0.5282   2.2944e-004  -2.9909e-005   3.9931e-003   5.1744e+004   1.0795e+004   3.9133e+005    0.0121   -0.0000    0.0025   -0.0000    0.1327
                0.5523   5.0105e-004  -6.5404e-005   3.9717e-003   1.1299e+005   2.3553e+004   3.8923e+005    0.0263   -0.0000    0.0055   -0.0000    0.1319
                0.5744   7.3953e-004  -9.6567e-005   3.9379e-003   1.6677e+005   3.4755e+004   3.8591e+005    0.0389   -0.0000    0.0081   -0.0000    0.1308
                0.5944   9.5589e-004  -1.2484e-004   3.8957e-003   2.1556e+005   4.4918e+004   3.8177e+005    0.0502   -0.0000    0.0105   -0.0000    0.1294
                0.6122   1.1329e-003  -1.4798e-004   3.8493e-003   2.5549e+005   5.3235e+004   3.7723e+005    0.0596   -0.0000    0.0124   -0.0000    0.1279
                0.6277   1.2854e-003  -1.6790e-004   3.8023e-003   2.8987e+005   6.0398e+004   3.7263e+005    0.0676   -0.0000    0.0141   -0.0000    0.1263
                0.6409   1.4137e-003  -1.8467e-004   3.7576e-003   3.1881e+005   6.6425e+004   3.6824e+005    0.0743   -0.0000    0.0155   -0.0000    0.1248
                0.6518   1.5142e-003  -1.9780e-004   3.7176e-003   3.4146e+005   7.1143e+004   3.6432e+005    0.0796   -0.0000    0.0166   -0.0000    0.1235
                0.6603   1.5921e-003  -2.0798e-004   3.6846e-003   3.5902e+005   7.4802e+004   3.6109e+005    0.0837   -0.0000    0.0174   -0.0000    0.1224
                0.6664   1.6500e-003  -2.1554e-004   3.6599e-003   3.7208e+005   7.7522e+004   3.5867e+005    0.0867   -0.0000    0.0181   -0.0000    0.1216
                0.6700   1.6859e-003  -2.2024e-004   3.6446e-003   3.8018e+005   7.9209e+004   3.5717e+005    0.0886   -0.0000    0.0185   -0.0000    0.1211
                0.6712   1.6980e-003  -2.2182e-004   3.6394e-003   3.8290e+005   7.9777e+004   3.5666e+005    0.0893   -0.0000    0.0186   -0.0000    0.1209

               lamina:  3     
              matName:  (blade-shell)
                     s           e11           e22           e12           s11           s22           s12   s11_fcT   s11_fcC   s22_fcT   s22_fcC   s12_fcS
                   (m)         (m/m)         (m/m)         (rad)          (Pa)          (Pa)          (Pa)       (-)       (-)       (-)       (-)       (-)
                0.0000  -5.4957e-003   7.1825e-004   1.5102e-004  -1.0551e+008   7.4305e+004   5.9653e+005    0.0000    0.2123    0.0002   -0.0000    0.0052
                0.0075  -5.4556e-003   7.1300e-004   2.5603e-004  -1.0474e+008   7.3762e+004   1.0113e+006    0.0000    0.2107    0.0002   -0.0000    0.0088
                0.0461  -5.1567e-003   6.7395e-004   7.7680e-004  -9.9000e+007   6.9799e+004   3.0684e+006    0.0000    0.1992    0.0002   -0.0000    0.0267
                0.0846  -4.8586e-003   6.3499e-004   1.2674e-003  -9.3276e+007   6.5843e+004   5.0063e+006    0.0000    0.1877    0.0002   -0.0000    0.0435
                0.1233  -4.4965e-003   5.8766e-004   1.7266e-003  -8.6324e+007   6.1034e+004   6.8200e+006    0.0000    0.1737    0.0002   -0.0000    0.0593
                0.1618  -4.1056e-003   5.3659e-004   2.1481e-003  -7.8820e+007   5.5851e+004   8.4851e+006    0.0000    0.1586    0.0002   -0.0000    0.0738
                0.1999  -3.7169e-003   4.8579e-004   2.5266e-003  -7.1358e+007   5.0693e+004   9.9801e+006    0.0000    0.1436    0.0002   -0.0000    0.0868
                0.2376  -3.2761e-003   4.2819e-004   2.8625e-003  -6.2895e+007   4.4844e+004   1.1307e+007    0.0000    0.1265    0.0001   -0.0000    0.0983
                0.2747  -2.8429e-003   3.7158e-004   3.1512e-003  -5.4579e+007   3.9102e+004   1.2447e+007    0.0000    0.1098    0.0001   -0.0000    0.1082
                0.3110  -2.4099e-003   3.1499e-004   3.3934e-003  -4.6265e+007   3.3359e+004   1.3404e+007    0.0000    0.0931    0.0001   -0.0000    0.1166
                0.3462  -1.9742e-003   2.5806e-004   3.5904e-003  -3.7901e+007   2.7583e+004   1.4182e+007    0.0000    0.0763    0.0001   -0.0000    0.1233
                0.3803  -1.5528e-003   2.0299e-004   3.7439e-003  -2.9811e+007   2.1999e+004   1.4789e+007    0.0000    0.0600    0.0001   -0.0000    0.1286
                0.4131  -1.1498e-003   1.5032e-004   3.8572e-003  -2.2073e+007   1.6658e+004   1.5236e+007    0.0000    0.0444    0.0000   -0.0000    0.1325
                0.4444  -7.6516e-004   1.0006e-004   3.9342e-003  -1.4690e+007   1.1561e+004   1.5540e+007    0.0000    0.0296    0.0000   -0.0000    0.1351
                0.4741  -4.0244e-004   5.2663e-005   3.9793e-003  -7.7260e+006   6.7568e+003   1.5718e+007    0.0000    0.0155    0.0000   -0.0000    0.1367
                0.5020   3.2065e-004  -4.1570e-005   3.9972e-003   6.1567e+006   2.4318e+003   1.5789e+007    0.0183   -0.0000    0.0000   -0.0000    0.1373
                0.5282   6.2658e-004  -8.1548e-005   3.9931e-003   1.2030e+007  -1.8142e+003   1.5773e+007    0.0357   -0.0000    0.0000    0.0000    0.1372
                0.5523   8.9938e-004  -1.1720e-004   3.9717e-003   1.7267e+007  -5.4102e+003   1.5688e+007    0.0512   -0.0000    0.0000    0.0000    0.1364
                0.5744   1.1384e-003  -1.4843e-004   3.9379e-003   2.1857e+007  -8.5689e+003   1.5555e+007    0.0649   -0.0000    0.0000    0.0000    0.1353
                0.5944   1.3558e-003  -1.7684e-004   3.8957e-003   2.6030e+007  -1.1433e+004   1.5388e+007    0.0772   -0.0000    0.0000    0.0000    0.1338
                0.6122   1.5341e-003  -2.0013e-004   3.8493e-003   2.9452e+007  -1.3776e+004   1.5205e+007    0.0874   -0.0000    0.0000    0.0000    0.1322
                0.6277   1.6868e-003  -2.2010e-004   3.8023e-003   3.2385e+007  -1.5796e+004   1.5019e+007    0.0961   -0.0000    0.0000    0.0000    0.1306
                0.6409   1.8158e-003  -2.3695e-004   3.7576e-003   3.4861e+007  -1.7495e+004   1.4842e+007    0.1034   -0.0000    0.0000    0.0001    0.1291
                0.6518   1.9168e-003  -2.5015e-004   3.7176e-003   3.6800e+007  -1.8824e+004   1.4684e+007    0.1092   -0.0000    0.0000    0.0001    0.1277
                0.6603   1.9943e-003  -2.6028e-004   3.6846e-003   3.8289e+007  -1.9857e+004   1.4554e+007    0.1136   -0.0000    0.0000    0.0001    0.1266
                0.6664   2.0515e-003  -2.6775e-004   3.6599e-003   3.9387e+007  -2.0627e+004   1.4457e+007    0.1169   -0.0000    0.0000    0.0001    0.1257
                0.6700   2.0871e-003  -2.7240e-004   3.6446e-003   4.0069e+007  -2.1104e+004   1.4396e+007    0.1189   -0.0000    0.0000    0.0001    0.1252
                0.6712   2.0991e-003  -2.7398e-004   3.6394e-003   4.0301e+007  -2.1264e+004   1.4376e+007    0.1196   -0.0000    0.0000    0.0001    0.1250

  Bottom:  panel  nNode   nLam     xc_St    xc_End         b         t         E_eff         G_eff      nu_eff     density  buckleCrit
            (-)    (-)    (-)       (-)       (-)       (m)       (m)          (Pa)          (Pa)         (-)    (kg/m^3)         (-)
              1     18      3    0.0000    0.2378    0.3219    0.0084   1.8722e+010   3.8530e+009      0.1301   1632.9682      0.0951
              2      9      5    0.2378    0.4622    0.2721    0.0127   5.5898e+010   4.2044e+009      0.1639   1593.8732      0.0028
              3     28      3    0.4622    1.0000    0.6656    0.0105   1.5023e+010   3.1024e+009      0.1307   1346.5209      0.1710

            panel:  1     
           lam_num    nPlies        tPly      fibAng     matID  matName
               (-)       (-)         (m)       (deg)       (-)  (-)
                 1         1    0.004079      0.0000         2  (blade-shell)
                 2         1    0.000211      0.0000         5  (LEP-core)
                 3         1    0.004079      0.0000         2  (blade-shell)

               lamina:  1     
              matName:  (blade-shell)
                     s           e11           e22           e12           s11           s22           s12   s11_fcT   s11_fcC   s22_fcT   s22_fcC   s12_fcS
                   (m)         (m/m)         (m/m)         (rad)          (Pa)          (Pa)          (Pa)       (-)       (-)       (-)       (-)       (-)
                0.0000   4.7429e-004  -6.1677e-005   6.8723e-003   9.1063e+006  -3.6984e+002   2.7146e+007    0.0270   -0.0000    0.0000    0.0000    0.2360
                0.0035   6.1388e-004  -7.9832e-005   6.8699e-003   1.1786e+007  -5.3981e+002   2.7136e+007    0.0350   -0.0000    0.0000    0.0000    0.2360
                0.0136   1.0521e-003  -1.3683e-004   6.8558e-003   2.0200e+007  -1.0364e+003   2.7080e+007    0.0599   -0.0000    0.0000    0.0000    0.2355
                0.0261   1.6259e-003  -2.1145e-004   6.8245e-003   3.1216e+007  -1.6225e+003   2.6957e+007    0.0926   -0.0000    0.0000    0.0000    0.2344
                0.0370   2.0288e-003  -2.6384e-004   6.7859e-003   3.8952e+007  -2.0272e+003   2.6804e+007    0.1156   -0.0000    0.0000    0.0000    0.2331
                0.0516   2.5065e-003  -3.2598e-004   6.7203e-003   4.8125e+007  -2.5684e+003   2.6545e+007    0.1428   -0.0000    0.0000    0.0000    0.2308
                0.0666   2.9159e-003  -3.7923e-004   6.6371e-003   5.5986e+007  -3.0183e+003   2.6216e+007    0.1661   -0.0000    0.0000    0.0000    0.2280
                0.0839   3.3078e-003  -4.3019e-004   6.5251e-003   6.3509e+007  -3.4810e+003   2.5774e+007    0.1885   -0.0000    0.0000    0.0000    0.2241
                0.1034   3.7438e-003  -4.8689e-004   6.3798e-003   7.1880e+007  -3.9868e+003   2.5200e+007    0.2133   -0.0000    0.0000    0.0000    0.2191
                0.1238   4.0786e-003  -5.3044e-004   6.2082e-003   7.8309e+007  -4.3761e+003   2.4522e+007    0.2324   -0.0000    0.0000    0.0000    0.2132
                0.1466   4.4408e-003  -5.7755e-004   5.9974e-003   8.5262e+007  -4.8108e+003   2.3690e+007    0.2530   -0.0000    0.0000    0.0000    0.2060
                0.1708   4.7775e-003  -6.2135e-004   5.7518e-003   9.1728e+007  -5.2094e+003   2.2720e+007    0.2722   -0.0000    0.0000    0.0000    0.1976
                0.1967   5.0672e-003  -6.5902e-004   5.4698e-003   9.7289e+007  -5.5570e+003   2.1606e+007    0.2887   -0.0000    0.0000    0.0000    0.1879
                0.2243   5.3772e-003  -6.9934e-004   5.1479e-003   1.0324e+008  -5.9285e+003   2.0334e+007    0.3064   -0.0000    0.0000    0.0000    0.1768
                0.2531   5.6078e-003  -7.2933e-004   4.7925e-003   1.0767e+008  -6.2037e+003   1.8930e+007    0.3195   -0.0000    0.0000    0.0000    0.1646
                0.2835   5.8297e-003  -7.5819e-004   4.3999e-003   1.1193e+008  -6.4721e+003   1.7380e+007    0.3321   -0.0000    0.0000    0.0000    0.1511
                0.3152   6.0371e-003  -7.8517e-004   3.9729e-003   1.1591e+008  -6.7227e+003   1.5693e+007    0.3440   -0.0000    0.0000    0.0000    0.1365
                0.3219   6.0643e-003  -7.8871e-004   3.8812e-003   1.1643e+008  -6.7519e+003   1.5331e+007    0.3455   -0.0000    0.0000    0.0000    0.1333

               lamina:  2     
              matName:  (LEP-core)
                     s           e11           e22           e12           s11           s22           s12   s11_fcT   s11_fcC   s22_fcT   s22_fcC   s12_fcS
                   (m)         (m/m)         (m/m)         (rad)          (Pa)          (Pa)          (Pa)       (-)       (-)       (-)       (-)       (-)
                0.0000   3.0793e-004  -4.0049e-005   6.8723e-003   6.9452e+004   1.4509e+004   6.7349e+005    0.0162   -0.0000    0.0034   -0.0000    0.2283
                0.0035   4.4751e-004  -5.8204e-005   6.8699e-003   1.0094e+005   2.1086e+004   6.7325e+005    0.0235   -0.0000    0.0049   -0.0000    0.2282
                0.0136   8.5608e-004  -1.1134e-004   6.8558e-003   1.9309e+005   4.0337e+004   6.7187e+005    0.0450   -0.0000    0.0094   -0.0000    0.2278
                0.0261   1.3397e-003  -1.7425e-004   6.8245e-003   3.0217e+005   6.3125e+004   6.6880e+005    0.0704   -0.0000    0.0147   -0.0000    0.2267
                0.0370   1.6738e-003  -2.1769e-004   6.7859e-003   3.7751e+005   7.8864e+004   6.6502e+005    0.0880   -0.0000    0.0184   -0.0000    0.2254
                0.0516   2.1190e-003  -2.7560e-004   6.7203e-003   4.7794e+005   9.9844e+004   6.5859e+005    0.1114   -0.0000    0.0233   -0.0000    0.2233
                0.0666   2.4895e-003  -3.2380e-004   6.6371e-003   5.6151e+005   1.1730e+005   6.5043e+005    0.1309   -0.0000    0.0273   -0.0000    0.2205
                0.0839   2.8698e-003  -3.7325e-004   6.5251e-003   6.4728e+005   1.3522e+005   6.3946e+005    0.1509   -0.0000    0.0315   -0.0000    0.2168
                0.1034   3.2857e-003  -4.2735e-004   6.3798e-003   7.4109e+005   1.5482e+005   6.2522e+005    0.1727   -0.0000    0.0361   -0.0000    0.2119
                0.1238   3.6058e-003  -4.6898e-004   6.2082e-003   8.1329e+005   1.6990e+005   6.0840e+005    0.1896   -0.0000    0.0396   -0.0000    0.2062
                0.1466   3.9629e-003  -5.1543e-004   5.9974e-003   8.9383e+005   1.8672e+005   5.8775e+005    0.2084   -0.0000    0.0435   -0.0000    0.1992
                0.1708   4.2905e-003  -5.5803e-004   5.7518e-003   9.6772e+005   2.0216e+005   5.6368e+005    0.2256   -0.0000    0.0471   -0.0000    0.1911
                0.1967   4.5761e-003  -5.9518e-004   5.4698e-003   1.0321e+006   2.1562e+005   5.3604e+005    0.2406   -0.0000    0.0503   -0.0000    0.1817
                0.2243   4.8813e-003  -6.3487e-004   5.1479e-003   1.1010e+006   2.3000e+005   5.0449e+005    0.2566   -0.0000    0.0536   -0.0000    0.1710
                0.2531   5.1074e-003  -6.6428e-004   4.7925e-003   1.1520e+006   2.4065e+005   4.6966e+005    0.2685   -0.0000    0.0561   -0.0000    0.1592
                0.2835   5.3278e-003  -6.9295e-004   4.3999e-003   1.2017e+006   2.5104e+005   4.3119e+005    0.2801   -0.0000    0.0585   -0.0000    0.1462
                0.3152   5.5337e-003  -7.1972e-004   3.9729e-003   1.2481e+006   2.6074e+005   3.8935e+005    0.2909   -0.0000    0.0608   -0.0000    0.1320
                0.3219   5.5577e-003  -7.2285e-004   3.8812e-003   1.2535e+006   2.6187e+005   3.8036e+005    0.2922   -0.0000    0.0610   -0.0000    0.1289

               lamina:  3     
              matName:  (blade-shell)
                     s           e11           e22           e12           s11           s22           s12   s11_fcT   s11_fcC   s22_fcT   s22_fcC   s12_fcS
                   (m)         (m/m)         (m/m)         (rad)          (Pa)          (Pa)          (Pa)       (-)       (-)       (-)       (-)       (-)
                0.0000   2.9933e-004  -3.8932e-005   6.8723e-003   5.7470e+006  -3.6971e+002   2.7146e+007    0.0171   -0.0000    0.0000    0.0000    0.2360
                0.0035   4.3891e-004  -5.7086e-005   6.8699e-003   8.4271e+006  -5.3968e+002   2.7136e+007    0.0250   -0.0000    0.0000    0.0000    0.2360
                0.0136   8.4595e-004  -1.1003e-004   6.8558e-003   1.6242e+007  -1.0362e+003   2.7080e+007    0.0482   -0.0000    0.0000    0.0000    0.2355
                0.0261   1.3249e-003  -1.7232e-004   6.8245e-003   2.5438e+007  -1.6223e+003   2.6957e+007    0.0755   -0.0000    0.0000    0.0000    0.2344
                0.0370   1.6554e-003  -2.1531e-004   6.7859e-003   3.1784e+007  -2.0269e+003   2.6804e+007    0.0943   -0.0000    0.0000    0.0000    0.2331
                0.0516   2.0990e-003  -2.7300e-004   6.7203e-003   4.0300e+007  -2.5680e+003   2.6545e+007    0.1196   -0.0000    0.0000    0.0000    0.2308
                0.0666   2.4675e-003  -3.2093e-004   6.6371e-003   4.7376e+007  -3.0180e+003   2.6216e+007    0.1406   -0.0000    0.0000    0.0000    0.2280
                0.0839   2.8472e-003  -3.7031e-004   6.5251e-003   5.4665e+007  -3.4807e+003   2.5774e+007    0.1622   -0.0000    0.0000    0.0000    0.2241
                0.1034   3.2620e-003  -4.2427e-004   6.3798e-003   6.2631e+007  -3.9865e+003   2.5200e+007    0.1858   -0.0000    0.0000    0.0000    0.2191
                0.1238   3.5814e-003  -4.6580e-004   6.2082e-003   6.8762e+007  -4.3758e+003   2.4522e+007    0.2040   -0.0000    0.0000    0.0000    0.2132
                0.1466   3.9382e-003  -5.1221e-004   5.9974e-003   7.5613e+007  -4.8104e+003   2.3690e+007    0.2244   -0.0000    0.0000    0.0000    0.2060
                0.1708   4.2653e-003  -5.5476e-004   5.7518e-003   8.1894e+007  -5.2090e+003   2.2720e+007    0.2430   -0.0000    0.0000    0.0000    0.1976
                0.1967   4.5507e-003  -5.9188e-004   5.4698e-003   8.7373e+007  -5.5567e+003   2.1606e+007    0.2593   -0.0000    0.0000    0.0000    0.1879
                0.2243   4.8557e-003  -6.3154e-004   5.1479e-003   9.3228e+007  -5.9281e+003   2.0334e+007    0.2766   -0.0000    0.0000    0.0000    0.1768
                0.2531   5.0815e-003  -6.6091e-004   4.7925e-003   9.7564e+007  -6.2033e+003   1.8930e+007    0.2895   -0.0000    0.0000    0.0000    0.1646
                0.2835   5.3019e-003  -6.8958e-004   4.3999e-003   1.0180e+008  -6.4717e+003   1.7380e+007    0.3021   -0.0000    0.0000    0.0000    0.1511
                0.3152   5.5076e-003  -7.1634e-004   3.9729e-003   1.0575e+008  -6.7223e+003   1.5693e+007    0.3138   -0.0000    0.0000    0.0000    0.1365
                0.3219   5.5315e-003  -7.1945e-004   3.8812e-003   1.0620e+008  -6.7515e+003   1.5331e+007    0.3151   -0.0000    0.0000    0.0000    0.1333

            panel:  2     
           lam_num    nPlies        tPly      fibAng     matID  matName
               (-)       (-)         (m)       (deg)       (-)  (-)
                 1         1    0.004079      0.0000         2  (blade-shell)
                 2         1    0.002243      0.0000         3  (spar-uni)
                 3         1    0.000047      0.0000         4  (spar-core)
                 4         1    0.002243      0.0000         3  (spar-uni)
                 5         1    0.004079      0.0000         2  (blade-shell)

               lamina:  1     
              matName:  (blade-shell)
                     s           e11           e22           e12           s11           s22           s12   s11_fcT   s11_fcC   s22_fcT   s22_fcC   s12_fcS
                   (m)         (m/m)         (m/m)         (rad)          (Pa)          (Pa)          (Pa)       (-)       (-)       (-)       (-)       (-)
                0.0000   7.3399e-003  -1.1460e-003   6.4425e-003   1.4044e+008  -3.7466e+006   2.5448e+007    0.4167   -0.0000    0.0000    0.0111    0.2213
                0.0260   7.4344e-003  -1.1615e-003   5.4698e-003   1.4224e+008  -3.8093e+006   2.1606e+007    0.4221   -0.0000    0.0000    0.0113    0.1879
                0.0599   7.5613e-003  -1.1822e-003   4.1754e-003   1.4467e+008  -3.8913e+006   1.6493e+007    0.4293   -0.0000    0.0000    0.0115    0.1434
                0.0946   7.6125e-003  -1.1905e-003   2.8273e-003   1.4565e+008  -3.9234e+006   1.1168e+007    0.4322   -0.0000    0.0000    0.0116    0.0971
                0.1304   7.6044e-003  -1.1892e-003   1.4316e-003   1.4550e+008  -3.9180e+006   5.6550e+006    0.4317   -0.0000    0.0000    0.0116    0.0492
                0.1667   7.5942e-003  -1.1876e-003   1.3473e-005   1.4530e+008  -3.9124e+006   5.3219e+004    0.4312   -0.0000    0.0000    0.0116    0.0005
                0.2039   7.4460e-003  -1.1635e-003   1.4184e-003   1.4247e+008  -3.8177e+006   5.6027e+006    0.4228   -0.0000    0.0000    0.0113    0.0487
                0.2417   7.2918e-003  -1.1382e-003   2.8400e-003   1.3952e+008  -3.7167e+006   1.1218e+007    0.4140   -0.0000    0.0000    0.0110    0.0975
                0.2721   7.1410e-003  -1.1136e-003   3.9536e-003   1.3664e+008  -3.6180e+006   1.5617e+007    0.4054   -0.0000    0.0000    0.0107    0.1358

               lamina:  2     
              matName:  (spar-uni)
                     s           e11           e22           e12           s11           s22           s12   s11_fcT   s11_fcC   s22_fcT   s22_fcC   s12_fcS
                   (m)         (m/m)         (m/m)         (rad)          (Pa)          (Pa)          (Pa)       (-)       (-)       (-)       (-)       (-)
                0.0000   6.1269e-003  -9.8402e-004   6.4425e-003   7.5595e+008   7.5540e+006   3.0344e+007    0.3820   -0.0000    0.1261   -0.0000    0.2946
                0.0260   6.2214e-003  -9.9951e-004   5.4698e-003   7.6761e+008   7.6679e+006   2.5763e+007    0.3879   -0.0000    0.1280   -0.0000    0.2501
                0.0599   6.3460e-003  -1.0199e-003   4.1754e-003   7.8298e+008   7.8184e+006   1.9666e+007    0.3956   -0.0000    0.1305   -0.0000    0.1909
                0.0946   6.3952e-003  -1.0279e-003   2.8273e-003   7.8905e+008   7.8780e+006   1.3316e+007    0.3987   -0.0000    0.1315   -0.0000    0.1293
                0.1304   6.3870e-003  -1.0266e-003   1.4316e-003   7.8804e+008   7.8681e+006   6.7431e+006    0.3982   -0.0000    0.1314   -0.0000    0.0655
                0.1667   6.3781e-003  -1.0252e-003   1.3473e-005   7.8695e+008   7.8573e+006   6.3459e+004    0.3976   -0.0000    0.1312   -0.0000    0.0006
                0.2039   6.2337e-003  -1.0015e-003   1.4184e-003   7.6913e+008   7.6827e+006   6.6806e+006    0.3886   -0.0000    0.1283   -0.0000    0.0649
                0.2417   6.0809e-003  -9.7651e-004   2.8400e-003   7.5027e+008   7.4983e+006   1.3376e+007    0.3791   -0.0000    0.1252   -0.0000    0.1299
                0.2721   5.9315e-003  -9.5205e-004   3.9536e-003   7.3185e+008   7.3180e+006   1.8622e+007    0.3698   -0.0000    0.1222   -0.0000    0.1808

               lamina:  3     
              matName:  (spar-core)
                     s           e11           e22           e12           s11           s22           s12   s11_fcT   s11_fcC   s22_fcT   s22_fcC   s12_fcS
                   (m)         (m/m)         (m/m)         (rad)          (Pa)          (Pa)          (Pa)       (-)       (-)       (-)       (-)       (-)
                0.0000   5.4598e-003  -8.9493e-004   6.4425e-003   1.2171e+006   2.1371e+005   6.3137e+005    0.2837   -0.0000    0.0498   -0.0000    0.2140
                0.0260   5.5543e-003  -9.1042e-004   5.4698e-003   1.2382e+006   2.1740e+005   5.3604e+005    0.2886   -0.0000    0.0507   -0.0000    0.1817
                0.0599   5.6776e-003  -9.3063e-004   4.1754e-003   1.2656e+006   2.2223e+005   4.0918e+005    0.2950   -0.0000    0.0518   -0.0000    0.1387
                0.0946   5.7258e-003  -9.3853e-004   2.8273e-003   1.2764e+006   2.2411e+005   2.7707e+005    0.2975   -0.0000    0.0522   -0.0000    0.0939
                0.1304   5.7175e-003  -9.3718e-004   1.4316e-003   1.2745e+006   2.2379e+005   1.4030e+005    0.2971   -0.0000    0.0522   -0.0000    0.0476
                0.1667   5.7094e-003  -9.3585e-004   1.3473e-005   1.2727e+006   2.2347e+005   1.3204e+003    0.2967   -0.0000    0.0521   -0.0000    0.0004
                0.2039   5.5671e-003  -9.1251e-004   1.4184e-003   1.2410e+006   2.1790e+005   1.3900e+005    0.2893   -0.0000    0.0508   -0.0000    0.0471
                0.2417   5.4150e-003  -8.8757e-004   2.8400e-003   1.2071e+006   2.1195e+005   2.7832e+005    0.2814   -0.0000    0.0494   -0.0000    0.0943
                0.2721   5.2665e-003  -8.6322e-004   3.9536e-003   1.1740e+006   2.0614e+005   3.8745e+005    0.2737   -0.0000    0.0481   -0.0000    0.1313

               lamina:  4     
              matName:  (spar-uni)
                     s           e11           e22           e12           s11           s22           s12   s11_fcT   s11_fcC   s22_fcT   s22_fcC   s12_fcS
                   (m)         (m/m)         (m/m)         (rad)          (Pa)          (Pa)          (Pa)       (-)       (-)       (-)       (-)       (-)
                0.0000   5.4459e-003  -8.9307e-004   6.4425e-003   6.7188e+008   6.5624e+006   3.0344e+007    0.3395   -0.0000    0.1096   -0.0000    0.2946
                0.0260   5.5404e-003  -9.0856e-004   5.4698e-003   6.8354e+008   6.6763e+006   2.5763e+007    0.3454   -0.0000    0.1115   -0.0000    0.2501
                0.0599   5.6637e-003  -9.2877e-004   4.1754e-003   6.9875e+008   6.8249e+006   1.9666e+007    0.3531   -0.0000    0.1139   -0.0000    0.1909
                0.0946   5.7118e-003  -9.3666e-004   2.8273e-003   7.0469e+008   6.8829e+006   1.3316e+007    0.3561   -0.0000    0.1149   -0.0000    0.1293
                0.1304   5.7036e-003  -9.3531e-004   1.4316e-003   7.0367e+008   6.8729e+006   6.7431e+006    0.3556   -0.0000    0.1147   -0.0000    0.0655
                0.1667   5.6955e-003  -9.3398e-004   1.3473e-005   7.0267e+008   6.8632e+006   6.3459e+004    0.3551   -0.0000    0.1146   -0.0000    0.0006
                0.2039   5.5532e-003  -9.1065e-004   1.4184e-003   6.8511e+008   6.6917e+006   6.6806e+006    0.3462   -0.0000    0.1117   -0.0000    0.0649
                0.2417   5.4011e-003  -8.8572e-004   2.8400e-003   6.6635e+008   6.5084e+006   1.3376e+007    0.3367   -0.0000    0.1087   -0.0000    0.1299
                0.2721   5.2526e-003  -8.6137e-004   3.9536e-003   6.4803e+008   6.3294e+006   1.8622e+007    0.3275   -0.0000    0.1057   -0.0000    0.1808

               lamina:  5     
              matName:  (blade-shell)
                     s           e11           e22           e12           s11           s22           s12   s11_fcT   s11_fcC   s22_fcT   s22_fcC   s12_fcS
                   (m)         (m/m)         (m/m)         (rad)          (Pa)          (Pa)          (Pa)       (-)       (-)       (-)       (-)       (-)
                0.0000   4.7789e-003  -8.0398e-004   6.4425e-003   9.1290e+007  -3.5686e+006   2.5448e+007    0.2709   -0.0000    0.0000    0.0106    0.2213
                0.0260   4.8734e-003  -8.1947e-004   5.4698e-003   9.3097e+007  -3.6313e+006   2.1606e+007    0.2763   -0.0000    0.0000    0.0108    0.1879
                0.0599   4.9953e-003  -8.3951e-004   4.1754e-003   9.5428e+007  -3.7129e+006   1.6493e+007    0.2832   -0.0000    0.0000    0.0110    0.1434
                0.0946   5.0424e-003  -8.4725e-004   2.8273e-003   9.6327e+007  -3.7447e+006   1.1168e+007    0.2858   -0.0000    0.0000    0.0111    0.0971
                0.1304   5.0341e-003  -8.4589e-004   1.4316e-003   9.6168e+007  -3.7393e+006   5.6550e+006    0.2854   -0.0000    0.0000    0.0111    0.0492
                0.1667   5.0268e-003  -8.4467e-004   1.3473e-005   9.6029e+007  -3.7340e+006   5.3219e+004    0.2850   -0.0000    0.0000    0.0111    0.0005
                0.2039   4.8865e-003  -8.2162e-004   1.4184e-003   9.3348e+007  -3.6397e+006   5.6027e+006    0.2770   -0.0000    0.0000    0.0108    0.0487
                0.2417   4.7352e-003  -7.9678e-004   2.8400e-003   9.0456e+007  -3.5389e+006   1.1218e+007    0.2684   -0.0000    0.0000    0.0105    0.0975
                0.2721   4.5875e-003  -7.7254e-004   3.9536e-003   8.7633e+007  -3.4405e+006   1.5617e+007    0.2600   -0.0000    0.0000    0.0102    0.1358

            panel:  3     
           lam_num    nPlies        tPly      fibAng     matID  matName
               (-)       (-)         (m)       (deg)       (-)  (-)
                 1         1    0.004079      0.0000         2  (blade-shell)
                 2         1    0.002302      0.0000         6  (TEP-core)
                 3         1    0.004079      0.0000         2  (blade-shell)

               lamina:  1     
              matName:  (blade-shell)
                     s           e11           e22           e12           s11           s22           s12   s11_fcT   s11_fcC   s22_fcT   s22_fcC   s12_fcS
                   (m)         (m/m)         (m/m)         (rad)          (Pa)          (Pa)          (Pa)       (-)       (-)       (-)       (-)       (-)
                0.0000   5.8320e-003  -7.6177e-004   1.1122e-003   1.1196e+008  -7.0596e+004   4.3934e+006    0.3322   -0.0000    0.0000    0.0002    0.0382
                0.0076   5.7925e-003  -7.5661e-004   1.0117e-003   1.1121e+008  -7.0105e+004   3.9961e+006    0.3300   -0.0000    0.0000    0.0002    0.0347
                0.0463   5.5323e-003  -7.2262e-004   5.1418e-004   1.0621e+008  -6.6665e+004   2.0310e+006    0.3152   -0.0000    0.0000    0.0002    0.0177
                0.0849   5.2719e-003  -6.8858e-004   4.1440e-005   1.0121e+008  -6.3228e+004   1.6369e+005    0.3003   -0.0000    0.0000    0.0002    0.0014
                0.1236   4.9683e-003  -6.4891e-004   4.0501e-004   9.5384e+007  -5.9227e+004   1.5998e+006    0.2830   -0.0000    0.0000    0.0002    0.0139
                0.1621   4.6477e-003  -6.0701e-004   8.2059e-004   8.9228e+007  -5.4986e+004   3.2413e+006    0.2648   -0.0000    0.0000    0.0002    0.0282
                0.2002   4.3294e-003  -5.6542e-004   1.2016e-003   8.3118e+007  -5.0779e+004   4.7462e+006    0.2466   -0.0000    0.0000    0.0002    0.0413
                0.2378   3.9926e-003  -5.2141e-004   1.5477e-003   7.6653e+007  -4.6326e+004   6.1133e+006    0.2275   -0.0000    0.0000    0.0001    0.0532
                0.2746   3.6632e-003  -4.7837e-004   1.8572e-003   7.0328e+007  -4.1958e+004   7.3359e+006    0.2087   -0.0000    0.0000    0.0001    0.0638
                0.3106   3.3471e-003  -4.3705e-004   2.1305e-003   6.4259e+007  -3.7762e+004   8.4157e+006    0.1907   -0.0000    0.0000    0.0001    0.0732
                0.3454   3.0469e-003  -3.9782e-004   2.3693e-003   5.8495e+007  -3.3781e+004   9.3588e+006    0.1736   -0.0000    0.0000    0.0001    0.0814
                0.3792   2.7574e-003  -3.5999e-004   2.5759e-003   5.2938e+007  -2.9930e+004   1.0175e+007    0.1571   -0.0000    0.0000    0.0001    0.0885
                0.4114   2.5110e-003  -3.2779e-004   2.7524e-003   4.8207e+007  -2.6646e+004   1.0872e+007    0.1430   -0.0000    0.0000    0.0001    0.0945
                0.4422   2.2834e-003  -2.9805e-004   2.9028e-003   4.3837e+007  -2.3622e+004   1.1466e+007    0.1301   -0.0000    0.0000    0.0001    0.0997
                0.4714   2.0765e-003  -2.7102e-004   3.0302e-003   3.9867e+007  -2.0858e+004   1.1969e+007    0.1183   -0.0000    0.0000    0.0001    0.1041
                0.4988   1.9254e-003  -2.5127e-004   3.1375e-003   3.6966e+007  -1.8837e+004   1.2393e+007    0.1097   -0.0000    0.0000    0.0001    0.1078
                0.5243   1.7839e-003  -2.3278e-004   3.2287e-003   3.4249e+007  -1.6950e+004   1.2753e+007    0.1016   -0.0000    0.0000    0.0001    0.1109
                0.5480   1.6829e-003  -2.1957e-004   3.3061e-003   3.2309e+007  -1.5591e+004   1.3059e+007    0.0959   -0.0000    0.0000    0.0000    0.1136
                0.5696   1.6153e-003  -2.1074e-004   3.3724e-003   3.1011e+007  -1.4687e+004   1.3321e+007    0.0920   -0.0000    0.0000    0.0000    0.1158
                0.5893   1.5542e-003  -2.0276e-004   3.4296e-003   2.9840e+007  -1.3867e+004   1.3547e+007    0.0885   -0.0000    0.0000    0.0000    0.1178
                0.6068   1.5442e-003  -2.0145e-004   3.4792e-003   2.9648e+007  -1.3728e+004   1.3743e+007    0.0880   -0.0000    0.0000    0.0000    0.1195
                0.6220   1.5401e-003  -2.0092e-004   3.5221e-003   2.9569e+007  -1.3673e+004   1.3912e+007    0.0877   -0.0000    0.0000    0.0000    0.1210
                0.6351   1.5469e-003  -2.0181e-004   3.5592e-003   2.9699e+007  -1.3768e+004   1.4059e+007    0.0881   -0.0000    0.0000    0.0000    0.1223
                0.6459   1.5789e-003  -2.0598e-004   3.5904e-003   3.0312e+007  -1.4203e+004   1.4182e+007    0.0899   -0.0000    0.0000    0.0000    0.1233
                0.6544   1.6036e-003  -2.0921e-004   3.6155e-003   3.0787e+007  -1.4545e+004   1.4281e+007    0.0914   -0.0000    0.0000    0.0000    0.1242
                0.6607   1.6351e-003  -2.1334e-004   3.6346e-003   3.1393e+007  -1.5004e+004   1.4357e+007    0.0932   -0.0000    0.0000    0.0000    0.1248
                0.6644   1.6604e-003  -2.1664e-004   3.6463e-003   3.1878e+007  -1.5367e+004   1.4403e+007    0.0946   -0.0000    0.0000    0.0000    0.1252
                0.6656   1.6693e-003  -2.1780e-004   3.6502e-003   3.2049e+007  -1.5485e+004   1.4418e+007    0.0951   -0.0000    0.0000    0.0000    0.1254

               lamina:  2     
              matName:  (TEP-core)
                     s           e11           e22           e12           s11           s22           s12   s11_fcT   s11_fcC   s22_fcT   s22_fcC   s12_fcS
                   (m)         (m/m)         (m/m)         (rad)          (Pa)          (Pa)          (Pa)       (-)       (-)       (-)       (-)       (-)
                0.0000   5.4223e-003  -7.0851e-004   1.1122e-003   1.2227e+006   2.5472e+005   1.0900e+005    0.2850   -0.0000    0.0594   -0.0000    0.0369
                0.0076   5.3848e-003  -7.0360e-004   1.0117e-003   1.2143e+006   2.5296e+005   9.9144e+004    0.2830   -0.0000    0.0590   -0.0000    0.0336
                0.0463   5.1251e-003  -6.6967e-004   5.1418e-004   1.1557e+006   2.4076e+005   5.0389e+004    0.2694   -0.0000    0.0561   -0.0000    0.0171
                0.0849   4.8656e-003  -6.3575e-004   4.1440e-005   1.0972e+006   2.2857e+005   4.0611e+003    0.2558   -0.0000    0.0533   -0.0000    0.0014
                0.1236   4.5634e-003  -5.9626e-004   4.0501e-004   1.0291e+006   2.1437e+005   3.9691e+004    0.2399   -0.0000    0.0500   -0.0000    0.0135
                0.1621   4.2432e-003  -5.5443e-004   8.2059e-004   9.5686e+005   1.9933e+005   8.0417e+004    0.2230   -0.0000    0.0465   -0.0000    0.0273
                0.2002   3.9256e-003  -5.1292e-004   1.2016e-003   8.8524e+005   1.8442e+005   1.1775e+005    0.2063   -0.0000    0.0430   -0.0000    0.0399
                0.2378   3.5895e-003  -4.6899e-004   1.5477e-003   8.0943e+005   1.6862e+005   1.5167e+005    0.1887   -0.0000    0.0393   -0.0000    0.0514
                0.2746   3.2599e-003  -4.2593e-004   1.8572e-003   7.3512e+005   1.5314e+005   1.8200e+005    0.1714   -0.0000    0.0357   -0.0000    0.0617
                0.3106   2.9434e-003  -3.8457e-004   2.1305e-003   6.6375e+005   1.3828e+005   2.0879e+005    0.1547   -0.0000    0.0322   -0.0000    0.0708
                0.3454   2.6430e-003  -3.4531e-004   2.3693e-003   5.9601e+005   1.2417e+005   2.3219e+005    0.1389   -0.0000    0.0289   -0.0000    0.0787
                0.3792   2.3527e-003  -3.0737e-004   2.5759e-003   5.3053e+005   1.1053e+005   2.5244e+005    0.1237   -0.0000    0.0258   -0.0000    0.0856
                0.4114   2.1052e-003  -2.7502e-004   2.7524e-003   4.7472e+005   9.8903e+004   2.6974e+005    0.1107   -0.0000    0.0231   -0.0000    0.0914
                0.4422   1.8771e-003  -2.4522e-004   2.9028e-003   4.2329e+005   8.8189e+004   2.8447e+005    0.0987   -0.0000    0.0206   -0.0000    0.0964
                0.4714   1.6688e-003  -2.1800e-004   3.0302e-003   3.7633e+005   7.8407e+004   2.9696e+005    0.0877   -0.0000    0.0183   -0.0000    0.1007
                0.4988   1.5166e-003  -1.9812e-004   3.1375e-003   3.4201e+005   7.1258e+004   3.0748e+005    0.0797   -0.0000    0.0166   -0.0000    0.1042
                0.5243   1.3744e-003  -1.7953e-004   3.2287e-003   3.0993e+005   6.4576e+004   3.1641e+005    0.0722   -0.0000    0.0151   -0.0000    0.1073
                0.5480   1.2721e-003  -1.6616e-004   3.3061e-003   2.8687e+005   5.9773e+004   3.2400e+005    0.0669   -0.0000    0.0139   -0.0000    0.1098
                0.5696   1.2040e-003  -1.5727e-004   3.3724e-003   2.7152e+005   5.6575e+004   3.3049e+005    0.0633   -0.0000    0.0132   -0.0000    0.1120
                0.5893   1.1423e-003  -1.4920e-004   3.4296e-003   2.5760e+005   5.3676e+004   3.3610e+005    0.0600   -0.0000    0.0125   -0.0000    0.1139
                0.6068   1.1319e-003  -1.4784e-004   3.4792e-003   2.5525e+005   5.3187e+004   3.4096e+005    0.0595   -0.0000    0.0124   -0.0000    0.1156
                0.6220   1.1278e-003  -1.4730e-004   3.5221e-003   2.5432e+005   5.2992e+004   3.4517e+005    0.0593   -0.0000    0.0124   -0.0000    0.1170
                0.6351   1.1349e-003  -1.4823e-004   3.5592e-003   2.5593e+005   5.3327e+004   3.4880e+005    0.0597   -0.0000    0.0124   -0.0000    0.1182
                0.6459   1.1676e-003  -1.5250e-004   3.5904e-003   2.6329e+005   5.4861e+004   3.5186e+005    0.0614   -0.0000    0.0128   -0.0000    0.1193
                0.6544   1.1932e-003  -1.5585e-004   3.6155e-003   2.6907e+005   5.6064e+004   3.5432e+005    0.0627   -0.0000    0.0131   -0.0000    0.1201
                0.6607   1.2272e-003  -1.6029e-004   3.6346e-003   2.7674e+005   5.7663e+004   3.5619e+005    0.0645   -0.0000    0.0134   -0.0000    0.1207
                0.6644   1.2542e-003  -1.6382e-004   3.6463e-003   2.8283e+005   5.8931e+004   3.5734e+005    0.0659   -0.0000    0.0137   -0.0000    0.1211
                0.6656   1.2631e-003  -1.6498e-004   3.6502e-003   2.8483e+005   5.9347e+004   3.5772e+005    0.0664   -0.0000    0.0138   -0.0000    0.1213

               lamina:  3     
              matName:  (blade-shell)
                     s           e11           e22           e12           s11           s22           s12   s11_fcT   s11_fcC   s22_fcT   s22_fcC   s12_fcS
                   (m)         (m/m)         (m/m)         (rad)          (Pa)          (Pa)          (Pa)       (-)       (-)       (-)       (-)       (-)
                0.0000   5.1912e-003  -6.7845e-004   1.1122e-003   9.9661e+007  -7.0271e+004   4.3934e+006    0.2957   -0.0000    0.0000    0.0002    0.0382
                0.0076   5.1548e-003  -6.7369e-004   1.0117e-003   9.8962e+007  -6.9781e+004   3.9961e+006    0.2937   -0.0000    0.0000    0.0002    0.0347
                0.0463   4.8953e-003  -6.3979e-004   5.1418e-004   9.3982e+007  -6.6342e+004   2.0310e+006    0.2789   -0.0000    0.0000    0.0002    0.0177
                0.0849   4.6363e-003  -6.0594e-004   4.1440e-005   8.9008e+007  -6.2905e+004   1.6369e+005    0.2641   -0.0000    0.0000    0.0002    0.0014
                0.1236   4.3349e-003  -5.6655e-004   4.0501e-004   8.3222e+007  -5.8906e+004   1.5998e+006    0.2470   -0.0000    0.0000    0.0002    0.0139
                0.1621   4.0150e-003  -5.2475e-004   8.2059e-004   7.7082e+007  -5.4665e+004   3.2413e+006    0.2287   -0.0000    0.0000    0.0002    0.0282
                0.2002   3.6978e-003  -4.8329e-004   1.2016e-003   7.0991e+007  -5.0458e+004   4.7462e+006    0.2107   -0.0000    0.0000    0.0001    0.0413
                0.2378   3.3620e-003  -4.3941e-004   1.5477e-003   6.4544e+007  -4.6006e+004   6.1133e+006    0.1915   -0.0000    0.0000    0.0001    0.0532
                0.2746   3.0323e-003  -3.9633e-004   1.8572e-003   5.8215e+007  -4.1637e+004   7.3359e+006    0.1727   -0.0000    0.0000    0.0001    0.0638
                0.3106   2.7157e-003  -3.5495e-004   2.1305e-003   5.2136e+007  -3.7442e+004   8.4157e+006    0.1547   -0.0000    0.0000    0.0001    0.0732
                0.3454   2.4152e-003  -3.1568e-004   2.3693e-003   4.6367e+007  -3.3460e+004   9.3588e+006    0.1376   -0.0000    0.0000    0.0001    0.0814
                0.3792   2.1243e-003  -2.7767e-004   2.5759e-003   4.0782e+007  -2.9608e+004   1.0175e+007    0.1210   -0.0000    0.0000    0.0001    0.0885
                0.4114   1.8762e-003  -2.4525e-004   2.7524e-003   3.6019e+007  -2.6324e+004   1.0872e+007    0.1069   -0.0000    0.0000    0.0001    0.0945
                0.4422   1.6478e-003  -2.1541e-004   2.9028e-003   3.1635e+007  -2.3299e+004   1.1466e+007    0.0939   -0.0000    0.0000    0.0001    0.0997
                0.4714   1.4388e-003  -1.8809e-004   3.0302e-003   2.7622e+007  -2.0534e+004   1.1969e+007    0.0820   -0.0000    0.0000    0.0001    0.1041
                0.4988   1.2859e-003  -1.6812e-004   3.1375e-003   2.4688e+007  -1.8513e+004   1.2393e+007    0.0733   -0.0000    0.0000    0.0001    0.1078
                0.5243   1.1433e-003  -1.4948e-004   3.2287e-003   2.1949e+007  -1.6625e+004   1.2753e+007    0.0651   -0.0000    0.0000    0.0000    0.1109
                0.5480   1.0403e-003  -1.3603e-004   3.3061e-003   1.9973e+007  -1.5265e+004   1.3059e+007    0.0593   -0.0000    0.0000    0.0000    0.1136
                0.5696   9.7199e-004  -1.2709e-004   3.3724e-003   1.8660e+007  -1.4360e+004   1.3321e+007    0.0554   -0.0000    0.0000    0.0000    0.1158
                0.5893   9.0988e-004  -1.1898e-004   3.4296e-003   1.7468e+007  -1.3540e+004   1.3547e+007    0.0518   -0.0000    0.0000    0.0000    0.1178
                0.6068   8.9924e-004  -1.1759e-004   3.4792e-003   1.7264e+007  -1.3400e+004   1.3743e+007    0.0512   -0.0000    0.0000    0.0000    0.1195
                0.6220   8.9508e-004  -1.1704e-004   3.5221e-003   1.7184e+007  -1.3345e+004   1.3912e+007    0.0510   -0.0000    0.0000    0.0000    0.1210
                0.6351   9.0239e-004  -1.1800e-004   3.5592e-003   1.7324e+007  -1.3441e+004   1.4059e+007    0.0514   -0.0000    0.0000    0.0000    0.1223
                0.6459   9.3547e-004  -1.2232e-004   3.5904e-003   1.7959e+007  -1.3877e+004   1.4182e+007    0.0533   -0.0000    0.0000    0.0000    0.1233
                0.6544   9.6156e-004  -1.2573e-004   3.6155e-003   1.8460e+007  -1.4219e+004   1.4281e+007    0.0548   -0.0000    0.0000    0.0000    0.1242
                0.6607   9.9702e-004  -1.3036e-004   3.6346e-003   1.9141e+007  -1.4680e+004   1.4357e+007    0.0568   -0.0000    0.0000    0.0000    0.1248
                0.6644   1.0250e-003  -1.3402e-004   3.6463e-003   1.9678e+007  -1.5045e+004   1.4403e+007    0.0584   -0.0000    0.0000    0.0000    0.1252
                0.6656   1.0338e-003  -1.3518e-004   3.6502e-003   1.9848e+007  -1.5162e+004   1.4418e+007    0.0589   -0.0000    0.0000    0.0000    0.1254

     Web:  panel  nNode   nLam     xc_St    xc_End         b         t         E_eff         G_eff      nu_eff     density  buckleCrit
            (-)    (-)    (-)       (-)       (-)       (m)       (m)          (Pa)          (Pa)         (-)    (kg/m^3)         (-)
              1     10      3    0.2378    0.2378    0.2578    0.0121   6.5707e+009   1.3870e+009      0.1347    691.8994      0.0972
              2     10      3    0.4622    0.4622    0.2415    0.0121   6.5707e+009   1.3870e+009      0.1347    691.8994      0.0902

            panel:  1     
           lam_num    nPlies        tPly      fibAng     matID  matName
               (-)       (-)         (m)       (deg)       (-)  (-)
                 1         1    0.002023      0.0000         7  (web-shell)
                 2         1    0.008047      0.0000         8  (web-core)
                 3         1    0.002023      0.0000         7  (web-shell)

               lamina:  1     
              matName:  (web-shell)
                     s           e11           e22           e12           s11           s22           s12   s11_fcT   s11_fcC   s22_fcT   s22_fcC   s12_fcS
                   (m)         (m/m)         (m/m)         (rad)          (Pa)          (Pa)          (Pa)       (-)       (-)       (-)       (-)       (-)
                0.0000  -5.6103e-003   7.5565e-004   1.2930e-002  -1.0765e+008   5.1386e+005   5.1072e+007    0.0000    0.2166    0.0015   -0.0000    0.4441
                0.0286  -4.3900e-003   5.9130e-004   1.3283e-002  -8.4236e+007   4.0217e+005   5.2466e+007    0.0000    0.1695    0.0012   -0.0000    0.4562
                0.0573  -3.1697e-003   4.2694e-004   1.3550e-002  -6.0821e+007   2.9049e+005   5.3524e+007    0.0000    0.1224    0.0009   -0.0000    0.4654
                0.0859  -1.9494e-003   2.6258e-004   1.3733e-002  -3.7406e+007   1.7880e+005   5.4244e+007    0.0000    0.0753    0.0005   -0.0000    0.4717
                0.1146  -7.2915e-004   9.8227e-005   1.3829e-002  -1.3991e+007   6.7118e+004   5.4626e+007    0.0000    0.0282    0.0002   -0.0000    0.4750
                0.1432   4.9382e-004  -6.6481e-005   1.3841e-002   9.4755e+006  -4.4620e+004   5.4672e+007    0.0281   -0.0000    0.0000    0.0001    0.4754
                0.1719   1.7141e-003  -2.3084e-004   1.3767e-002   3.2891e+007  -1.5630e+005   5.4381e+007    0.0976   -0.0000    0.0000    0.0005    0.4729
                0.2005   2.9344e-003  -3.9519e-004   1.3608e-002   5.6306e+007  -2.6799e+005   5.3752e+007    0.1671   -0.0000    0.0000    0.0008    0.4674
                0.2292   4.1547e-003  -5.5955e-004   1.3364e-002   7.9721e+007  -3.7968e+005   5.2786e+007    0.2366   -0.0000    0.0000    0.0011    0.4590
                0.2578   5.3750e-003  -7.2391e-004   1.3034e-002   1.0314e+008  -4.9136e+005   5.1484e+007    0.3060   -0.0000    0.0000    0.0015    0.4477

               lamina:  2     
              matName:  (web-core)
                     s           e11           e22           e12           s11           s22           s12   s11_fcT   s11_fcC   s22_fcT   s22_fcC   s12_fcS
                   (m)         (m/m)         (m/m)         (rad)          (Pa)          (Pa)          (Pa)       (-)       (-)       (-)       (-)       (-)
                0.0000  -5.6210e-003   7.5705e-004   1.2930e-002  -1.2658e+006  -2.5873e+005   1.2671e+006    0.0000    0.2951    0.0000    0.0603    0.4295
                0.0286  -4.4007e-003   5.9269e-004   1.3283e-002  -9.9099e+005  -2.0256e+005   1.3017e+006    0.0000    0.2310    0.0000    0.0472    0.4413
                0.0573  -3.1804e-003   4.2834e-004   1.3550e-002  -7.1619e+005  -1.4639e+005   1.3279e+006    0.0000    0.1669    0.0000    0.0341    0.4501
                0.0859  -1.9601e-003   2.6398e-004   1.3733e-002  -4.4140e+005  -9.0225e+004   1.3458e+006    0.0000    0.1029    0.0000    0.0210    0.4562
                0.1146  -7.3981e-004   9.9623e-005   1.3829e-002  -1.6660e+005  -3.4057e+004   1.3553e+006    0.0000    0.0388    0.0000    0.0079    0.4594
                0.1432   4.9114e-004  -6.6130e-005   1.3841e-002   1.1060e+005   2.2611e+004   1.3564e+006    0.0258   -0.0000    0.0053   -0.0000    0.4598
                0.1719   1.7114e-003  -2.3049e-004   1.3767e-002   3.8540e+005   7.8779e+004   1.3492e+006    0.0898   -0.0000    0.0184   -0.0000    0.4574
                0.2005   2.9317e-003  -3.9484e-004   1.3608e-002   6.6019e+005   1.3495e+005   1.3336e+006    0.1539   -0.0000    0.0315   -0.0000    0.4521
                0.2292   4.1520e-003  -5.5920e-004   1.3364e-002   9.3499e+005   1.9111e+005   1.3096e+006    0.2179   -0.0000    0.0445   -0.0000    0.4439
                0.2578   5.3723e-003  -7.2356e-004   1.3034e-002   1.2098e+006   2.4728e+005   1.2773e+006    0.2820   -0.0000    0.0576   -0.0000    0.4330

               lamina:  3     
              matName:  (web-shell)
                     s           e11           e22           e12           s11           s22           s12   s11_fcT   s11_fcC   s22_fcT   s22_fcC   s12_fcS
                   (m)         (m/m)         (m/m)         (rad)          (Pa)          (Pa)          (Pa)       (-)       (-)       (-)       (-)       (-)
                0.0000  -5.6237e-003   7.5740e-004   1.2930e-002  -1.0791e+008   5.1412e+005   5.1072e+007    0.0000    0.2171    0.0015   -0.0000    0.4441
                0.0286  -4.4034e-003   5.9304e-004   1.3283e-002  -8.4492e+007   4.0244e+005   5.2466e+007    0.0000    0.1700    0.0012   -0.0000    0.4562
                0.0573  -3.1831e-003   4.2869e-004   1.3550e-002  -6.1077e+007   2.9075e+005   5.3524e+007    0.0000    0.1229    0.0009   -0.0000    0.4654
                0.0859  -1.9628e-003   2.6433e-004   1.3733e-002  -3.7662e+007   1.7906e+005   5.4244e+007    0.0000    0.0758    0.0005   -0.0000    0.4717
                0.1146  -7.4249e-004   9.9974e-005   1.3829e-002  -1.4247e+007   6.7379e+004   5.4626e+007    0.0000    0.0287    0.0002   -0.0000    0.4750
                0.1432   4.8048e-004  -6.4733e-005   1.3841e-002   9.2194e+006  -4.4358e+004   5.4672e+007    0.0274   -0.0000    0.0000    0.0001    0.4754
                0.1719   1.7008e-003  -2.2909e-004   1.3767e-002   3.2634e+007  -1.5604e+005   5.4381e+007    0.0968   -0.0000    0.0000    0.0005    0.4729
                0.2005   2.9211e-003  -3.9345e-004   1.3608e-002   5.6050e+007  -2.6773e+005   5.3752e+007    0.1663   -0.0000    0.0000    0.0008    0.4674
                0.2292   4.1413e-003  -5.5780e-004   1.3364e-002   7.9465e+007  -3.7941e+005   5.2786e+007    0.2358   -0.0000    0.0000    0.0011    0.4590
                0.2578   5.3616e-003  -7.2216e-004   1.3034e-002   1.0288e+008  -4.9110e+005   5.1484e+007    0.3053   -0.0000    0.0000    0.0015    0.4477

            panel:  2     
           lam_num    nPlies        tPly      fibAng     matID  matName
               (-)       (-)         (m)       (deg)       (-)  (-)
                 1         1    0.002023      0.0000         7  (web-shell)
                 2         1    0.008047      0.0000         8  (web-core)
                 3         1    0.002023      0.0000         7  (web-shell)

               lamina:  1     
              matName:  (web-shell)
                     s           e11           e22           e12           s11           s22           s12   s11_fcT   s11_fcC   s22_fcT   s22_fcC   s12_fcS
                   (m)         (m/m)         (m/m)         (rad)          (Pa)          (Pa)          (Pa)       (-)       (-)       (-)       (-)       (-)
                0.0000  -5.2907e-003   7.1260e-004   1.4644e-002  -1.0152e+008   4.8459e+005   5.7844e+007    0.0000    0.2043    0.0014   -0.0000    0.5030
                0.0268  -4.1477e-003   5.5866e-004   1.4953e-002  -7.9586e+007   3.7998e+005   5.9064e+007    0.0000    0.1601    0.0011   -0.0000    0.5136
                0.0537  -3.0047e-003   4.0471e-004   1.5187e-002  -5.7655e+007   2.7537e+005   5.9989e+007    0.0000    0.1160    0.0008   -0.0000    0.5216
                0.0805  -1.8618e-003   2.5077e-004   1.5346e-002  -3.5723e+007   1.7076e+005   6.0618e+007    0.0000    0.0719    0.0005   -0.0000    0.5271
                0.1073  -7.1878e-004   9.6829e-005   1.5431e-002  -1.3792e+007   6.6156e+004   6.0951e+007    0.0000    0.0278    0.0002   -0.0000    0.5300
                0.1342   4.2678e-004  -5.7452e-005   1.5440e-002   8.1891e+006  -3.8503e+004   6.0989e+007    0.0243   -0.0000    0.0000    0.0001    0.5303
                0.1610   1.5697e-003  -2.1139e-004   1.5375e-002   3.0120e+007  -1.4311e+005   6.0730e+007    0.0894   -0.0000    0.0000    0.0004    0.5281
                0.1878   2.7127e-003  -3.6534e-004   1.5235e-002   5.2052e+007  -2.4772e+005   6.0176e+007    0.1545   -0.0000    0.0000    0.0007    0.5233
                0.2146   3.8557e-003  -5.1928e-004   1.5019e-002   7.3983e+007  -3.5233e+005   5.9326e+007    0.2195   -0.0000    0.0000    0.0010    0.5159
                0.2415   4.9986e-003  -6.7322e-004   1.4729e-002   9.5915e+007  -4.5694e+005   5.8181e+007    0.2846   -0.0000    0.0000    0.0014    0.5059

               lamina:  2     
              matName:  (web-core)
                     s           e11           e22           e12           s11           s22           s12   s11_fcT   s11_fcC   s22_fcT   s22_fcC   s12_fcS
                   (m)         (m/m)         (m/m)         (rad)          (Pa)          (Pa)          (Pa)       (-)       (-)       (-)       (-)       (-)
                0.0000  -5.3010e-003   7.1395e-004   1.4644e-002  -1.1937e+006  -2.4400e+005   1.4351e+006    0.0000    0.2783    0.0000    0.0569    0.4865
                0.0268  -4.1580e-003   5.6001e-004   1.4953e-002  -9.3634e+005  -1.9139e+005   1.4654e+006    0.0000    0.2183    0.0000    0.0446    0.4967
                0.0537  -3.0150e-003   4.0606e-004   1.5187e-002  -6.7895e+005  -1.3878e+005   1.4883e+006    0.0000    0.1583    0.0000    0.0323    0.5045
                0.0805  -1.8721e-003   2.5212e-004   1.5346e-002  -4.2157e+005  -8.6172e+004   1.5039e+006    0.0000    0.0983    0.0000    0.0201    0.5098
                0.1073  -7.2909e-004   9.8180e-005   1.5431e-002  -1.6418e+005  -3.3563e+004   1.5122e+006    0.0000    0.0383    0.0000    0.0078    0.5126
                0.1342   4.2418e-004  -5.7113e-005   1.5440e-002   9.5523e+004   1.9529e+004   1.5131e+006    0.0223   -0.0000    0.0046   -0.0000    0.5129
                0.1610   1.5672e-003  -2.1105e-004   1.5375e-002   3.5291e+005   7.2138e+004   1.5067e+006    0.0823   -0.0000    0.0168   -0.0000    0.5108
                0.1878   2.7101e-003  -3.6500e-004   1.5235e-002   6.1029e+005   1.2475e+005   1.4930e+006    0.1423   -0.0000    0.0291   -0.0000    0.5061
                0.2146   3.8531e-003  -5.1894e-004   1.5019e-002   8.6768e+005   1.7736e+005   1.4719e+006    0.2023   -0.0000    0.0413   -0.0000    0.4989
                0.2415   4.9961e-003  -6.7288e-004   1.4729e-002   1.1251e+006   2.2996e+005   1.4435e+006    0.2623   -0.0000    0.0536   -0.0000    0.4893

               lamina:  3     
              matName:  (web-shell)
                     s           e11           e22           e12           s11           s22           s12   s11_fcT   s11_fcC   s22_fcT   s22_fcC   s12_fcS
                   (m)         (m/m)         (m/m)         (rad)          (Pa)          (Pa)          (Pa)       (-)       (-)       (-)       (-)       (-)
                0.0000  -5.3036e-003   7.1429e-004   1.4644e-002  -1.0177e+008   4.8484e+005   5.7844e+007    0.0000    0.2048    0.0014   -0.0000    0.5030
                0.0268  -4.1606e-003   5.6035e-004   1.4953e-002  -7.9834e+007   3.8023e+005   5.9064e+007    0.0000    0.1606    0.0011   -0.0000    0.5136
                0.0537  -3.0176e-003   4.0640e-004   1.5187e-002  -5.7902e+007   2.7563e+005   5.9989e+007    0.0000    0.1165    0.0008   -0.0000    0.5216
                0.0805  -1.8746e-003   2.5246e-004   1.5346e-002  -3.5971e+007   1.7102e+005   6.0618e+007    0.0000    0.0724    0.0005   -0.0000    0.5271
                0.1073  -7.3168e-004   9.8519e-005   1.5431e-002  -1.4040e+007   6.6409e+004   6.0951e+007    0.0000    0.0282    0.0002   -0.0000    0.5300
                0.1342   4.1388e-004  -5.5763e-005   1.5440e-002   7.9415e+006  -3.8250e+004   6.0989e+007    0.0236   -0.0000    0.0000    0.0001    0.5303
                0.1610   1.5568e-003  -2.0970e-004   1.5375e-002   2.9873e+007  -1.4286e+005   6.0730e+007    0.0886   -0.0000    0.0000    0.0004    0.5281
                0.1878   2.6998e-003  -3.6365e-004   1.5235e-002   5.1804e+007  -2.4747e+005   6.0176e+007    0.1537   -0.0000    0.0000    0.0007    0.5233
                0.2146   3.8428e-003  -5.1759e-004   1.5019e-002   7.3736e+007  -3.5208e+005   5.9326e+007    0.2188   -0.0000    0.0000    0.0010    0.5159
                0.2415   4.9857e-003  -6.7153e-004   1.4729e-002   9.5667e+007  -4.5668e+005   5.8181e+007    0.2839   -0.0000    0.0000    0.0014    0.5059

================================================================================
sec        =  19     
zSec       =  5.4000  (m)
nPanelsTop =  3      
nPanelsBot =  3      
nWebs      =  2      

    Top:  panel  nNode   nLam     xc_St    xc_End         b         t         E_eff         G_eff      nu_eff     density  buckleCrit
            (-)    (-)    (-)       (-)       (-)       (m)       (m)          (Pa)          (Pa)         (-)    (kg/m^3)         (-)
              1     18      3    0.0000    0.2373    0.3243    0.0080   1.8715e+010   3.8515e+009      0.1301   1632.4251      0.3050
              2      9      5    0.2373    0.4627    0.2632    0.0119   5.4851e+010   4.1959e+009      0.1628   1595.5399      0.4716
              3     28      3    0.4627    1.0000    0.6464    0.0099   1.5149e+010   3.1279e+009      0.1307   1356.2601      0.8946

            panel:  1     
           lam_num    nPlies        tPly      fibAng     matID  matName
               (-)       (-)         (m)       (deg)       (-)  (-)
                 1         1    0.003898      0.0000         2  (blade-shell)
                 2         1    0.000205      0.0000         5  (LEP-core)
                 3         1    0.003898      0.0000         2  (blade-shell)

               lamina:  1     
              matName:  (blade-shell)
                     s           e11           e22           e12           s11           s22           s12   s11_fcT   s11_fcC   s22_fcT   s22_fcC   s12_fcS
                   (m)         (m/m)         (m/m)         (rad)          (Pa)          (Pa)          (Pa)       (-)       (-)       (-)       (-)       (-)
                0.0000   4.0866e-004  -5.3152e-005   6.8088e-003   7.8462e+006  -5.1038e+002   2.6895e+007    0.0233   -0.0000    0.0000    0.0000    0.2339
                0.0037   2.5721e-004  -3.3454e-005   6.8114e-003   4.9384e+006  -3.2319e+002   2.6905e+007    0.0147   -0.0000    0.0000    0.0000    0.2340
                0.0146  -3.7685e-004   4.9002e-005   6.8101e-003  -7.2355e+006   2.2661e+002   2.6900e+007    0.0000    0.0146    0.0000   -0.0000    0.2339
                0.0281  -9.8863e-004   1.2857e-004   6.7906e-003  -1.8982e+007   8.8193e+002   2.6823e+007    0.0000    0.0382    0.0000   -0.0000    0.2332
                0.0396  -1.4232e-003   1.8509e-004   6.7596e-003  -2.7326e+007   1.3390e+003   2.6701e+007    0.0000    0.0550    0.0000   -0.0000    0.2322
                0.0549  -1.9438e-003   2.5279e-004   6.7008e-003  -3.7320e+007   1.9463e+003   2.6468e+007    0.0000    0.0751    0.0000   -0.0000    0.2302
                0.0707  -2.4073e-003   3.1307e-004   6.6205e-003  -4.6219e+007   2.4744e+003   2.6151e+007    0.0000    0.0930    0.0000   -0.0000    0.2274
                0.0886  -2.8657e-003   3.7269e-004   6.5078e-003  -5.5020e+007   3.0267e+003   2.5706e+007    0.0000    0.1107    0.0000   -0.0000    0.2235
                0.1087  -3.3773e-003   4.3923e-004   6.3561e-003  -6.4843e+007   3.6306e+003   2.5106e+007    0.0000    0.1305    0.0000   -0.0000    0.2183
                0.1293  -3.7766e-003   4.9116e-004   6.1762e-003  -7.2509e+007   4.1022e+003   2.4396e+007    0.0000    0.1459    0.0000   -0.0000    0.2121
                0.1523  -4.2088e-003   5.4737e-004   5.9507e-003  -8.0807e+007   4.6285e+003   2.3505e+007    0.0000    0.1626    0.0000   -0.0000    0.2044
                0.1765  -4.6135e-003   6.0002e-004   5.6857e-003  -8.8579e+007   5.1142e+003   2.2458e+007    0.0000    0.1782    0.0000   -0.0000    0.1953
                0.2021  -4.9652e-003   6.4576e-004   5.3799e-003  -9.5331e+007   5.5423e+003   2.1251e+007    0.0000    0.1918    0.0000   -0.0000    0.1848
                0.2295  -5.3419e-003   6.9475e-004   5.0271e-003  -1.0256e+008   5.9995e+003   1.9857e+007    0.0000    0.2064    0.0000   -0.0000    0.1727
                0.2577  -5.6229e-003   7.3130e-004   4.6387e-003  -1.0796e+008   6.3387e+003   1.8323e+007    0.0000    0.2172    0.0000   -0.0000    0.1593
                0.2874  -5.8930e-003   7.6643e-004   4.2076e-003  -1.1314e+008   6.6700e+003   1.6620e+007    0.0000    0.2277    0.0000   -0.0000    0.1445
                0.3184  -6.1464e-003   7.9940e-004   3.7372e-003  -1.1801e+008   6.9806e+003   1.4762e+007    0.0000    0.2374    0.0000   -0.0000    0.1284
                0.3243  -6.1787e-003   8.0359e-004   3.6451e-003  -1.1863e+008   7.0146e+003   1.4398e+007    0.0000    0.2387    0.0000   -0.0000    0.1252

               lamina:  2     
              matName:  (LEP-core)
                     s           e11           e22           e12           s11           s22           s12   s11_fcT   s11_fcC   s22_fcT   s22_fcC   s12_fcS
                   (m)         (m/m)         (m/m)         (rad)          (Pa)          (Pa)          (Pa)       (-)       (-)       (-)       (-)       (-)
                0.0000   4.1721e-004  -5.4263e-005   6.8088e-003   9.4101e+004   1.9658e+004   6.6726e+005    0.0219   -0.0000    0.0046   -0.0000    0.2262
                0.0037   2.6576e-004  -3.4565e-005   6.8114e-003   5.9941e+004   1.2522e+004   6.6752e+005    0.0140   -0.0000    0.0029   -0.0000    0.2263
                0.0146  -1.8817e-004   2.4474e-005   6.8101e-003  -4.2441e+004  -8.8662e+003   6.6739e+005    0.0000    0.0099    0.0000    0.0021    0.2262
                0.0281  -7.2041e-004   9.3699e-005   6.7906e-003  -1.6249e+005  -3.3944e+004   6.6547e+005    0.0000    0.0379    0.0000    0.0079    0.2256
                0.0396  -1.0919e-003   1.4201e-004   6.7596e-003  -2.4627e+005  -5.1446e+004   6.6244e+005    0.0000    0.0574    0.0000    0.0120    0.2246
                0.0549  -1.5839e-003   2.0601e-004   6.7008e-003  -3.5725e+005  -7.4631e+004   6.5668e+005    0.0000    0.0833    0.0000    0.0174    0.2226
                0.0707  -2.0121e-003   2.6170e-004   6.6205e-003  -4.5383e+005  -9.4806e+004   6.4881e+005    0.0000    0.1058    0.0000    0.0221    0.2199
                0.0886  -2.4592e-003   3.1985e-004   6.5078e-003  -5.5467e+005  -1.1587e+005   6.3776e+005    0.0000    0.1293    0.0000    0.0270    0.2162
                0.1087  -2.9484e-003   3.8347e-004   6.3561e-003  -6.6500e+005  -1.3892e+005   6.2290e+005    0.0000    0.1550    0.0000    0.0324    0.2112
                0.1293  -3.3304e-003   4.3316e-004   6.1762e-003  -7.5116e+005  -1.5692e+005   6.0527e+005    0.0000    0.1751    0.0000    0.0366    0.2052
                0.1523  -3.7564e-003   4.8857e-004   5.9507e-003  -8.4725e+005  -1.7699e+005   5.8317e+005    0.0000    0.1975    0.0000    0.0413    0.1977
                0.1765  -4.1497e-003   5.3972e-004   5.6857e-003  -9.3595e+005  -1.9552e+005   5.5719e+005    0.0000    0.2182    0.0000    0.0456    0.1889
                0.2021  -4.4961e-003   5.8478e-004   5.3799e-003  -1.0141e+006  -2.1185e+005   5.2723e+005    0.0000    0.2364    0.0000    0.0494    0.1787
                0.2295  -4.8662e-003   6.3291e-004   5.0271e-003  -1.0976e+006  -2.2929e+005   4.9266e+005    0.0000    0.2558    0.0000    0.0534    0.1670
                0.2577  -5.1408e-003   6.6863e-004   4.6387e-003  -1.1595e+006  -2.4222e+005   4.5460e+005    0.0000    0.2703    0.0000    0.0565    0.1541
                0.2874  -5.4089e-003   7.0350e-004   4.2076e-003  -1.2200e+006  -2.5486e+005   4.1235e+005    0.0000    0.2844    0.0000    0.0594    0.1398
                0.3184  -5.6603e-003   7.3619e-004   3.7372e-003  -1.2767e+006  -2.6670e+005   3.6624e+005    0.0000    0.2976    0.0000    0.0622    0.1242
                0.3243  -5.6879e-003   7.3978e-004   3.6451e-003  -1.2829e+006  -2.6800e+005   3.5722e+005    0.0000    0.2990    0.0000    0.0625    0.1211

               lamina:  3     
              matName:  (blade-shell)
                     s           e11           e22           e12           s11           s22           s12   s11_fcT   s11_fcC   s22_fcT   s22_fcC   s12_fcS
                   (m)         (m/m)         (m/m)         (rad)          (Pa)          (Pa)          (Pa)       (-)       (-)       (-)       (-)       (-)
                0.0000   5.8011e-004  -7.5441e-005   6.8088e-003   1.1138e+007  -5.1051e+002   2.6895e+007    0.0331   -0.0000    0.0000    0.0000    0.2339
                0.0037   4.2866e-004  -5.5743e-005   6.8114e-003   8.2303e+006  -3.2332e+002   2.6905e+007    0.0244   -0.0000    0.0000    0.0000    0.2340
                0.0146  -1.7827e-004   2.3187e-005   6.8101e-003  -3.4228e+006   2.2645e+002   2.6900e+007    0.0000    0.0069    0.0000   -0.0000    0.2339
                0.0281  -7.0634e-004   9.1869e-005   6.7906e-003  -1.3562e+007   8.8171e+002   2.6823e+007    0.0000    0.0273    0.0000   -0.0000    0.2332
                0.0396  -1.0745e-003   1.3975e-004   6.7596e-003  -2.0630e+007   1.3388e+003   2.6701e+007    0.0000    0.0415    0.0000   -0.0000    0.2322
                0.0549  -1.5650e-003   2.0355e-004   6.7008e-003  -3.0048e+007   1.9460e+003   2.6468e+007    0.0000    0.0605    0.0000   -0.0000    0.2302
                0.0707  -1.9914e-003   2.5900e-004   6.6205e-003  -3.8234e+007   2.4741e+003   2.6151e+007    0.0000    0.0769    0.0000   -0.0000    0.2274
                0.0886  -2.4379e-003   3.1708e-004   6.5078e-003  -4.6807e+007   3.0263e+003   2.5706e+007    0.0000    0.0942    0.0000   -0.0000    0.2235
                0.1087  -2.9259e-003   3.8055e-004   6.3561e-003  -5.6176e+007   3.6302e+003   2.5106e+007    0.0000    0.1130    0.0000   -0.0000    0.2183
                0.1293  -3.3070e-003   4.3012e-004   6.1762e-003  -6.3493e+007   4.1018e+003   2.4396e+007    0.0000    0.1278    0.0000   -0.0000    0.2121
                0.1523  -3.7326e-003   4.8548e-004   5.9507e-003  -7.1666e+007   4.6281e+003   2.3505e+007    0.0000    0.1442    0.0000   -0.0000    0.2044
                0.1765  -4.1253e-003   5.3655e-004   5.6857e-003  -7.9206e+007   5.1139e+003   2.2458e+007    0.0000    0.1594    0.0000   -0.0000    0.1953
                0.2021  -4.4715e-003   5.8158e-004   5.3799e-003  -8.5852e+007   5.5419e+003   2.1251e+007    0.0000    0.1727    0.0000   -0.0000    0.1848
                0.2295  -4.8412e-003   6.2967e-004   5.0271e-003  -9.2951e+007   5.9991e+003   1.9857e+007    0.0000    0.1870    0.0000   -0.0000    0.1727
                0.2577  -5.1155e-003   6.6534e-004   4.6387e-003  -9.8217e+007   6.3383e+003   1.8323e+007    0.0000    0.1976    0.0000   -0.0000    0.1593
                0.2874  -5.3835e-003   7.0020e-004   4.2076e-003  -1.0336e+008   6.6696e+003   1.6620e+007    0.0000    0.2080    0.0000   -0.0000    0.1445
                0.3184  -5.6348e-003   7.3288e-004   3.7372e-003  -1.0819e+008   6.9802e+003   1.4762e+007    0.0000    0.2177    0.0000   -0.0000    0.1284
                0.3243  -5.6621e-003   7.3644e-004   3.6451e-003  -1.0871e+008   7.0142e+003   1.4398e+007    0.0000    0.2187    0.0000   -0.0000    0.1252

            panel:  2     
           lam_num    nPlies        tPly      fibAng     matID  matName
               (-)       (-)         (m)       (deg)       (-)  (-)
                 1         1    0.003898      0.0000         2  (blade-shell)
                 2         1    0.002051      0.0000         3  (spar-uni)
                 3         1    0.000047      0.0000         4  (spar-core)
                 4         1    0.002051      0.0000         3  (spar-uni)
                 5         1    0.003898      0.0000         2  (blade-shell)

               lamina:  1     
              matName:  (blade-shell)
                     s           e11           e22           e12           s11           s22           s12   s11_fcT   s11_fcC   s22_fcT   s22_fcC   s12_fcS
                   (m)         (m/m)         (m/m)         (rad)          (Pa)          (Pa)          (Pa)       (-)       (-)       (-)       (-)       (-)
                0.0000  -7.3862e-003   1.1492e-003   6.4631e-003  -1.4134e+008   3.6909e+006   2.5529e+007    0.0000    0.2844    0.0110   -0.0000    0.2220
                0.0257  -7.5074e-003   1.1689e-003   5.3889e-003  -1.4365e+008   3.7684e+006   2.1286e+007    0.0000    0.2890    0.0112   -0.0000    0.1851
                0.0585  -7.6676e-003   1.1948e-003   3.9855e-003  -1.4672e+008   3.8679e+006   1.5743e+007    0.0000    0.2952    0.0115   -0.0000    0.1369
                0.0920  -7.7393e-003   1.2064e-003   2.5284e-003  -1.4809e+008   3.9109e+006   9.9870e+006    0.0000    0.2980    0.0116   -0.0000    0.0868
                0.1265  -7.7406e-003   1.2065e-003   1.0218e-003  -1.4811e+008   3.9114e+006   4.0360e+006    0.0000    0.2980    0.0116   -0.0000    0.0351
                0.1615  -7.7396e-003   1.2065e-003   5.0770e-004  -1.4809e+008   3.9120e+006   2.0054e+006    0.0000    0.2980    0.0116   -0.0000    0.0174
                0.1971  -7.5816e-003   1.1809e-003   2.0451e-003  -1.4507e+008   3.8150e+006   8.0783e+006    0.0000    0.2919    0.0113   -0.0000    0.0702
                0.2335  -7.4169e-003   1.1542e-003   3.5682e-003  -1.4192e+008   3.7112e+006   1.4094e+007    0.0000    0.2856    0.0110   -0.0000    0.1226
                0.2632  -7.2487e-003   1.1269e-003   4.7778e-003  -1.3871e+008   3.6053e+006   1.8872e+007    0.0000    0.2791    0.0107   -0.0000    0.1641

               lamina:  2     
              matName:  (spar-uni)
                     s           e11           e22           e12           s11           s22           s12   s11_fcT   s11_fcC   s22_fcT   s22_fcC   s12_fcS
                   (m)         (m/m)         (m/m)         (rad)          (Pa)          (Pa)          (Pa)       (-)       (-)       (-)       (-)       (-)
                0.0000  -6.2140e-003   9.9298e-004   6.4631e-003  -7.6671e+008  -7.7030e+006   3.0441e+007    0.0000    0.7667    0.0000    0.1286    0.2955
                0.0257  -6.3352e-003   1.0127e-003   5.3889e-003  -7.8167e+008  -7.8503e+006   2.5382e+007    0.0000    0.7817    0.0000    0.1311    0.2464
                0.0585  -6.4919e-003   1.0382e-003   3.9855e-003  -8.0100e+008  -8.0411e+006   1.8772e+007    0.0000    0.8010    0.0000    0.1342    0.1822
                0.0920  -6.5604e-003   1.0492e-003   2.5284e-003  -8.0945e+008  -8.1247e+006   1.1909e+007    0.0000    0.8094    0.0000    0.1356    0.1156
                0.1265  -6.5614e-003   1.0494e-003   1.0218e-003  -8.0957e+008  -8.1260e+006   4.8125e+006    0.0000    0.8096    0.0000    0.1357    0.0467
                0.1615  -6.5618e-003   1.0495e-003   5.0770e-004  -8.0962e+008  -8.1263e+006   2.3913e+006    0.0000    0.8096    0.0000    0.1357    0.0232
                0.1971  -6.4084e-003   1.0246e-003   2.0451e-003  -7.9069e+008  -7.9393e+006   9.6326e+006    0.0000    0.7907    0.0000    0.1325    0.0935
                0.2335  -6.2454e-003   9.9810e-004   3.5682e-003  -7.7059e+008  -7.7410e+006   1.6806e+007    0.0000    0.7706    0.0000    0.1292    0.1632
                0.2632  -6.0793e-003   9.7109e-004   4.7778e-003  -7.5009e+008  -7.5389e+006   2.2503e+007    0.0000    0.7501    0.0000    0.1259    0.2185

               lamina:  3     
              matName:  (spar-core)
                     s           e11           e22           e12           s11           s22           s12   s11_fcT   s11_fcC   s22_fcT   s22_fcC   s12_fcS
                   (m)         (m/m)         (m/m)         (rad)          (Pa)          (Pa)          (Pa)       (-)       (-)       (-)       (-)       (-)
                0.0000  -5.5971e-003   9.1076e-004   6.4631e-003  -1.2482e+006  -2.2065e+005   6.3339e+005    0.0000    0.2910    0.0000    0.0514    0.2147
                0.0257  -5.7183e-003   9.3049e-004   5.3889e-003  -1.2752e+006  -2.2543e+005   5.2811e+005    0.0000    0.2973    0.0000    0.0525    0.1790
                0.0585  -5.8732e-003   9.5570e-004   3.9855e-003  -1.3098e+006  -2.3153e+005   3.9058e+005    0.0000    0.3053    0.0000    0.0540    0.1324
                0.0920  -5.9400e-003   9.6657e-004   2.5284e-003  -1.3247e+006  -2.3416e+005   2.4778e+005    0.0000    0.3088    0.0000    0.0546    0.0840
                0.1265  -5.9408e-003   9.6670e-004   1.0218e-003  -1.3249e+006  -2.3419e+005   1.0013e+005    0.0000    0.3088    0.0000    0.0546    0.0339
                0.1615  -5.9420e-003   9.6689e-004   5.0770e-004  -1.3251e+006  -2.3424e+005   4.9755e+004    0.0000    0.3089    0.0000    0.0546    0.0169
                0.1971  -5.7909e-003   9.4231e-004   2.0451e-003  -1.2914e+006  -2.2829e+005   2.0042e+005    0.0000    0.3010    0.0000    0.0532    0.0679
                0.2335  -5.6289e-003   9.1594e-004   3.5682e-003  -1.2553e+006  -2.2190e+005   3.4968e+005    0.0000    0.2926    0.0000    0.0517    0.1185
                0.2632  -5.4638e-003   8.8907e-004   4.7778e-003  -1.2185e+006  -2.1539e+005   4.6822e+005    0.0000    0.2840    0.0000    0.0502    0.1587

               lamina:  4     
              matName:  (spar-uni)
                     s           e11           e22           e12           s11           s22           s12   s11_fcT   s11_fcC   s22_fcT   s22_fcC   s12_fcS
                   (m)         (m/m)         (m/m)         (rad)          (Pa)          (Pa)          (Pa)       (-)       (-)       (-)       (-)       (-)
                0.0000  -5.5830e-003   9.0889e-004   6.4631e-003  -6.8881e+008  -6.7826e+006   3.0441e+007    0.0000    0.6888    0.0000    0.1132    0.2955
                0.0257  -5.7042e-003   9.2861e-004   5.3889e-003  -7.0377e+008  -6.9299e+006   2.5382e+007    0.0000    0.7038    0.0000    0.1157    0.2464
                0.0585  -5.8591e-003   9.5382e-004   3.9855e-003  -7.2287e+008  -7.1181e+006   1.8772e+007    0.0000    0.7229    0.0000    0.1188    0.1822
                0.0920  -5.9258e-003   9.6468e-004   2.5284e-003  -7.3111e+008  -7.1992e+006   1.1909e+007    0.0000    0.7311    0.0000    0.1202    0.1156
                0.1265  -5.9266e-003   9.6481e-004   1.0218e-003  -7.3121e+008  -7.2001e+006   4.8125e+006    0.0000    0.7312    0.0000    0.1202    0.0467
                0.1615  -5.9278e-003   9.6501e-004   5.0770e-004  -7.3136e+008  -7.2016e+006   2.3913e+006    0.0000    0.7314    0.0000    0.1202    0.0232
                0.1971  -5.7768e-003   9.4043e-004   2.0451e-003  -7.1272e+008  -7.0181e+006   9.6326e+006    0.0000    0.7127    0.0000    0.1172    0.0935
                0.2335  -5.6148e-003   9.1406e-004   3.5682e-003  -6.9274e+008  -6.8213e+006   1.6806e+007    0.0000    0.6927    0.0000    0.1139    0.1632
                0.2632  -5.4497e-003   8.8719e-004   4.7778e-003  -6.7237e+008  -6.6207e+006   2.2503e+007    0.0000    0.6724    0.0000    0.1105    0.2185

               lamina:  5     
              matName:  (blade-shell)
                     s           e11           e22           e12           s11           s22           s12   s11_fcT   s11_fcC   s22_fcT   s22_fcC   s12_fcS
                   (m)         (m/m)         (m/m)         (rad)          (Pa)          (Pa)          (Pa)       (-)       (-)       (-)       (-)       (-)
                0.0000  -4.9661e-003   8.2667e-004   6.4631e-003  -9.4890e+007   3.5364e+006   2.5529e+007    0.0000    0.1909    0.0105   -0.0000    0.2220
                0.0257  -5.0873e-003   8.4640e-004   5.3889e-003  -9.7207e+007   3.6140e+006   2.1286e+007    0.0000    0.1956    0.0107   -0.0000    0.1851
                0.0585  -5.2403e-003   8.7136e-004   3.9855e-003  -1.0013e+008   3.7130e+006   1.5743e+007    0.0000    0.2015    0.0110   -0.0000    0.1369
                0.0920  -5.3054e-003   8.8200e-004   2.5284e-003  -1.0138e+008   3.7555e+006   9.9870e+006    0.0000    0.2040    0.0111   -0.0000    0.0868
                0.1265  -5.3060e-003   8.8211e-004   1.0218e-003  -1.0139e+008   3.7561e+006   4.0360e+006    0.0000    0.2040    0.0111   -0.0000    0.0351
                0.1615  -5.3080e-003   8.8240e-004   5.0770e-004  -1.0143e+008   3.7569e+006   2.0054e+006    0.0000    0.2041    0.0111   -0.0000    0.0174
                0.1971  -5.1594e-003   8.5814e-004   2.0451e-003  -9.8584e+007   3.6604e+006   8.0783e+006    0.0000    0.1984    0.0109   -0.0000    0.0702
                0.2335  -4.9983e-003   8.3190e-004   3.5682e-003  -9.5505e+007   3.5568e+006   1.4094e+007    0.0000    0.1922    0.0106   -0.0000    0.1226
                0.2632  -4.8343e-003   8.0517e-004   4.7778e-003  -9.2369e+007   3.4513e+006   1.8872e+007    0.0000    0.1859    0.0102   -0.0000    0.1641

            panel:  3     
           lam_num    nPlies        tPly      fibAng     matID  matName
               (-)       (-)         (m)       (deg)       (-)  (-)
                 1         1    0.003898      0.0000         2  (blade-shell)
                 2         1    0.002115      0.0000         6  (TEP-core)
                 3         1    0.003898      0.0000         2  (blade-shell)

               lamina:  1     
              matName:  (blade-shell)
                     s           e11           e22           e12           s11           s22           s12   s11_fcT   s11_fcC   s22_fcT   s22_fcC   s12_fcS
                   (m)         (m/m)         (m/m)         (rad)          (Pa)          (Pa)          (Pa)       (-)       (-)       (-)       (-)       (-)
                0.0000  -6.0093e-003   7.8481e-004   1.9774e-006  -1.1537e+008   7.0351e+004   7.8109e+003    0.0000    0.2321    0.0002   -0.0000    0.0001
                0.0068  -5.9685e-003   7.7948e-004   1.0259e-004  -1.1459e+008   6.9875e+004   4.0523e+005    0.0000    0.2306    0.0002   -0.0000    0.0035
                0.0439  -5.6749e-003   7.4113e-004   6.3965e-004  -1.0895e+008   6.6143e+004   2.5266e+006    0.0000    0.2192    0.0002   -0.0000    0.0220
                0.0811  -5.3807e-003   7.0269e-004   1.1457e-003  -1.0330e+008   6.2416e+004   4.5256e+006    0.0000    0.2079    0.0002   -0.0000    0.0394
                0.1183  -5.0223e-003   6.5586e-004   1.6195e-003  -9.6421e+007   5.7886e+004   6.3969e+006    0.0000    0.1940    0.0002   -0.0000    0.0556
                0.1554  -4.6381e-003   6.0567e-004   2.0545e-003  -8.9045e+007   5.3004e+004   8.1154e+006    0.0000    0.1792    0.0002   -0.0000    0.0706
                0.1921  -4.2547e-003   5.5557e-004   2.4454e-003  -8.1683e+007   4.8144e+004   9.6592e+006    0.0000    0.1644    0.0001   -0.0000    0.0840
                0.2285  -3.8201e-003   4.9879e-004   2.7924e-003  -7.3340e+007   4.2634e+004   1.1030e+007    0.0000    0.1476    0.0001   -0.0000    0.0959
                0.2643  -3.3953e-003   4.4330e-004   3.0909e-003  -6.5186e+007   3.7226e+004   1.2209e+007    0.0000    0.1312    0.0001   -0.0000    0.1062
                0.2992  -2.9698e-003   3.8771e-004   3.3414e-003  -5.7017e+007   3.1817e+004   1.3199e+007    0.0000    0.1147    0.0001   -0.0000    0.1148
                0.3332  -2.5423e-003   3.3186e-004   3.5456e-003  -4.8810e+007   2.6376e+004   1.4005e+007    0.0000    0.0982    0.0001   -0.0000    0.1218
                0.3661  -2.1298e-003   2.7796e-004   3.7049e-003  -4.0890e+007   2.1116e+004   1.4635e+007    0.0000    0.0823    0.0001   -0.0000    0.1273
                0.3976  -1.7353e-003   2.2641e-004   3.8229e-003  -3.3316e+007   1.6086e+004   1.5100e+007    0.0000    0.0670    0.0000   -0.0000    0.1313
                0.4278  -1.3589e-003   1.7724e-004   3.9035e-003  -2.6090e+007   1.1286e+004   1.5419e+007    0.0000    0.0525    0.0000   -0.0000    0.1341
                0.4564  -1.0050e-003   1.3100e-004   3.9511e-003  -1.9296e+007   6.7618e+003   1.5607e+007    0.0000    0.0388    0.0000   -0.0000    0.1357
                0.4833  -6.8642e-004   8.9372e-005   3.9708e-003  -1.3179e+007   2.6890e+003   1.5685e+007    0.0000    0.0265    0.0000   -0.0000    0.1364
                0.5085  -3.8837e-004   5.0431e-005   3.9678e-003  -7.4568e+006  -1.2994e+003   1.5673e+007    0.0000    0.0150    0.0000    0.0000    0.1363
                0.5318   2.6561e-004  -3.4769e-005   3.9469e-003   5.0990e+006  -4.6852e+003   1.5590e+007    0.0151   -0.0000    0.0000    0.0000    0.1356
                0.5531   4.9878e-004  -6.5234e-005   3.9131e-003   9.5757e+006  -7.6594e+003   1.5457e+007    0.0284   -0.0000    0.0000    0.0000    0.1344
                0.5724   7.1008e-004  -9.2841e-005   3.8706e-003   1.3632e+007  -1.0356e+004   1.5289e+007    0.0405   -0.0000    0.0000    0.0000    0.1329
                0.5895   8.8277e-004  -1.1540e-004   3.8237e-003   1.6947e+007  -1.2561e+004   1.5104e+007    0.0503   -0.0000    0.0000    0.0000    0.1313
                0.6045   1.0319e-003  -1.3489e-004   3.7762e-003   1.9811e+007  -1.4463e+004   1.4916e+007    0.0588   -0.0000    0.0000    0.0000    0.1297
                0.6172   1.1572e-003  -1.5125e-004   3.7308e-003   2.2216e+007  -1.6062e+004   1.4737e+007    0.0659   -0.0000    0.0000    0.0000    0.1281
                0.6277   1.2552e-003  -1.6406e-004   3.6902e-003   2.4098e+007  -1.7314e+004   1.4576e+007    0.0715   -0.0000    0.0000    0.0001    0.1268
                0.6359   1.3317e-003  -1.7405e-004   3.6567e-003   2.5565e+007  -1.8287e+004   1.4444e+007    0.0759   -0.0000    0.0000    0.0001    0.1256
                0.6417   1.3887e-003  -1.8151e-004   3.6316e-003   2.6661e+007  -1.9013e+004   1.4345e+007    0.0791   -0.0000    0.0000    0.0001    0.1247
                0.6452   1.4241e-003  -1.8613e-004   3.6160e-003   2.7340e+007  -1.9462e+004   1.4283e+007    0.0811   -0.0000    0.0000    0.0001    0.1242
                0.6464   1.4359e-003  -1.8768e-004   3.6107e-003   2.7568e+007  -1.9613e+004   1.4262e+007    0.0818   -0.0000    0.0000    0.0001    0.1240

               lamina:  2     
              matName:  (TEP-core)
                     s           e11           e22           e12           s11           s22           s12   s11_fcT   s11_fcC   s22_fcT   s22_fcC   s12_fcS
                   (m)         (m/m)         (m/m)         (rad)          (Pa)          (Pa)          (Pa)       (-)       (-)       (-)       (-)       (-)
                0.0000  -5.6091e-003   7.3277e-004   1.9774e-006  -1.2649e+006  -2.6352e+005   1.9379e+002    0.0000    0.2948    0.0000    0.0614    0.0001
                0.0068  -5.5711e-003   7.2781e-004   1.0259e-004  -1.2563e+006  -2.6174e+005   1.0054e+004    0.0000    0.2928    0.0000    0.0610    0.0034
                0.0439  -5.2781e-003   6.8953e-004   6.3965e-004  -1.1902e+006  -2.4798e+005   6.2686e+004    0.0000    0.2774    0.0000    0.0578    0.0212
                0.0811  -4.9854e-003   6.5129e-004   1.1457e-003  -1.1242e+006  -2.3423e+005   1.1228e+005    0.0000    0.2621    0.0000    0.0546    0.0381
                0.1183  -4.6295e-003   6.0479e-004   1.6195e-003  -1.0440e+006  -2.1751e+005   1.5871e+005    0.0000    0.2434    0.0000    0.0507    0.0538
                0.1554  -4.2463e-003   5.5472e-004   2.0545e-003  -9.5756e+005  -1.9950e+005   2.0135e+005    0.0000    0.2232    0.0000    0.0465    0.0683
                0.1921  -3.8647e-003   5.0486e-004   2.4454e-003  -8.7150e+005  -1.8157e+005   2.3964e+005    0.0000    0.2031    0.0000    0.0423    0.0812
                0.2285  -3.4320e-003   4.4833e-004   2.7924e-003  -7.7392e+005  -1.6125e+005   2.7366e+005    0.0000    0.1804    0.0000    0.0376    0.0928
                0.2643  -3.0076e-003   3.9289e-004   3.0909e-003  -6.7823e+005  -1.4131e+005   3.0290e+005    0.0000    0.1581    0.0000    0.0329    0.1027
                0.2992  -2.5830e-003   3.3742e-004   3.3414e-003  -5.8249e+005  -1.2136e+005   3.2746e+005    0.0000    0.1358    0.0000    0.0283    0.1110
                0.3332  -2.1561e-003   2.8164e-004   3.5456e-003  -4.8622e+005  -1.0131e+005   3.4747e+005    0.0000    0.1133    0.0000    0.0236    0.1178
                0.3661  -1.7435e-003   2.2773e-004   3.7049e-003  -3.9318e+005  -8.1925e+004   3.6308e+005    0.0000    0.0916    0.0000    0.0191    0.1231
                0.3976  -1.3489e-003   1.7617e-004   3.8229e-003  -3.0419e+005  -6.3387e+004   3.7464e+005    0.0000    0.0709    0.0000    0.0148    0.1270
                0.4278  -9.7240e-004   1.2698e-004   3.9035e-003  -2.1928e+005  -4.5698e+004   3.8254e+005    0.0000    0.0511    0.0000    0.0107    0.1297
                0.4564  -6.1768e-004   8.0636e-005   3.9511e-003  -1.3929e+005  -2.9034e+004   3.8721e+005    0.0000    0.0325    0.0000    0.0068    0.1313
                0.4833  -2.9834e-004   3.8913e-005   3.9708e-003  -6.7281e+004  -1.4031e+004   3.8914e+005    0.0000    0.0157    0.0000    0.0033    0.1319
                0.5085   2.1123e-004  -2.7531e-005   3.9678e-003   4.7637e+004   9.9388e+003   3.8885e+005    0.0111   -0.0000    0.0023   -0.0000    0.1318
                0.5318   4.7716e-004  -6.2275e-005   3.9469e-003   1.0761e+005   2.2432e+004   3.8679e+005    0.0251   -0.0000    0.0052   -0.0000    0.1311
                0.5531   7.1064e-004  -9.2781e-005   3.9131e-003   1.6026e+005   3.3401e+004   3.8348e+005    0.0374   -0.0000    0.0078   -0.0000    0.1300
                0.5724   9.2247e-004  -1.2046e-004   3.8706e-003   2.0802e+005   4.3352e+004   3.7932e+005    0.0485   -0.0000    0.0101   -0.0000    0.1286
                0.5895   1.0958e-003  -1.4310e-004   3.8237e-003   2.4711e+005   5.1495e+004   3.7473e+005    0.0576   -0.0000    0.0120   -0.0000    0.1270
                0.6045   1.2451e-003  -1.6261e-004   3.7762e-003   2.8078e+005   5.8509e+004   3.7007e+005    0.0654   -0.0000    0.0136   -0.0000    0.1254
                0.6172   1.3707e-003  -1.7902e-004   3.7308e-003   3.0910e+005   6.4410e+004   3.6562e+005    0.0721   -0.0000    0.0150   -0.0000    0.1239
                0.6277   1.4690e-003  -1.9186e-004   3.6902e-003   3.3127e+005   6.9029e+004   3.6164e+005    0.0772   -0.0000    0.0161   -0.0000    0.1226
                0.6359   1.5453e-003  -2.0183e-004   3.6567e-003   3.4847e+005   7.2612e+004   3.5835e+005    0.0812   -0.0000    0.0169   -0.0000    0.1215
                0.6417   1.6020e-003  -2.0924e-004   3.6316e-003   3.6126e+005   7.5276e+004   3.5590e+005    0.0842   -0.0000    0.0175   -0.0000    0.1206
                0.6452   1.6372e-003  -2.1383e-004   3.6160e-003   3.6919e+005   7.6928e+004   3.5437e+005    0.0861   -0.0000    0.0179   -0.0000    0.1201
                0.6464   1.6490e-003  -2.1538e-004   3.6107e-003   3.7186e+005   7.7484e+004   3.5385e+005    0.0867   -0.0000    0.0181   -0.0000    0.1199

               lamina:  3     
              matName:  (blade-shell)
                     s           e11           e22           e12           s11           s22           s12   s11_fcT   s11_fcC   s22_fcT   s22_fcC   s12_fcS
                   (m)         (m/m)         (m/m)         (rad)          (Pa)          (Pa)          (Pa)       (-)       (-)       (-)       (-)       (-)
                0.0000  -5.3919e-003   7.0453e-004   1.9774e-006  -1.0351e+008   7.0066e+004   7.8109e+003    0.0000    0.2083    0.0002   -0.0000    0.0001
                0.0068  -5.3554e-003   6.9976e-004   1.0259e-004  -1.0281e+008   6.9591e+004   4.0523e+005    0.0000    0.2069    0.0002   -0.0000    0.0035
                0.0439  -5.0628e-003   6.6153e-004   6.3965e-004  -9.7197e+007   6.5859e+004   2.5266e+006    0.0000    0.1956    0.0002   -0.0000    0.0220
                0.0811  -4.7709e-003   6.2340e-004   1.1457e-003  -9.1594e+007   6.2134e+004   4.5256e+006    0.0000    0.1843    0.0002   -0.0000    0.0394
                0.1183  -4.4163e-003   5.7707e-004   1.6195e-003  -8.4786e+007   5.7606e+004   6.3969e+006    0.0000    0.1706    0.0002   -0.0000    0.0556
                0.1554  -4.0336e-003   5.2707e-004   2.0545e-003  -7.7439e+007   5.2724e+004   8.1154e+006    0.0000    0.1558    0.0002   -0.0000    0.0706
                0.1921  -3.6530e-003   4.7734e-004   2.4454e-003  -7.0132e+007   4.7866e+004   9.6592e+006    0.0000    0.1411    0.0001   -0.0000    0.0840
                0.2285  -3.2214e-003   4.2095e-004   2.7924e-003  -6.1845e+007   4.2357e+004   1.1030e+007    0.0000    0.1244    0.0001   -0.0000    0.0959
                0.2643  -2.7972e-003   3.6553e-004   3.0909e-003  -5.3702e+007   3.6949e+004   1.2209e+007    0.0000    0.1081    0.0001   -0.0000    0.1062
                0.2992  -2.3731e-003   3.1012e-004   3.3414e-003  -4.5560e+007   3.1540e+004   1.3199e+007    0.0000    0.0917    0.0001   -0.0000    0.1148
                0.3332  -1.9465e-003   2.5438e-004   3.5456e-003  -3.7370e+007   2.6100e+004   1.4005e+007    0.0000    0.0752    0.0001   -0.0000    0.1218
                0.3661  -1.5339e-003   2.0047e-004   3.7049e-003  -2.9448e+007   2.0841e+004   1.4635e+007    0.0000    0.0593    0.0001   -0.0000    0.1273
                0.3976  -1.1392e-003   1.4891e-004   3.8229e-003  -2.1871e+007   1.5810e+004   1.5100e+007    0.0000    0.0440    0.0000   -0.0000    0.1313
                0.4278  -7.6263e-004   9.9706e-005   3.9035e-003  -1.4641e+007   1.1010e+004   1.5419e+007    0.0000    0.0295    0.0000   -0.0000    0.1341
                0.4564  -4.0747e-004   5.3303e-005   3.9511e-003  -7.8225e+006   6.4853e+003   1.5607e+007    0.0000    0.0157    0.0000   -0.0000    0.1357
                0.4833   3.0035e-004  -3.8931e-005   3.9708e-003   5.7670e+006   2.4120e+003   1.5685e+007    0.0171   -0.0000    0.0000   -0.0000    0.1364
                0.5085   5.9990e-004  -7.8067e-005   3.9678e-003   1.1518e+007  -1.5768e+003   1.5673e+007    0.0342   -0.0000    0.0000    0.0000    0.1363
                0.5318   8.6698e-004  -1.1296e-004   3.9469e-003   1.6645e+007  -4.9634e+003   1.5590e+007    0.0494   -0.0000    0.0000    0.0000    0.1356
                0.5531   1.1010e-003  -1.4354e-004   3.9131e-003   2.1139e+007  -7.9381e+003   1.5457e+007    0.0627   -0.0000    0.0000    0.0000    0.1344
                0.5724   1.3138e-003  -1.7134e-004   3.8706e-003   2.5224e+007  -1.0635e+004   1.5289e+007    0.0748   -0.0000    0.0000    0.0000    0.1329
                0.5895   1.4883e-003  -1.9414e-004   3.8237e-003   2.8575e+007  -1.2842e+004   1.5104e+007    0.0848   -0.0000    0.0000    0.0000    0.1313
                0.6045   1.6379e-003  -2.1368e-004   3.7762e-003   3.1446e+007  -1.4744e+004   1.4916e+007    0.0933   -0.0000    0.0000    0.0000    0.1297
                0.6172   1.7642e-003  -2.3018e-004   3.7308e-003   3.3870e+007  -1.6343e+004   1.4737e+007    0.1005   -0.0000    0.0000    0.0000    0.1281
                0.6277   1.8630e-003  -2.4309e-004   3.6902e-003   3.5768e+007  -1.7595e+004   1.4576e+007    0.1061   -0.0000    0.0000    0.0001    0.1268
                0.6359   1.9390e-003  -2.5302e-004   3.6567e-003   3.7226e+007  -1.8568e+004   1.4444e+007    0.1105   -0.0000    0.0000    0.0001    0.1256
                0.6417   1.9950e-003  -2.6033e-004   3.6316e-003   3.8301e+007  -1.9293e+004   1.4345e+007    0.1137   -0.0000    0.0000    0.0001    0.1247
                0.6452   2.0298e-003  -2.6488e-004   3.6160e-003   3.8969e+007  -1.9742e+004   1.4283e+007    0.1156   -0.0000    0.0000    0.0001    0.1242
                0.6464   2.0416e-003  -2.6643e-004   3.6107e-003   3.9196e+007  -1.9893e+004   1.4262e+007    0.1163   -0.0000    0.0000    0.0001    0.1240

  Bottom:  panel  nNode   nLam     xc_St    xc_End         b         t         E_eff         G_eff      nu_eff     density  buckleCrit
            (-)    (-)    (-)       (-)       (-)       (m)       (m)          (Pa)          (Pa)         (-)    (kg/m^3)         (-)
              1     18      3    0.0000    0.2373    0.3098    0.0080   1.8715e+010   3.8515e+009      0.1301   1632.4251      0.0944
              2      9      5    0.2373    0.4627    0.2633    0.0119   5.4851e+010   4.1959e+009      0.1628   1595.5399      0.0032
              3     28      3    0.4627    1.0000    0.6410    0.0099   1.5149e+010   3.1279e+009      0.1307   1356.2601      0.1760

            panel:  1     
           lam_num    nPlies        tPly      fibAng     matID  matName
               (-)       (-)         (m)       (deg)       (-)  (-)
                 1         1    0.003898      0.0000         2  (blade-shell)
                 2         1    0.000205      0.0000         5  (LEP-core)
                 3         1    0.003898      0.0000         2  (blade-shell)

               lamina:  1     
              matName:  (blade-shell)
                     s           e11           e22           e12           s11           s22           s12   s11_fcT   s11_fcC   s22_fcT   s22_fcC   s12_fcS
                   (m)         (m/m)         (m/m)         (rad)          (Pa)          (Pa)          (Pa)       (-)       (-)       (-)       (-)       (-)
                0.0000   4.6491e-004  -6.0457e-005   6.8088e-003   8.9261e+006  -3.6975e+002   2.6895e+007    0.0265   -0.0000    0.0000    0.0000    0.2339
                0.0033   6.0165e-004  -7.8242e-005   6.8062e-003   1.1552e+007  -5.3876e+002   2.6885e+007    0.0343   -0.0000    0.0000    0.0000    0.2338
                0.0131   1.0308e-003  -1.3406e-004   6.7915e-003   1.9791e+007  -1.0327e+003   2.6826e+007    0.0587   -0.0000    0.0000    0.0000    0.2333
                0.0251   1.5923e-003  -2.0709e-004   6.7590e-003   3.0573e+007  -1.6158e+003   2.6698e+007    0.0907   -0.0000    0.0000    0.0000    0.2322
                0.0357   1.9866e-003  -2.5836e-004   6.7189e-003   3.8143e+007  -2.0184e+003   2.6540e+007    0.1132   -0.0000    0.0000    0.0000    0.2308
                0.0497   2.4544e-003  -3.1921e-004   6.6511e-003   4.7125e+007  -2.5566e+003   2.6272e+007    0.1398   -0.0000    0.0000    0.0000    0.2284
                0.0643   2.8552e-003  -3.7133e-004   6.5650e-003   5.4820e+007  -3.0041e+003   2.5932e+007    0.1627   -0.0000    0.0000    0.0000    0.2255
                0.0809   3.2390e-003  -4.2124e-004   6.4493e-003   6.2187e+007  -3.4641e+003   2.5475e+007    0.1845   -0.0000    0.0000    0.0000    0.2215
                0.0997   3.6658e-003  -4.7676e-004   6.2993e-003   7.0384e+007  -3.9671e+003   2.4882e+007    0.2089   -0.0000    0.0000    0.0000    0.2164
                0.1193   3.9937e-003  -5.1940e-004   6.1221e-003   7.6678e+007  -4.3541e+003   2.4182e+007    0.2275   -0.0000    0.0000    0.0000    0.2103
                0.1413   4.3483e-003  -5.6553e-004   5.9046e-003   8.3488e+007  -4.7862e+003   2.3323e+007    0.2477   -0.0000    0.0000    0.0000    0.2028
                0.1646   4.6781e-003  -6.0841e-004   5.6513e-003   8.9818e+007  -5.1825e+003   2.2323e+007    0.2665   -0.0000    0.0000    0.0000    0.1941
                0.1896   4.9616e-003  -6.4530e-004   5.3605e-003   9.5263e+007  -5.5280e+003   2.1174e+007    0.2827   -0.0000    0.0000    0.0000    0.1841
                0.2162   5.2651e-003  -6.8477e-004   5.0286e-003   1.0109e+008  -5.8972e+003   1.9863e+007    0.3000   -0.0000    0.0000    0.0000    0.1727
                0.2440   5.4909e-003  -7.1413e-004   4.6622e-003   1.0542e+008  -6.1706e+003   1.8416e+007    0.3128   -0.0000    0.0000    0.0000    0.1601
                0.2733   5.7080e-003  -7.4237e-004   4.2577e-003   1.0959e+008  -6.4373e+003   1.6818e+007    0.3252   -0.0000    0.0000    0.0000    0.1462
                0.3038   5.9110e-003  -7.6877e-004   3.8176e-003   1.1349e+008  -6.6863e+003   1.5080e+007    0.3368   -0.0000    0.0000    0.0000    0.1311
                0.3098   5.9358e-003  -7.7199e-004   3.7307e-003   1.1397e+008  -6.7129e+003   1.4736e+007    0.3382   -0.0000    0.0000    0.0000    0.1281

               lamina:  2     
              matName:  (LEP-core)
                     s           e11           e22           e12           s11           s22           s12   s11_fcT   s11_fcC   s22_fcT   s22_fcC   s12_fcS
                   (m)         (m/m)         (m/m)         (rad)          (Pa)          (Pa)          (Pa)       (-)       (-)       (-)       (-)       (-)
                0.0000   3.0329e-004  -3.9446e-005   6.8088e-003   6.8406e+004   1.4290e+004   6.6726e+005    0.0159   -0.0000    0.0033   -0.0000    0.2262
                0.0033   4.4003e-004  -5.7232e-005   6.8062e-003   9.9249e+004   2.0733e+004   6.6701e+005    0.0231   -0.0000    0.0048   -0.0000    0.2261
                0.0131   8.4037e-004  -1.0930e-004   6.7915e-003   1.8955e+005   3.9597e+004   6.6557e+005    0.0442   -0.0000    0.0092   -0.0000    0.2256
                0.0251   1.3144e-003  -1.7096e-004   6.7590e-003   2.9647e+005   6.1933e+004   6.6238e+005    0.0691   -0.0000    0.0144   -0.0000    0.2245
                0.0357   1.6418e-003  -2.1354e-004   6.7189e-003   3.7031e+005   7.7360e+004   6.5845e+005    0.0863   -0.0000    0.0180   -0.0000    0.2232
                0.0497   2.0781e-003  -2.7028e-004   6.6511e-003   4.6871e+005   9.7915e+004   6.5180e+005    0.1093   -0.0000    0.0228   -0.0000    0.2210
                0.0643   2.4411e-003  -3.1750e-004   6.5650e-003   5.5059e+005   1.1502e+005   6.4337e+005    0.1283   -0.0000    0.0268   -0.0000    0.2181
                0.0809   2.8136e-003  -3.6595e-004   6.4493e-003   6.3461e+005   1.3257e+005   6.3203e+005    0.1479   -0.0000    0.0309   -0.0000    0.2142
                0.0997   3.2210e-003  -4.1894e-004   6.2993e-003   7.2650e+005   1.5177e+005   6.1733e+005    0.1693   -0.0000    0.0354   -0.0000    0.2093
                0.1193   3.5346e-003  -4.5971e-004   6.1221e-003   7.9721e+005   1.6654e+005   5.9997e+005    0.1858   -0.0000    0.0388   -0.0000    0.2034
                0.1413   3.8843e-003  -5.0520e-004   5.9046e-003   8.7610e+005   1.8302e+005   5.7865e+005    0.2042   -0.0000    0.0427   -0.0000    0.1962
                0.1646   4.2051e-003  -5.4693e-004   5.6513e-003   9.4846e+005   1.9814e+005   5.5383e+005    0.2211   -0.0000    0.0462   -0.0000    0.1877
                0.1896   4.4847e-003  -5.8330e-004   5.3605e-003   1.0115e+006   2.1131e+005   5.2533e+005    0.2358   -0.0000    0.0493   -0.0000    0.1781
                0.2162   4.7836e-003  -6.2217e-004   5.0286e-003   1.0789e+006   2.2539e+005   4.9280e+005    0.2515   -0.0000    0.0525   -0.0000    0.1671
                0.2440   5.0049e-003  -6.5095e-004   4.6622e-003   1.1289e+006   2.3582e+005   4.5690e+005    0.2631   -0.0000    0.0550   -0.0000    0.1549
                0.2733   5.2207e-003  -6.7902e-004   4.2577e-003   1.1775e+006   2.4599e+005   4.1725e+005    0.2745   -0.0000    0.0573   -0.0000    0.1414
                0.3038   5.4222e-003  -7.0523e-004   3.8176e-003   1.2230e+006   2.5548e+005   3.7413e+005    0.2851   -0.0000    0.0596   -0.0000    0.1268
                0.3098   5.4438e-003  -7.0804e-004   3.7307e-003   1.2278e+006   2.5650e+005   3.6560e+005    0.2862   -0.0000    0.0598   -0.0000    0.1239

               lamina:  3     
              matName:  (blade-shell)
                     s           e11           e22           e12           s11           s22           s12   s11_fcT   s11_fcC   s22_fcT   s22_fcC   s12_fcS
                   (m)         (m/m)         (m/m)         (rad)          (Pa)          (Pa)          (Pa)       (-)       (-)       (-)       (-)       (-)
                0.0000   2.9481e-004  -3.8344e-005   6.8088e-003   5.6603e+006  -3.6961e+002   2.6895e+007    0.0168   -0.0000    0.0000    0.0000    0.2339
                0.0033   4.3155e-004  -5.6129e-005   6.8062e-003   8.2857e+006  -5.3863e+002   2.6885e+007    0.0246   -0.0000    0.0000    0.0000    0.2338
                0.0131   8.3038e-004  -1.0800e-004   6.7915e-003   1.5943e+007  -1.0325e+003   2.6826e+007    0.0473   -0.0000    0.0000    0.0000    0.2333
                0.0251   1.2998e-003  -1.6906e-004   6.7590e-003   2.4957e+007  -1.6156e+003   2.6698e+007    0.0741   -0.0000    0.0000    0.0000    0.2322
                0.0357   1.6237e-003  -2.1119e-004   6.7189e-003   3.1176e+007  -2.0181e+003   2.6540e+007    0.0925   -0.0000    0.0000    0.0000    0.2308
                0.0497   2.0583e-003  -2.6772e-004   6.6511e-003   3.9520e+007  -2.5563e+003   2.6272e+007    0.1173   -0.0000    0.0000    0.0000    0.2284
                0.0643   2.4194e-003  -3.1468e-004   6.5650e-003   4.6452e+007  -3.0038e+003   2.5932e+007    0.1378   -0.0000    0.0000    0.0000    0.2255
                0.0809   2.7913e-003  -3.6305e-004   6.4493e-003   5.3592e+007  -3.4638e+003   2.5475e+007    0.1590   -0.0000    0.0000    0.0000    0.2215
                0.0997   3.1977e-003  -4.1590e-004   6.2993e-003   6.1395e+007  -3.9667e+003   2.4882e+007    0.1822   -0.0000    0.0000    0.0000    0.2164
                0.1193   3.5105e-003  -4.5658e-004   6.1221e-003   6.7400e+007  -4.3537e+003   2.4182e+007    0.2000   -0.0000    0.0000    0.0000    0.2103
                0.1413   3.8599e-003  -5.0204e-004   5.9046e-003   7.4110e+007  -4.7858e+003   2.3323e+007    0.2199   -0.0000    0.0000    0.0000    0.2028
                0.1646   4.1803e-003  -5.4370e-004   5.6513e-003   8.0261e+007  -5.1821e+003   2.2323e+007    0.2382   -0.0000    0.0000    0.0000    0.1941
                0.1896   4.4597e-003  -5.8005e-004   5.3605e-003   8.5626e+007  -5.5276e+003   2.1174e+007    0.2541   -0.0000    0.0000    0.0000    0.1841
                0.2162   4.7583e-003  -6.1888e-004   5.0286e-003   9.1359e+007  -5.8968e+003   1.9863e+007    0.2711   -0.0000    0.0000    0.0000    0.1727
                0.2440   4.9794e-003  -6.4764e-004   4.6622e-003   9.5604e+007  -6.1702e+003   1.8416e+007    0.2837   -0.0000    0.0000    0.0000    0.1601
                0.2733   5.1952e-003  -6.7570e-004   4.2577e-003   9.9746e+007  -6.4369e+003   1.6818e+007    0.2960   -0.0000    0.0000    0.0000    0.1462
                0.3038   5.3965e-003  -7.0189e-004   3.8176e-003   1.0361e+008  -6.6859e+003   1.5080e+007    0.3075   -0.0000    0.0000    0.0000    0.1311
                0.3098   5.4180e-003  -7.0469e-004   3.7307e-003   1.0403e+008  -6.7125e+003   1.4736e+007    0.3087   -0.0000    0.0000    0.0000    0.1281

            panel:  2     
           lam_num    nPlies        tPly      fibAng     matID  matName
               (-)       (-)         (m)       (deg)       (-)  (-)
                 1         1    0.003898      0.0000         2  (blade-shell)
                 2         1    0.002051      0.0000         3  (spar-uni)
                 3         1    0.000047      0.0000         4  (spar-core)
                 4         1    0.002051      0.0000         3  (spar-uni)
                 5         1    0.003898      0.0000         2  (blade-shell)

               lamina:  1     
              matName:  (blade-shell)
                     s           e11           e22           e12           s11           s22           s12   s11_fcT   s11_fcC   s22_fcT   s22_fcC   s12_fcS
                   (m)         (m/m)         (m/m)         (rad)          (Pa)          (Pa)          (Pa)       (-)       (-)       (-)       (-)       (-)
                0.0000   7.1461e-003  -1.1100e-003   6.5510e-003   1.3674e+008  -3.5349e+006   2.5877e+007    0.4058   -0.0000    0.0000    0.0105    0.2250
                0.0256   7.2404e-003  -1.1253e-003   5.5449e-003   1.3855e+008  -3.5952e+006   2.1902e+007    0.4111   -0.0000    0.0000    0.0107    0.1905
                0.0582   7.3644e-003  -1.1454e-003   4.2324e-003   1.4092e+008  -3.6726e+006   1.6718e+007    0.4182   -0.0000    0.0000    0.0109    0.1454
                0.0917   7.4143e-003  -1.1535e-003   2.8657e-003   1.4187e+008  -3.7028e+006   1.1320e+007    0.4210   -0.0000    0.0000    0.0110    0.0984
                0.1262   7.4061e-003  -1.1521e-003   1.4512e-003   1.4172e+008  -3.6975e+006   5.7321e+006    0.4205   -0.0000    0.0000    0.0110    0.0498
                0.1612   7.3959e-003  -1.1505e-003   1.3831e-005   1.4152e+008  -3.6921e+006   5.4631e+004    0.4199   -0.0000    0.0000    0.0110    0.0005
                0.1970   7.2506e-003  -1.1270e-003   1.4372e-003   1.3874e+008  -3.6024e+006   5.6770e+006    0.4117   -0.0000    0.0000    0.0107    0.0494
                0.2335   7.0993e-003  -1.1025e-003   2.8775e-003   1.3585e+008  -3.5068e+006   1.1366e+007    0.4031   -0.0000    0.0000    0.0104    0.0988
                0.2633   6.9489e-003  -1.0780e-003   4.0251e-003   1.3297e+008  -3.4118e+006   1.5899e+007    0.3946   -0.0000    0.0000    0.0101    0.1383

               lamina:  2     
              matName:  (spar-uni)
                     s           e11           e22           e12           s11           s22           s12   s11_fcT   s11_fcC   s22_fcT   s22_fcC   s12_fcS
                   (m)         (m/m)         (m/m)         (rad)          (Pa)          (Pa)          (Pa)       (-)       (-)       (-)       (-)       (-)
                0.0000   5.9712e-003  -9.5341e-004   6.5510e-003   7.3675e+008   7.4082e+006   3.0855e+007    0.3723   -0.0000    0.1237   -0.0000    0.2996
                0.0256   6.0655e-003  -9.6876e-004   5.5449e-003   7.4838e+008   7.5228e+006   2.6116e+007    0.3782   -0.0000    0.1256   -0.0000    0.2536
                0.0582   6.1873e-003  -9.8854e-004   4.2324e-003   7.6341e+008   7.6711e+006   1.9935e+007    0.3858   -0.0000    0.1281   -0.0000    0.1935
                0.0917   6.2352e-003  -9.9632e-004   2.8657e-003   7.6933e+008   7.7296e+006   1.3498e+007    0.3887   -0.0000    0.1290   -0.0000    0.1310
                0.1262   6.2270e-003  -9.9497e-004   1.4512e-003   7.6831e+008   7.7196e+006   6.8350e+006    0.3882   -0.0000    0.1289   -0.0000    0.0664
                0.1612   6.2181e-003  -9.9355e-004   1.3831e-005   7.6721e+008   7.7086e+006   6.5143e+004    0.3877   -0.0000    0.1287   -0.0000    0.0006
                0.1970   6.0764e-003  -9.7055e-004   1.4372e-003   7.4974e+008   7.5360e+006   6.7693e+006    0.3788   -0.0000    0.1258   -0.0000    0.0657
                0.2335   5.9265e-003  -9.4617e-004   2.8775e-003   7.3124e+008   7.3536e+006   1.3553e+007    0.3695   -0.0000    0.1228   -0.0000    0.1316
                0.2633   5.7775e-003  -9.2194e-004   4.0251e-003   7.1285e+008   7.1724e+006   1.8958e+007    0.3602   -0.0000    0.1197   -0.0000    0.1841

               lamina:  3     
              matName:  (spar-core)
                     s           e11           e22           e12           s11           s22           s12   s11_fcT   s11_fcC   s22_fcT   s22_fcC   s12_fcS
                   (m)         (m/m)         (m/m)         (rad)          (Pa)          (Pa)          (Pa)       (-)       (-)       (-)       (-)       (-)
                0.0000   5.3528e-003  -8.7101e-004   6.5510e-003   1.1937e+006   2.1102e+005   6.4200e+005    0.2783   -0.0000    0.0492   -0.0000    0.2176
                0.0256   5.4472e-003  -8.8636e-004   5.5449e-003   1.2148e+006   2.1474e+005   5.4340e+005    0.2832   -0.0000    0.0501   -0.0000    0.1842
                0.0582   5.5677e-003  -9.0598e-004   4.2324e-003   1.2417e+006   2.1949e+005   4.1478e+005    0.2894   -0.0000    0.0512   -0.0000    0.1406
                0.0917   5.6147e-003  -9.1363e-004   2.8657e-003   1.2521e+006   2.2134e+005   2.8084e+005    0.2919   -0.0000    0.0516   -0.0000    0.0952
                0.1262   5.6064e-003  -9.1227e-004   1.4512e-003   1.2503e+006   2.2101e+005   1.4222e+005    0.2914   -0.0000    0.0515   -0.0000    0.0482
                0.1612   5.5982e-003  -9.1094e-004   1.3831e-005   1.2485e+006   2.2069e+005   1.3554e+003    0.2910   -0.0000    0.0514   -0.0000    0.0005
                0.1970   5.4585e-003  -8.8820e-004   1.4372e-003   1.2173e+006   2.1519e+005   1.4085e+005    0.2838   -0.0000    0.0502   -0.0000    0.0477
                0.2335   5.3092e-003  -8.6391e-004   2.8775e-003   1.1840e+006   2.0930e+005   2.8199e+005    0.2760   -0.0000    0.0488   -0.0000    0.0956
                0.2633   5.1610e-003  -8.3978e-004   4.0251e-003   1.1509e+006   2.0346e+005   3.9446e+005    0.2683   -0.0000    0.0474   -0.0000    0.1337

               lamina:  4     
              matName:  (spar-uni)
                     s           e11           e22           e12           s11           s22           s12   s11_fcT   s11_fcC   s22_fcT   s22_fcC   s12_fcS
                   (m)         (m/m)         (m/m)         (rad)          (Pa)          (Pa)          (Pa)       (-)       (-)       (-)       (-)       (-)
                0.0000   5.3387e-003  -8.6912e-004   6.5510e-003   6.5867e+008   6.4858e+006   3.0855e+007    0.3328   -0.0000    0.1083   -0.0000    0.2996
                0.0256   5.4330e-003  -8.8447e-004   5.5449e-003   6.7031e+008   6.6004e+006   2.6116e+007    0.3387   -0.0000    0.1102   -0.0000    0.2536
                0.0582   5.5536e-003  -9.0409e-004   4.2324e-003   6.8518e+008   6.7468e+006   1.9935e+007    0.3462   -0.0000    0.1126   -0.0000    0.1935
                0.0917   5.6005e-003  -9.1174e-004   2.8657e-003   6.9097e+008   6.8039e+006   1.3498e+007    0.3492   -0.0000    0.1136   -0.0000    0.1310
                0.1262   5.5922e-003  -9.1038e-004   1.4512e-003   6.8995e+008   6.7938e+006   6.8350e+006    0.3486   -0.0000    0.1134   -0.0000    0.0664
                0.1612   5.5841e-003  -9.0906e-004   1.3831e-005   6.8894e+008   6.7839e+006   6.5143e+004    0.3481   -0.0000    0.1133   -0.0000    0.0006
                0.1970   5.4444e-003  -8.8632e-004   1.4372e-003   6.7171e+008   6.6142e+006   6.7693e+006    0.3394   -0.0000    0.1104   -0.0000    0.0657
                0.2335   5.2951e-003  -8.6203e-004   2.8775e-003   6.5330e+008   6.4328e+006   1.3553e+007    0.3301   -0.0000    0.1074   -0.0000    0.1316
                0.2633   5.1469e-003  -8.3790e-004   4.0251e-003   6.3501e+008   6.2527e+006   1.8958e+007    0.3209   -0.0000    0.1044   -0.0000    0.1841

               lamina:  5     
              matName:  (blade-shell)
                     s           e11           e22           e12           s11           s22           s12   s11_fcT   s11_fcC   s22_fcT   s22_fcC   s12_fcS
                   (m)         (m/m)         (m/m)         (rad)          (Pa)          (Pa)          (Pa)       (-)       (-)       (-)       (-)       (-)
                0.0000   4.7204e-003  -7.8672e-004   6.5510e-003   9.0192e+007  -3.3801e+006   2.5877e+007    0.2676   -0.0000    0.0000    0.0100    0.2250
                0.0256   4.8147e-003  -8.0207e-004   5.5449e-003   9.1995e+007  -3.4404e+006   2.1902e+007    0.2730   -0.0000    0.0000    0.0102    0.1905
                0.0582   4.9341e-003  -8.2153e-004   4.2324e-003   9.4277e+007  -3.5175e+006   1.6718e+007    0.2798   -0.0000    0.0000    0.0104    0.1454
                0.0917   4.9800e-003  -8.2904e-004   2.8657e-003   9.5155e+007  -3.5474e+006   1.1320e+007    0.2824   -0.0000    0.0000    0.0105    0.0984
                0.1262   4.9716e-003  -8.2768e-004   1.4512e-003   9.4995e+007  -3.5421e+006   5.7321e+006    0.2819   -0.0000    0.0000    0.0105    0.0498
                0.1612   4.9642e-003  -8.2645e-004   1.3831e-005   9.4853e+007  -3.5369e+006   5.4631e+004    0.2815   -0.0000    0.0000    0.0105    0.0005
                0.1970   4.8265e-003  -8.0397e-004   1.4372e-003   9.2220e+007  -3.4477e+006   5.6770e+006    0.2736   -0.0000    0.0000    0.0102    0.0494
                0.2335   4.6779e-003  -7.7977e-004   2.8775e-003   8.9380e+007  -3.3523e+006   1.1366e+007    0.2652   -0.0000    0.0000    0.0099    0.0988
                0.2633   4.5304e-003  -7.5574e-004   4.0251e-003   8.6560e+007  -3.2575e+006   1.5899e+007    0.2569   -0.0000    0.0000    0.0097    0.1383

            panel:  3     
           lam_num    nPlies        tPly      fibAng     matID  matName
               (-)       (-)         (m)       (deg)       (-)  (-)
                 1         1    0.003898      0.0000         2  (blade-shell)
                 2         1    0.002115      0.0000         6  (TEP-core)
                 3         1    0.003898      0.0000         2  (blade-shell)

               lamina:  1     
              matName:  (blade-shell)
                     s           e11           e22           e12           s11           s22           s12   s11_fcT   s11_fcC   s22_fcT   s22_fcC   s12_fcS
                   (m)         (m/m)         (m/m)         (rad)          (Pa)          (Pa)          (Pa)       (-)       (-)       (-)       (-)       (-)
                0.0000   5.7074e-003  -7.4536e-004   1.2636e-003   1.0957e+008  -6.6492e+004   4.9914e+006    0.3251   -0.0000    0.0000    0.0002    0.0434
                0.0068   5.6712e-003  -7.4063e-004   1.1673e-003   1.0888e+008  -6.6061e+004   4.6110e+006    0.3231   -0.0000    0.0000    0.0002    0.0401
                0.0441   5.4161e-003  -7.0731e-004   6.5504e-004   1.0398e+008  -6.2817e+004   2.5874e+006    0.3085   -0.0000    0.0000    0.0002    0.0225
                0.0814   5.1607e-003  -6.7394e-004   1.6834e-004   9.9077e+007  -5.9574e+004   6.6495e+005    0.2940   -0.0000    0.0000    0.0002    0.0058
                0.1186   4.8630e-003  -6.3505e-004   2.9122e-004   9.3362e+007  -5.5801e+004   1.1503e+006    0.2770   -0.0000    0.0000    0.0002    0.0100
                0.1558   4.5486e-003  -5.9397e-004   7.1888e-004   8.7327e+007  -5.1802e+004   2.8396e+006    0.2591   -0.0000    0.0000    0.0002    0.0247
                0.1924   4.2366e-003  -5.5321e-004   1.1109e-003   8.1337e+007  -4.7834e+004   4.3879e+006    0.2414   -0.0000    0.0000    0.0001    0.0382
                0.2287   3.9064e-003  -5.1007e-004   1.4668e-003   7.4998e+007  -4.3635e+004   5.7940e+006    0.2225   -0.0000    0.0000    0.0001    0.0504
                0.2642   3.5835e-003  -4.6788e-004   1.7851e-003   6.8798e+007  -3.9516e+004   7.0510e+006    0.2041   -0.0000    0.0000    0.0001    0.0613
                0.2988   3.2735e-003  -4.2738e-004   2.0660e-003   6.2847e+007  -3.5560e+004   8.1608e+006    0.1865   -0.0000    0.0000    0.0001    0.0710
                0.3324   2.9792e-003  -3.8892e-004   2.3113e-003   5.7196e+007  -3.1805e+004   9.1296e+006    0.1697   -0.0000    0.0000    0.0001    0.0794
                0.3649   2.6954e-003  -3.5184e-004   2.5234e-003   5.1747e+007  -2.8173e+004   9.9675e+006    0.1536   -0.0000    0.0000    0.0001    0.0867
                0.3960   2.4538e-003  -3.2027e-004   2.7045e-003   4.7109e+007  -2.5076e+004   1.0683e+007    0.1398   -0.0000    0.0000    0.0001    0.0929
                0.4256   2.2306e-003  -2.9111e-004   2.8586e-003   4.2824e+007  -2.2224e+004   1.1292e+007    0.1271   -0.0000    0.0000    0.0001    0.0982
                0.4538   2.0278e-003  -2.6461e-004   2.9891e-003   3.8930e+007  -1.9617e+004   1.1807e+007    0.1155   -0.0000    0.0000    0.0001    0.1027
                0.4802   1.8796e-003  -2.4525e-004   3.0989e-003   3.6085e+007  -1.7711e+004   1.2241e+007    0.1071   -0.0000    0.0000    0.0001    0.1064
                0.5048   1.7407e-003  -2.2711e-004   3.1921e-003   3.3420e+007  -1.5930e+004   1.2609e+007    0.0992   -0.0000    0.0000    0.0000    0.1096
                0.5277   1.6416e-003  -2.1416e-004   3.2712e-003   3.1517e+007  -1.4648e+004   1.2921e+007    0.0935   -0.0000    0.0000    0.0000    0.1124
                0.5485   1.5752e-003  -2.0549e-004   3.3388e-003   3.0242e+007  -1.3795e+004   1.3188e+007    0.0897   -0.0000    0.0000    0.0000    0.1147
                0.5674   1.5153e-003  -1.9766e-004   3.3971e-003   2.9092e+007  -1.3020e+004   1.3419e+007    0.0863   -0.0000    0.0000    0.0000    0.1167
                0.5843   1.5054e-003  -1.9636e-004   3.4476e-003   2.8902e+007  -1.2888e+004   1.3618e+007    0.0858   -0.0000    0.0000    0.0000    0.1184
                0.5989   1.5013e-003  -1.9582e-004   3.4913e-003   2.8823e+007  -1.2835e+004   1.3791e+007    0.0855   -0.0000    0.0000    0.0000    0.1199
                0.6116   1.5079e-003  -1.9668e-004   3.5291e-003   2.8949e+007  -1.2924e+004   1.3940e+007    0.0859   -0.0000    0.0000    0.0000    0.1212
                0.6220   1.5391e-003  -2.0076e-004   3.5608e-003   2.9549e+007  -1.3333e+004   1.4065e+007    0.0877   -0.0000    0.0000    0.0000    0.1223
                0.6301   1.5633e-003  -2.0393e-004   3.5864e-003   3.0013e+007  -1.3654e+004   1.4166e+007    0.0891   -0.0000    0.0000    0.0000    0.1232
                0.6362   1.5941e-003  -2.0796e-004   3.6058e-003   3.0606e+007  -1.4086e+004   1.4243e+007    0.0908   -0.0000    0.0000    0.0000    0.1238
                0.6398   1.6189e-003  -2.1120e-004   3.6177e-003   3.1081e+007  -1.4428e+004   1.4290e+007    0.0922   -0.0000    0.0000    0.0000    0.1243
                0.6410   1.6276e-003  -2.1233e-004   3.6216e-003   3.1248e+007  -1.4538e+004   1.4305e+007    0.0927   -0.0000    0.0000    0.0000    0.1244

               lamina:  2     
              matName:  (TEP-core)
                     s           e11           e22           e12           s11           s22           s12   s11_fcT   s11_fcC   s22_fcT   s22_fcC   s12_fcS
                   (m)         (m/m)         (m/m)         (rad)          (Pa)          (Pa)          (Pa)       (-)       (-)       (-)       (-)       (-)
                0.0000   5.3065e-003  -6.9324e-004   1.2636e-003   1.1966e+006   2.4931e+005   1.2384e+005    0.2789   -0.0000    0.0581   -0.0000    0.0420
                0.0068   5.2722e-003  -6.8876e-004   1.1673e-003   1.1889e+006   2.4770e+005   1.1440e+005    0.2771   -0.0000    0.0577   -0.0000    0.0388
                0.0441   5.0176e-003  -6.5549e-004   6.5504e-004   1.1315e+006   2.3574e+005   6.4194e+004    0.2637   -0.0000    0.0550   -0.0000    0.0218
                0.0814   4.7630e-003  -6.2224e-004   1.6834e-004   1.0741e+006   2.2378e+005   1.6497e+004    0.2504   -0.0000    0.0522   -0.0000    0.0056
                0.1186   4.4668e-003  -5.8353e-004   2.9122e-004   1.0073e+006   2.0986e+005   2.8539e+004    0.2348   -0.0000    0.0489   -0.0000    0.0097
                0.1558   4.1529e-003  -5.4252e-004   7.1888e-004   9.3649e+005   1.9511e+005   7.0451e+004    0.2183   -0.0000    0.0455   -0.0000    0.0239
                0.1924   3.8415e-003  -5.0183e-004   1.1109e-003   8.6627e+005   1.8048e+005   1.0886e+005    0.2019   -0.0000    0.0421   -0.0000    0.0369
                0.2287   3.5119e-003  -4.5877e-004   1.4668e-003   7.9195e+005   1.6500e+005   1.4375e+005    0.1846   -0.0000    0.0385   -0.0000    0.0487
                0.2642   3.1888e-003  -4.1656e-004   1.7851e-003   7.1909e+005   1.4982e+005   1.7494e+005    0.1676   -0.0000    0.0349   -0.0000    0.0593
                0.2988   2.8785e-003  -3.7602e-004   2.0660e-003   6.4912e+005   1.3525e+005   2.0247e+005    0.1513   -0.0000    0.0315   -0.0000    0.0686
                0.3324   2.5840e-003  -3.3754e-004   2.3113e-003   5.8271e+005   1.2141e+005   2.2651e+005    0.1358   -0.0000    0.0283   -0.0000    0.0768
                0.3649   2.2993e-003  -3.0034e-004   2.5234e-003   5.1851e+005   1.0804e+005   2.4729e+005    0.1209   -0.0000    0.0252   -0.0000    0.0838
                0.3960   2.0566e-003  -2.6864e-004   2.7045e-003   4.6378e+005   9.6634e+004   2.6504e+005    0.1081   -0.0000    0.0225   -0.0000    0.0898
                0.4256   1.8330e-003  -2.3942e-004   2.8586e-003   4.1335e+005   8.6128e+004   2.8015e+005    0.0964   -0.0000    0.0201   -0.0000    0.0950
                0.4538   1.6288e-003  -2.1274e-004   2.9891e-003   3.6730e+005   7.6534e+004   2.9293e+005    0.0856   -0.0000    0.0178   -0.0000    0.0993
                0.4802   1.4795e-003  -1.9323e-004   3.0989e-003   3.3364e+005   6.9521e+004   3.0369e+005    0.0778   -0.0000    0.0162   -0.0000    0.1029
                0.5048   1.3400e-003  -1.7500e-004   3.1921e-003   3.0217e+005   6.2966e+004   3.1283e+005    0.0704   -0.0000    0.0147   -0.0000    0.1060
                0.5277   1.2396e-003  -1.6189e-004   3.2712e-003   2.7955e+005   5.8253e+004   3.2058e+005    0.0652   -0.0000    0.0136   -0.0000    0.1087
                0.5485   1.1728e-003  -1.5316e-004   3.3388e-003   2.6447e+005   5.5113e+004   3.2720e+005    0.0616   -0.0000    0.0128   -0.0000    0.1109
                0.5674   1.1122e-003  -1.4524e-004   3.3971e-003   2.5081e+005   5.2266e+004   3.3292e+005    0.0585   -0.0000    0.0122   -0.0000    0.1129
                0.5843   1.1019e-003  -1.4390e-004   3.4476e-003   2.4849e+005   5.1782e+004   3.3786e+005    0.0579   -0.0000    0.0121   -0.0000    0.1145
                0.5989   1.0977e-003  -1.4335e-004   3.4913e-003   2.4755e+005   5.1587e+004   3.4215e+005    0.0577   -0.0000    0.0120   -0.0000    0.1160
                0.6116   1.1046e-003  -1.4426e-004   3.5291e-003   2.4910e+005   5.1911e+004   3.4585e+005    0.0581   -0.0000    0.0121   -0.0000    0.1172
                0.6220   1.1366e-003  -1.4843e-004   3.5608e-003   2.5631e+005   5.3411e+004   3.4896e+005    0.0597   -0.0000    0.0125   -0.0000    0.1183
                0.6301   1.1616e-003  -1.5170e-004   3.5864e-003   2.6195e+005   5.4587e+004   3.5146e+005    0.0611   -0.0000    0.0127   -0.0000    0.1191
                0.6362   1.1949e-003  -1.5605e-004   3.6058e-003   2.6946e+005   5.6152e+004   3.5336e+005    0.0628   -0.0000    0.0131   -0.0000    0.1198
                0.6398   1.2214e-003  -1.5951e-004   3.6177e-003   2.7542e+005   5.7394e+004   3.5454e+005    0.0642   -0.0000    0.0134   -0.0000    0.1202
                0.6410   1.2300e-003  -1.6064e-004   3.6216e-003   2.7738e+005   5.7801e+004   3.5492e+005    0.0647   -0.0000    0.0135   -0.0000    0.1203

               lamina:  3     
              matName:  (blade-shell)
                     s           e11           e22           e12           s11           s22           s12   s11_fcT   s11_fcC   s22_fcT   s22_fcC   s12_fcS
                   (m)         (m/m)         (m/m)         (rad)          (Pa)          (Pa)          (Pa)       (-)       (-)       (-)       (-)       (-)
                0.0000   5.0889e-003  -6.6495e-004   1.2636e-003   9.7699e+007  -6.6206e+004   4.9914e+006    0.2899   -0.0000    0.0000    0.0002    0.0434
                0.0068   5.0557e-003  -6.6061e-004   1.1673e-003   9.7062e+007  -6.5777e+004   4.6110e+006    0.2880   -0.0000    0.0000    0.0002    0.0401
                0.0441   4.8013e-003  -6.2737e-004   6.5504e-004   9.2177e+007  -6.2532e+004   2.5874e+006    0.2735   -0.0000    0.0000    0.0002    0.0225
                0.0814   4.5473e-003  -5.9418e-004   1.6834e-004   8.7300e+007  -5.9291e+004   6.6495e+005    0.2590   -0.0000    0.0000    0.0002    0.0058
                0.1186   4.2517e-003  -5.5557e-004   2.9122e-004   8.1626e+007  -5.5519e+004   1.1503e+006    0.2422   -0.0000    0.0000    0.0002    0.0100
                0.1558   3.9381e-003  -5.1459e-004   7.1888e-004   7.5605e+007  -5.1519e+004   2.8396e+006    0.2243   -0.0000    0.0000    0.0002    0.0247
                0.1924   3.6270e-003  -4.7395e-004   1.1109e-003   6.9633e+007  -4.7552e+004   4.3879e+006    0.2066   -0.0000    0.0000    0.0001    0.0382
                0.2287   3.2978e-003  -4.3093e-004   1.4668e-003   6.3312e+007  -4.3353e+004   5.7940e+006    0.1879   -0.0000    0.0000    0.0001    0.0504
                0.2642   2.9746e-003  -3.8871e-004   1.7851e-003   5.7108e+007  -3.9234e+004   7.0510e+006    0.1695   -0.0000    0.0000    0.0001    0.0613
                0.2988   2.6642e-003  -3.4815e-004   2.0660e-003   5.1148e+007  -3.5278e+004   8.1608e+006    0.1518   -0.0000    0.0000    0.0001    0.0710
                0.3324   2.3696e-003  -3.0966e-004   2.3113e-003   4.5491e+007  -3.1523e+004   9.1296e+006    0.1350   -0.0000    0.0000    0.0001    0.0794
                0.3649   2.0844e-003  -2.7240e-004   2.5234e-003   4.0016e+007  -2.7890e+004   9.9675e+006    0.1187   -0.0000    0.0000    0.0001    0.0867
                0.3960   1.8411e-003  -2.4061e-004   2.7045e-003   3.5346e+007  -2.4793e+004   1.0683e+007    0.1049   -0.0000    0.0000    0.0001    0.0929
                0.4256   1.6172e-003  -2.1136e-004   2.8586e-003   3.1048e+007  -2.1940e+004   1.1292e+007    0.0921   -0.0000    0.0000    0.0001    0.0982
                0.4538   1.4123e-003  -1.8458e-004   2.9891e-003   2.7113e+007  -1.9332e+004   1.1807e+007    0.0805   -0.0000    0.0000    0.0001    0.1027
                0.4802   1.2624e-003  -1.6500e-004   3.0989e-003   2.4235e+007  -1.7426e+004   1.2241e+007    0.0719   -0.0000    0.0000    0.0001    0.1064
                0.5048   1.1225e-003  -1.4672e-004   3.1921e-003   2.1549e+007  -1.5644e+004   1.2609e+007    0.0639   -0.0000    0.0000    0.0000    0.1096
                0.5277   1.0215e-003  -1.3353e-004   3.2712e-003   1.9611e+007  -1.4361e+004   1.2921e+007    0.0582   -0.0000    0.0000    0.0000    0.1124
                0.5485   9.5441e-004  -1.2476e-004   3.3388e-003   1.8323e+007  -1.3507e+004   1.3188e+007    0.0544   -0.0000    0.0000    0.0000    0.1147
                0.5674   8.9344e-004  -1.1680e-004   3.3971e-003   1.7152e+007  -1.2733e+004   1.3419e+007    0.0509   -0.0000    0.0000    0.0000    0.1167
                0.5843   8.8291e-004  -1.1542e-004   3.4476e-003   1.6950e+007  -1.2600e+004   1.3618e+007    0.0503   -0.0000    0.0000    0.0000    0.1184
                0.5989   8.7875e-004  -1.1488e-004   3.4913e-003   1.6870e+007  -1.2547e+004   1.3791e+007    0.0501   -0.0000    0.0000    0.0000    0.1199
                0.6116   8.8581e-004  -1.1580e-004   3.5291e-003   1.7006e+007  -1.2636e+004   1.3940e+007    0.0505   -0.0000    0.0000    0.0000    0.1212
                0.6220   9.1813e-004  -1.2003e-004   3.5608e-003   1.7626e+007  -1.3045e+004   1.4065e+007    0.0523   -0.0000    0.0000    0.0000    0.1223
                0.6301   9.4363e-004  -1.2336e-004   3.5864e-003   1.8116e+007  -1.3368e+004   1.4166e+007    0.0538   -0.0000    0.0000    0.0000    0.1232
                0.6362   9.7827e-004  -1.2788e-004   3.6058e-003   1.8781e+007  -1.3801e+004   1.4243e+007    0.0557   -0.0000    0.0000    0.0000    0.1238
                0.6398   1.0056e-003  -1.3145e-004   3.6177e-003   1.9306e+007  -1.4144e+004   1.4290e+007    0.0573   -0.0000    0.0000    0.0000    0.1243
                0.6410   1.0143e-003  -1.3259e-004   3.6216e-003   1.9472e+007  -1.4255e+004   1.4305e+007    0.0578   -0.0000    0.0000    0.0000    0.1244

     Web:  panel  nNode   nLam     xc_St    xc_End         b         t         E_eff         G_eff      nu_eff     density  buckleCrit
            (-)    (-)    (-)       (-)       (-)       (m)       (m)          (Pa)          (Pa)         (-)    (kg/m^3)         (-)
              1     10      3    0.2373    0.2373    0.2485    0.0121   6.5707e+009   1.3870e+009      0.1347    691.8994      0.0803
              2     10      3    0.4627    0.4627    0.2332    0.0121   6.5707e+009   1.3870e+009      0.1347    691.8994      0.0749

            panel:  1     
           lam_num    nPlies        tPly      fibAng     matID  matName
               (-)       (-)         (m)       (deg)       (-)  (-)
                 1         1    0.002023      0.0000         7  (web-shell)
                 2         1    0.008047      0.0000         8  (web-core)
                 3         1    0.002023      0.0000         7  (web-shell)

               lamina:  1     
              matName:  (web-shell)
                     s           e11           e22           e12           s11           s22           s12   s11_fcT   s11_fcC   s22_fcT   s22_fcC   s12_fcS
                   (m)         (m/m)         (m/m)         (rad)          (Pa)          (Pa)          (Pa)       (-)       (-)       (-)       (-)       (-)
                0.0000  -5.4974e-003   7.4044e-004   1.2617e-002  -1.0548e+008   5.0353e+005   4.9838e+007    0.0000    0.2122    0.0015   -0.0000    0.4334
                0.0276  -4.3017e-003   5.7940e-004   1.2981e-002  -8.2542e+007   3.9410e+005   5.1273e+007    0.0000    0.1661    0.0012   -0.0000    0.4459
                0.0552  -3.1060e-003   4.1836e-004   1.3256e-002  -5.9599e+007   2.8466e+005   5.2361e+007    0.0000    0.1199    0.0008   -0.0000    0.4553
                0.0828  -1.9104e-003   2.5732e-004   1.3444e-002  -3.6656e+007   1.7523e+005   5.3102e+007    0.0000    0.0738    0.0005   -0.0000    0.4618
                0.1104  -7.1471e-004   9.6281e-005   1.3543e-002  -1.3714e+007   6.5799e+004   5.3495e+007    0.0000    0.0276    0.0002   -0.0000    0.4652
                0.1381   4.8367e-004  -6.5114e-005   1.3555e-002   9.2808e+006  -4.3686e+004   5.3542e+007    0.0275   -0.0000    0.0000    0.0001    0.4656
                0.1657   1.6793e-003  -2.2615e-004   1.3479e-002   3.2223e+007  -1.5312e+005   5.3241e+007    0.0956   -0.0000    0.0000    0.0005    0.4630
                0.1933   2.8750e-003  -3.8719e-004   1.3315e-002   5.5166e+007  -2.6255e+005   5.2593e+007    0.1637   -0.0000    0.0000    0.0008    0.4573
                0.2209   4.0707e-003  -5.4824e-004   1.3063e-002   7.8109e+007  -3.7198e+005   5.1597e+007    0.2318   -0.0000    0.0000    0.0011    0.4487
                0.2485   5.2664e-003  -7.0928e-004   1.2723e-002   1.0105e+008  -4.8141e+005   5.0255e+007    0.2999   -0.0000    0.0000    0.0014    0.4370

               lamina:  2     
              matName:  (web-core)
                     s           e11           e22           e12           s11           s22           s12   s11_fcT   s11_fcC   s22_fcT   s22_fcC   s12_fcS
                   (m)         (m/m)         (m/m)         (rad)          (Pa)          (Pa)          (Pa)       (-)       (-)       (-)       (-)       (-)
                0.0000  -5.5081e-003   7.4185e-004   1.2617e-002  -1.2404e+006  -2.5354e+005   1.2365e+006    0.0000    0.2891    0.0000    0.0591    0.4191
                0.0276  -4.3125e-003   5.8081e-004   1.2981e-002  -9.7112e+005  -1.9850e+005   1.2721e+006    0.0000    0.2264    0.0000    0.0463    0.4312
                0.0552  -3.1168e-003   4.1977e-004   1.3256e-002  -7.0187e+005  -1.4347e+005   1.2991e+006    0.0000    0.1636    0.0000    0.0334    0.4404
                0.0828  -1.9211e-003   2.5873e-004   1.3444e-002  -4.3262e+005  -8.8431e+004   1.3175e+006    0.0000    0.1008    0.0000    0.0206    0.4466
                0.1104  -7.2546e-004   9.7689e-005   1.3543e-002  -1.6337e+005  -3.3396e+004   1.3272e+006    0.0000    0.0381    0.0000    0.0078    0.4499
                0.1381   4.8097e-004  -6.4760e-005   1.3555e-002   1.0831e+005   2.2143e+004   1.3284e+006    0.0252   -0.0000    0.0052   -0.0000    0.4503
                0.1657   1.6766e-003  -2.2580e-004   1.3479e-002   3.7756e+005   7.7178e+004   1.3209e+006    0.0880   -0.0000    0.0180   -0.0000    0.4478
                0.1933   2.8723e-003  -3.8684e-004   1.3315e-002   6.4681e+005   1.3221e+005   1.3048e+006    0.1508   -0.0000    0.0308   -0.0000    0.4423
                0.2209   4.0680e-003  -5.4788e-004   1.3063e-002   9.1607e+005   1.8725e+005   1.2801e+006    0.2135   -0.0000    0.0436   -0.0000    0.4339
                0.2485   5.2636e-003  -7.0892e-004   1.2723e-002   1.1853e+006   2.4228e+005   1.2468e+006    0.2763   -0.0000    0.0565   -0.0000    0.4227

               lamina:  3     
              matName:  (web-shell)
                     s           e11           e22           e12           s11           s22           s12   s11_fcT   s11_fcC   s22_fcT   s22_fcC   s12_fcS
                   (m)         (m/m)         (m/m)         (rad)          (Pa)          (Pa)          (Pa)       (-)       (-)       (-)       (-)       (-)
                0.0000  -5.5108e-003   7.4221e-004   1.2617e-002  -1.0574e+008   5.0379e+005   4.9838e+007    0.0000    0.2128    0.0015   -0.0000    0.4334
                0.0276  -4.3152e-003   5.8116e-004   1.2981e-002  -8.2800e+007   3.9436e+005   5.1273e+007    0.0000    0.1666    0.0012   -0.0000    0.4459
                0.0552  -3.1195e-003   4.2012e-004   1.3256e-002  -5.9857e+007   2.8493e+005   5.2361e+007    0.0000    0.1204    0.0008   -0.0000    0.4553
                0.0828  -1.9238e-003   2.5908e-004   1.3444e-002  -3.6915e+007   1.7549e+005   5.3102e+007    0.0000    0.0743    0.0005   -0.0000    0.4618
                0.1104  -7.2816e-004   9.8043e-005   1.3543e-002  -1.3972e+007   6.6062e+004   5.3495e+007    0.0000    0.0281    0.0002   -0.0000    0.4652
                0.1381   4.7022e-004  -6.3351e-005   1.3555e-002   9.0225e+006  -4.3422e+004   5.3542e+007    0.0268   -0.0000    0.0000    0.0001    0.4656
                0.1657   1.6659e-003  -2.2439e-004   1.3479e-002   3.1965e+007  -1.5285e+005   5.3241e+007    0.0949   -0.0000    0.0000    0.0005    0.4630
                0.1933   2.8616e-003  -3.8543e-004   1.3315e-002   5.4908e+007  -2.6229e+005   5.2593e+007    0.1629   -0.0000    0.0000    0.0008    0.4573
                0.2209   4.0572e-003  -5.4647e-004   1.3063e-002   7.7850e+007  -3.7172e+005   5.1597e+007    0.2310   -0.0000    0.0000    0.0011    0.4487
                0.2485   5.2529e-003  -7.0751e-004   1.2723e-002   1.0079e+008  -4.8115e+005   5.0255e+007    0.2991   -0.0000    0.0000    0.0014    0.4370

            panel:  2     
           lam_num    nPlies        tPly      fibAng     matID  matName
               (-)       (-)         (m)       (deg)       (-)  (-)
                 1         1    0.002023      0.0000         7  (web-shell)
                 2         1    0.008047      0.0000         8  (web-core)
                 3         1    0.002023      0.0000         7  (web-shell)

               lamina:  1     
              matName:  (web-shell)
                     s           e11           e22           e12           s11           s22           s12   s11_fcT   s11_fcC   s22_fcT   s22_fcC   s12_fcS
                   (m)         (m/m)         (m/m)         (rad)          (Pa)          (Pa)          (Pa)       (-)       (-)       (-)       (-)       (-)
                0.0000  -5.1950e-003   6.9971e-004   1.4274e-002  -9.9682e+007   4.7584e+005   5.6381e+007    0.0000    0.2006    0.0014   -0.0000    0.4903
                0.0259  -4.0731e-003   5.4861e-004   1.4593e-002  -7.8155e+007   3.7316e+005   5.7644e+007    0.0000    0.1573    0.0011   -0.0000    0.5012
                0.0518  -2.9512e-003   3.9750e-004   1.4835e-002  -5.6628e+007   2.7048e+005   5.8600e+007    0.0000    0.1139    0.0008   -0.0000    0.5096
                0.0777  -1.8293e-003   2.4640e-004   1.5000e-002  -3.5100e+007   1.6780e+005   5.9251e+007    0.0000    0.0706    0.0005   -0.0000    0.5152
                0.1036  -7.0739e-004   9.5294e-005   1.5088e-002  -1.3573e+007   6.5116e+004   5.9596e+007    0.0000    0.0273    0.0002   -0.0000    0.5182
                0.1295   4.1712e-004  -5.6152e-005   1.5098e-002   8.0039e+006  -3.7615e+004   5.9636e+007    0.0238   -0.0000    0.0000    0.0001    0.5186
                0.1554   1.5390e-003  -2.0726e-004   1.5030e-002   2.9531e+007  -1.4030e+005   5.9369e+007    0.0876   -0.0000    0.0000    0.0004    0.5163
                0.1813   2.6609e-003  -3.5836e-004   1.4885e-002   5.1058e+007  -2.4298e+005   5.8798e+007    0.1515   -0.0000    0.0000    0.0007    0.5113
                0.2073   3.7828e-003  -5.0947e-004   1.4663e-002   7.2585e+007  -3.4566e+005   5.7920e+007    0.2154   -0.0000    0.0000    0.0010    0.5037
                0.2332   4.9047e-003  -6.6057e-004   1.4364e-002   9.4112e+007  -4.4834e+005   5.6737e+007    0.2793   -0.0000    0.0000    0.0013    0.4934

               lamina:  2     
              matName:  (web-core)
                     s           e11           e22           e12           s11           s22           s12   s11_fcT   s11_fcC   s22_fcT   s22_fcC   s12_fcS
                   (m)         (m/m)         (m/m)         (rad)          (Pa)          (Pa)          (Pa)       (-)       (-)       (-)       (-)       (-)
                0.0000  -5.2054e-003   7.0107e-004   1.4274e-002  -1.1722e+006  -2.3960e+005   1.3988e+006    0.0000    0.2732    0.0000    0.0559    0.4742
                0.0259  -4.0835e-003   5.4997e-004   1.4593e-002  -9.1956e+005  -1.8796e+005   1.4301e+006    0.0000    0.2143    0.0000    0.0438    0.4848
                0.0518  -2.9616e-003   3.9886e-004   1.4835e-002  -6.6692e+005  -1.3632e+005   1.4539e+006    0.0000    0.1555    0.0000    0.0318    0.4928
                0.0777  -1.8397e-003   2.4776e-004   1.5000e-002  -4.1428e+005  -8.4682e+004   1.4700e+006    0.0000    0.0966    0.0000    0.0197    0.4983
                0.1036  -7.1777e-004   9.6655e-005   1.5088e-002  -1.6164e+005  -3.3042e+004   1.4786e+006    0.0000    0.0377    0.0000    0.0077    0.5012
                0.1295   4.1451e-004  -5.5810e-005   1.5098e-002   9.3345e+004   1.9084e+004   1.4796e+006    0.0218   -0.0000    0.0044   -0.0000    0.5015
                0.1554   1.5364e-003  -2.0691e-004   1.5030e-002   3.4599e+005   7.0723e+004   1.4730e+006    0.0806   -0.0000    0.0165   -0.0000    0.4993
                0.1813   2.6583e-003  -3.5802e-004   1.4885e-002   5.9863e+005   1.2236e+005   1.4588e+006    0.1395   -0.0000    0.0285   -0.0000    0.4945
                0.2073   3.7802e-003  -5.0912e-004   1.4663e-002   8.5126e+005   1.7400e+005   1.4370e+006    0.1984   -0.0000    0.0406   -0.0000    0.4871
                0.2332   4.9021e-003  -6.6023e-004   1.4364e-002   1.1039e+006   2.2564e+005   1.4076e+006    0.2573   -0.0000    0.0526   -0.0000    0.4772

               lamina:  3     
              matName:  (web-shell)
                     s           e11           e22           e12           s11           s22           s12   s11_fcT   s11_fcC   s22_fcT   s22_fcC   s12_fcS
                   (m)         (m/m)         (m/m)         (rad)          (Pa)          (Pa)          (Pa)       (-)       (-)       (-)       (-)       (-)
                0.0000  -5.2080e-003   7.0141e-004   1.4274e-002  -9.9931e+007   4.7609e+005   5.6381e+007    0.0000    0.2011    0.0014   -0.0000    0.4903
                0.0259  -4.0861e-003   5.5031e-004   1.4593e-002  -7.8404e+007   3.7341e+005   5.7644e+007    0.0000    0.1578    0.0011   -0.0000    0.5012
                0.0518  -2.9642e-003   3.9921e-004   1.4835e-002  -5.6877e+007   2.7073e+005   5.8600e+007    0.0000    0.1144    0.0008   -0.0000    0.5096
                0.0777  -1.8423e-003   2.4810e-004   1.5000e-002  -3.5350e+007   1.6805e+005   5.9251e+007    0.0000    0.0711    0.0005   -0.0000    0.5152
                0.1036  -7.2038e-004   9.6997e-005   1.5088e-002  -1.3823e+007   6.5371e+004   5.9596e+007    0.0000    0.0278    0.0002   -0.0000    0.5182
                0.1295   4.0413e-004  -5.4450e-005   1.5098e-002   7.7544e+006  -3.7361e+004   5.9636e+007    0.0230   -0.0000    0.0000    0.0001    0.5186
                0.1554   1.5260e-003  -2.0555e-004   1.5030e-002   2.9282e+007  -1.4004e+005   5.9369e+007    0.0869   -0.0000    0.0000    0.0004    0.5163
                0.1813   2.6479e-003  -3.5666e-004   1.4885e-002   5.0809e+007  -2.4272e+005   5.8798e+007    0.1508   -0.0000    0.0000    0.0007    0.5113
                0.2073   3.7698e-003  -5.0776e-004   1.4663e-002   7.2336e+007  -3.4540e+005   5.7920e+007    0.2146   -0.0000    0.0000    0.0010    0.5037
                0.2332   4.8917e-003  -6.5887e-004   1.4364e-002   9.3863e+007  -4.4808e+005   5.6737e+007    0.2785   -0.0000    0.0000    0.0013    0.4934

================================================================================
sec        =  20     
zSec       =  5.6970  (m)
nPanelsTop =  3      
nPanelsBot =  3      
nWebs      =  2      

    Top:  panel  nNode   nLam     xc_St    xc_End         b         t         E_eff         G_eff      nu_eff     density  buckleCrit
            (-)    (-)    (-)       (-)       (-)       (m)       (m)          (Pa)          (Pa)         (-)    (kg/m^3)         (-)
              1     18      3    0.0000    0.2369    0.3116    0.0076   1.8707e+010   3.8500e+009      0.1301   1631.8295      0.2996
              2      9      5    0.2369    0.4631    0.2544    0.0112   5.3665e+010   4.1863e+009      0.1614   1597.4286      0.4791
              3     28      3    0.4631    1.0000    0.6216    0.0094   1.5289e+010   3.1564e+009      0.1306   1367.1408      0.9022

            panel:  1     
           lam_num    nPlies        tPly      fibAng     matID  matName
               (-)       (-)         (m)       (deg)       (-)  (-)
                 1         1    0.003717      0.0000         2  (blade-shell)
                 2         1    0.000198      0.0000         5  (LEP-core)
                 3         1    0.003717      0.0000         2  (blade-shell)

               lamina:  1     
              matName:  (blade-shell)
                     s           e11           e22           e12           s11           s22           s12   s11_fcT   s11_fcC   s22_fcT   s22_fcC   s12_fcS
                   (m)         (m/m)         (m/m)         (rad)          (Pa)          (Pa)          (Pa)       (-)       (-)       (-)       (-)       (-)
                0.0000   4.0012e-004  -5.2041e-005   6.7068e-003   7.6822e+006  -5.0783e+002   2.6492e+007    0.0228   -0.0000    0.0000    0.0000    0.2304
                0.0036   2.5277e-004  -3.2877e-005   6.7096e-003   4.8532e+006  -3.2275e+002   2.6503e+007    0.0144   -0.0000    0.0000    0.0000    0.2305
                0.0140  -3.6229e-004   4.7109e-005   6.7085e-003  -6.9560e+006   2.2094e+002   2.6499e+007    0.0000    0.0140    0.0000   -0.0000    0.2304
                0.0270  -9.5702e-004   1.2446e-004   6.6888e-003  -1.8375e+007   8.6920e+002   2.6421e+007    0.0000    0.0370    0.0000   -0.0000    0.2297
                0.0382  -1.3795e-003   1.7941e-004   6.6573e-003  -2.6487e+007   1.3215e+003   2.6296e+007    0.0000    0.0533    0.0000   -0.0000    0.2287
                0.0529  -1.8858e-003   2.4526e-004   6.5972e-003  -3.6208e+007   1.9221e+003   2.6059e+007    0.0000    0.0729    0.0000   -0.0000    0.2266
                0.0680  -2.3367e-003   3.0389e-004   6.5150e-003  -4.4864e+007   2.4445e+003   2.5734e+007    0.0000    0.0903    0.0000   -0.0000    0.2238
                0.0853  -2.7827e-003   3.6190e-004   6.3995e-003  -5.3427e+007   2.9907e+003   2.5278e+007    0.0000    0.1075    0.0000   -0.0000    0.2198
                0.1046  -3.2804e-003   4.2664e-004   6.2440e-003  -6.2984e+007   3.5880e+003   2.4664e+007    0.0000    0.1267    0.0000   -0.0000    0.2145
                0.1245  -3.6690e-003   4.7717e-004   6.0596e-003  -7.0444e+007   4.0546e+003   2.3935e+007    0.0000    0.1417    0.0000   -0.0000    0.2081
                0.1466  -4.0896e-003   5.3188e-004   5.8282e-003  -7.8520e+007   4.5753e+003   2.3022e+007    0.0000    0.1580    0.0000   -0.0000    0.2002
                0.1699  -4.4836e-003   5.8312e-004   5.5563e-003  -8.6084e+007   5.0559e+003   2.1947e+007    0.0000    0.1732    0.0000   -0.0000    0.1908
                0.1945  -4.8259e-003   6.2765e-004   5.2425e-003  -9.2657e+007   5.4794e+003   2.0708e+007    0.0000    0.1864    0.0000   -0.0000    0.1801
                0.2209  -5.1926e-003   6.7534e-004   4.8803e-003  -9.9697e+007   5.9318e+003   1.9277e+007    0.0000    0.2006    0.0000   -0.0000    0.1676
                0.2480  -5.4662e-003   7.1093e-004   4.4814e-003  -1.0495e+008   6.2675e+003   1.7702e+007    0.0000    0.2112    0.0000   -0.0000    0.1539
                0.2766  -5.7293e-003   7.4514e-004   4.0387e-003  -1.1000e+008   6.5955e+003   1.5953e+007    0.0000    0.2213    0.0000   -0.0000    0.1387
                0.3064  -5.9761e-003   7.7725e-004   3.5554e-003  -1.1474e+008   6.9030e+003   1.4044e+007    0.0000    0.2309    0.0000   -0.0000    0.1221
                0.3116  -6.0051e-003   7.8101e-004   3.4698e-003  -1.1530e+008   6.9335e+003   1.3706e+007    0.0000    0.2320    0.0000   -0.0000    0.1192

               lamina:  2     
              matName:  (LEP-core)
                     s           e11           e22           e12           s11           s22           s12   s11_fcT   s11_fcC   s22_fcT   s22_fcC   s12_fcS
                   (m)         (m/m)         (m/m)         (rad)          (Pa)          (Pa)          (Pa)       (-)       (-)       (-)       (-)       (-)
                0.0000   4.0848e-004  -5.3128e-005   6.7068e-003   9.2132e+004   1.9247e+004   6.5727e+005    0.0215   -0.0000    0.0045   -0.0000    0.2228
                0.0036   2.6113e-004  -3.3964e-005   6.7096e-003   5.8898e+004   1.2304e+004   6.5754e+005    0.0137   -0.0000    0.0029   -0.0000    0.2229
                0.0140  -1.8062e-004   2.3492e-005   6.7085e-003  -4.0739e+004  -8.5104e+003   6.5743e+005    0.0000    0.0095    0.0000    0.0020    0.2229
                0.0270  -6.9870e-004   9.0876e-005   6.6888e-003  -1.5759e+005  -3.2921e+004   6.5550e+005    0.0000    0.0367    0.0000    0.0077    0.2222
                0.0382  -1.0603e-003   1.3791e-004   6.6573e-003  -2.3916e+005  -4.9961e+004   6.5241e+005    0.0000    0.0557    0.0000    0.0116    0.2212
                0.0529  -1.5392e-003   2.0020e-004   6.5972e-003  -3.4717e+005  -7.2524e+004   6.4653e+005    0.0000    0.0809    0.0000    0.0169    0.2192
                0.0680  -1.9560e-003   2.5441e-004   6.5150e-003  -4.4117e+005  -9.2162e+004   6.3847e+005    0.0000    0.1028    0.0000    0.0215    0.2164
                0.0853  -2.3912e-003   3.1100e-004   6.3995e-003  -5.3932e+005  -1.1267e+005   6.2716e+005    0.0000    0.1257    0.0000    0.0263    0.2126
                0.1046  -2.8673e-003   3.7293e-004   6.2440e-003  -6.4671e+005  -1.3510e+005   6.1192e+005    0.0000    0.1507    0.0000    0.0315    0.2074
                0.1245  -3.2392e-003   4.2130e-004   6.0596e-003  -7.3059e+005  -1.5262e+005   5.9384e+005    0.0000    0.1703    0.0000    0.0356    0.2013
                0.1466  -3.6538e-003   4.7523e-004   5.8282e-003  -8.2411e+005  -1.7216e+005   5.7117e+005    0.0000    0.1921    0.0000    0.0401    0.1936
                0.1699  -4.0367e-003   5.2503e-004   5.5563e-003  -9.1047e+005  -1.9020e+005   5.4451e+005    0.0000    0.2122    0.0000    0.0443    0.1846
                0.1945  -4.3740e-003   5.6890e-004   5.2425e-003  -9.8655e+005  -2.0609e+005   5.1376e+005    0.0000    0.2300    0.0000    0.0480    0.1742
                0.2209  -4.7343e-003   6.1577e-004   4.8803e-003  -1.0678e+006  -2.2307e+005   4.7826e+005    0.0000    0.2489    0.0000    0.0520    0.1621
                0.2480  -5.0018e-003   6.5056e-004   4.4814e-003  -1.1282e+006  -2.3567e+005   4.3918e+005    0.0000    0.2630    0.0000    0.0549    0.1489
                0.2766  -5.2630e-003   6.8452e-004   4.0387e-003  -1.1871e+006  -2.4798e+005   3.9579e+005    0.0000    0.2767    0.0000    0.0578    0.1342
                0.3064  -5.5078e-003   7.1637e-004   3.5554e-003  -1.2423e+006  -2.5952e+005   3.4843e+005    0.0000    0.2896    0.0000    0.0605    0.1181
                0.3116  -5.5322e-003   7.1954e-004   3.4698e-003  -1.2478e+006  -2.6066e+005   3.4004e+005    0.0000    0.2909    0.0000    0.0608    0.1153

               lamina:  3     
              matName:  (blade-shell)
                     s           e11           e22           e12           s11           s22           s12   s11_fcT   s11_fcC   s22_fcT   s22_fcC   s12_fcS
                   (m)         (m/m)         (m/m)         (rad)          (Pa)          (Pa)          (Pa)       (-)       (-)       (-)       (-)       (-)
                0.0000   5.6531e-004  -7.3517e-005   6.7068e-003   1.0854e+007  -5.0797e+002   2.6492e+007    0.0322   -0.0000    0.0000    0.0000    0.2304
                0.0036   4.1797e-004  -5.4352e-005   6.7096e-003   8.0249e+006  -3.2289e+002   2.6503e+007    0.0238   -0.0000    0.0000    0.0000    0.2305
                0.0140  -1.7093e-004   2.2233e-005   6.7085e-003  -3.2819e+006   2.2079e+002   2.6499e+007    0.0000    0.0066    0.0000   -0.0000    0.2304
                0.0270  -6.8493e-004   8.9086e-005   6.6888e-003  -1.3151e+007   8.6898e+002   2.6421e+007    0.0000    0.0265    0.0000   -0.0000    0.2297
                0.0382  -1.0433e-003   1.3570e-004   6.6573e-003  -2.0032e+007   1.3212e+003   2.6296e+007    0.0000    0.0403    0.0000   -0.0000    0.2287
                0.0529  -1.5207e-003   1.9779e-004   6.5972e-003  -2.9198e+007   1.9218e+003   2.6059e+007    0.0000    0.0587    0.0000   -0.0000    0.2266
                0.0680  -1.9357e-003   2.5177e-004   6.5150e-003  -3.7165e+007   2.4442e+003   2.5734e+007    0.0000    0.0748    0.0000   -0.0000    0.2238
                0.0853  -2.3703e-003   3.0829e-004   6.3995e-003  -4.5509e+007   2.9904e+003   2.5278e+007    0.0000    0.0916    0.0000   -0.0000    0.2198
                0.1046  -2.8452e-003   3.7006e-004   6.2440e-003  -5.4628e+007   3.5877e+003   2.4664e+007    0.0000    0.1099    0.0000   -0.0000    0.2145
                0.1245  -3.2162e-003   4.1832e-004   6.0596e-003  -6.1751e+007   4.0542e+003   2.3935e+007    0.0000    0.1242    0.0000   -0.0000    0.2081
                0.1466  -3.6306e-003   4.7221e-004   5.8282e-003  -6.9706e+007   4.5749e+003   2.3022e+007    0.0000    0.1403    0.0000   -0.0000    0.2002
                0.1699  -4.0129e-003   5.2193e-004   5.5563e-003  -7.7046e+007   5.0555e+003   2.1947e+007    0.0000    0.1550    0.0000   -0.0000    0.1908
                0.1945  -4.3499e-003   5.6577e-004   5.2425e-003  -8.3518e+007   5.4790e+003   2.0708e+007    0.0000    0.1680    0.0000   -0.0000    0.1801
                0.2209  -4.7099e-003   6.1259e-004   4.8803e-003  -9.0429e+007   5.9314e+003   1.9277e+007    0.0000    0.1820    0.0000   -0.0000    0.1676
                0.2480  -4.9770e-003   6.4734e-004   4.4814e-003  -9.5559e+007   6.2671e+003   1.7702e+007    0.0000    0.1923    0.0000   -0.0000    0.1539
                0.2766  -5.2381e-003   6.8129e-004   4.0387e-003  -1.0057e+008   6.5951e+003   1.5953e+007    0.0000    0.2024    0.0000   -0.0000    0.1387
                0.3064  -5.4829e-003   7.1313e-004   3.5554e-003  -1.0527e+008   6.9026e+003   1.4044e+007    0.0000    0.2118    0.0000   -0.0000    0.1221
                0.3116  -5.5070e-003   7.1626e-004   3.4698e-003  -1.0573e+008   6.9331e+003   1.3706e+007    0.0000    0.2127    0.0000   -0.0000    0.1192

            panel:  2     
           lam_num    nPlies        tPly      fibAng     matID  matName
               (-)       (-)         (m)       (deg)       (-)  (-)
                 1         1    0.003717      0.0000         2  (blade-shell)
                 2         1    0.001860      0.0000         3  (spar-uni)
                 3         1    0.000047      0.0000         4  (spar-core)
                 4         1    0.001860      0.0000         3  (spar-uni)
                 5         1    0.003717      0.0000         2  (blade-shell)

               lamina:  1     
              matName:  (blade-shell)
                     s           e11           e22           e12           s11           s22           s12   s11_fcT   s11_fcC   s22_fcT   s22_fcC   s12_fcS
                   (m)         (m/m)         (m/m)         (rad)          (Pa)          (Pa)          (Pa)       (-)       (-)       (-)       (-)       (-)
                0.0000  -7.1365e-003   1.1038e-003   6.5464e-003  -1.3657e+008   3.4379e+006   2.5858e+007    0.0000    0.2748    0.0102   -0.0000    0.2249
                0.0253  -7.2572e-003   1.1233e-003   5.4401e-003  -1.3888e+008   3.5120e+006   2.1488e+007    0.0000    0.2794    0.0104   -0.0000    0.1869
                0.0569  -7.4133e-003   1.1483e-003   4.0246e-003  -1.4187e+008   3.6050e+006   1.5897e+007    0.0000    0.2854    0.0107   -0.0000    0.1382
                0.0891  -7.4833e-003   1.1595e-003   2.5547e-003  -1.4320e+008   3.6454e+006   1.0091e+007    0.0000    0.2881    0.0108   -0.0000    0.0877
                0.1223  -7.4849e-003   1.1597e-003   1.0348e-003  -1.4324e+008   3.6461e+006   4.0875e+006    0.0000    0.2882    0.0108   -0.0000    0.0355
                0.1560  -7.4844e-003   1.1597e-003   5.0854e-004  -1.4323e+008   3.6470e+006   2.0087e+006    0.0000    0.2882    0.0108   -0.0000    0.0175
                0.1903  -7.3313e-003   1.1352e-003   2.0602e-003  -1.4030e+008   3.5566e+006   8.1378e+006    0.0000    0.2823    0.0106   -0.0000    0.0708
                0.2253  -7.1715e-003   1.1095e-003   3.5973e-003  -1.3724e+008   3.4600e+006   1.4209e+007    0.0000    0.2761    0.0103   -0.0000    0.1236
                0.2544  -7.0054e-003   1.0827e-003   4.8408e-003  -1.3407e+008   3.3596e+006   1.9121e+007    0.0000    0.2698    0.0100   -0.0000    0.1663

               lamina:  2     
              matName:  (spar-uni)
                     s           e11           e22           e12           s11           s22           s12   s11_fcT   s11_fcC   s22_fcT   s22_fcC   s12_fcS
                   (m)         (m/m)         (m/m)         (rad)          (Pa)          (Pa)          (Pa)       (-)       (-)       (-)       (-)       (-)
                0.0000  -6.0118e-003   9.5424e-004   6.5464e-003  -7.4178e+008  -7.5053e+006   3.0833e+007    0.0000    0.7418    0.0000    0.1253    0.2994
                0.0253  -6.1325e-003   9.7373e-004   5.4401e-003  -7.5667e+008  -7.6533e+006   2.5623e+007    0.0000    0.7567    0.0000    0.1278    0.2488
                0.0569  -6.2853e-003   9.9834e-004   4.0246e-003  -7.7552e+008  -7.8410e+006   1.8956e+007    0.0000    0.7755    0.0000    0.1309    0.1840
                0.0891  -6.3521e-003   1.0091e-003   2.5547e-003  -7.8377e+008  -7.9234e+006   1.2032e+007    0.0000    0.7838    0.0000    0.1323    0.1168
                0.1223  -6.3535e-003   1.0093e-003   1.0348e-003  -7.8393e+008  -7.9250e+006   4.8740e+006    0.0000    0.7839    0.0000    0.1323    0.0473
                0.1560  -6.3543e-003   1.0095e-003   5.0854e-004  -7.8404e+008  -7.9259e+006   2.3952e+006    0.0000    0.7840    0.0000    0.1323    0.0233
                0.1903  -6.2056e-003   9.8551e-004   2.0602e-003  -7.6569e+008  -7.7430e+006   9.7035e+006    0.0000    0.7657    0.0000    0.1293    0.0942
                0.2253  -6.0475e-003   9.6001e-004   3.5973e-003  -7.4618e+008  -7.5490e+006   1.6943e+007    0.0000    0.7462    0.0000    0.1260    0.1645
                0.2544  -5.8833e-003   9.3353e-004   4.8408e-003  -7.2592e+008  -7.3474e+006   2.2800e+007    0.0000    0.7259    0.0000    0.1227    0.2214

               lamina:  3     
              matName:  (spar-core)
                     s           e11           e22           e12           s11           s22           s12   s11_fcT   s11_fcC   s22_fcT   s22_fcC   s12_fcS
                   (m)         (m/m)         (m/m)         (rad)          (Pa)          (Pa)          (Pa)       (-)       (-)       (-)       (-)       (-)
                0.0000  -5.4490e-003   8.7942e-004   6.5464e-003  -1.2158e+006  -2.1652e+005   6.4154e+005    0.0000    0.2834    0.0000    0.0505    0.2175
                0.0253  -5.5698e-003   8.9891e-004   5.4401e-003  -1.2427e+006  -2.2132e+005   5.3313e+005    0.0000    0.2897    0.0000    0.0516    0.1807
                0.0569  -5.7208e-003   9.2329e-004   4.0246e-003  -1.2764e+006  -2.2732e+005   3.9441e+005    0.0000    0.2975    0.0000    0.0530    0.1337
                0.0891  -5.7862e-003   9.3384e-004   2.5547e-003  -1.2910e+006  -2.2991e+005   2.5036e+005    0.0000    0.3009    0.0000    0.0536    0.0849
                0.1223  -5.7874e-003   9.3403e-004   1.0348e-003  -1.2912e+006  -2.2996e+005   1.0141e+005    0.0000    0.3010    0.0000    0.0536    0.0344
                0.1560  -5.7889e-003   9.3428e-004   5.0854e-004  -1.2916e+006  -2.3002e+005   4.9837e+004    0.0000    0.3011    0.0000    0.0536    0.0169
                0.1903  -5.6423e-003   9.1061e-004   2.0602e-003  -1.2589e+006  -2.2420e+005   2.0190e+005    0.0000    0.2934    0.0000    0.0523    0.0684
                0.2253  -5.4851e-003   8.8524e-004   3.5973e-003  -1.2238e+006  -2.1795e+005   3.5254e+005    0.0000    0.2853    0.0000    0.0508    0.1195
                0.2544  -5.3218e-003   8.5888e-004   4.8408e-003  -1.1874e+006  -2.1146e+005   4.7440e+005    0.0000    0.2768    0.0000    0.0493    0.1608

               lamina:  4     
              matName:  (spar-uni)
                     s           e11           e22           e12           s11           s22           s12   s11_fcT   s11_fcC   s22_fcT   s22_fcC   s12_fcS
                   (m)         (m/m)         (m/m)         (rad)          (Pa)          (Pa)          (Pa)       (-)       (-)       (-)       (-)       (-)
                0.0000  -5.4349e-003   8.7753e-004   6.5464e-003  -6.7055e+008  -6.6623e+006   3.0833e+007    0.0000    0.6706    0.0000    0.1112    0.2994
                0.0253  -5.5556e-003   8.9702e-004   5.4401e-003  -6.8545e+008  -6.8104e+006   2.5623e+007    0.0000    0.6855    0.0000    0.1137    0.2488
                0.0569  -5.7066e-003   9.2140e-004   4.0246e-003  -7.0408e+008  -6.9955e+006   1.8956e+007    0.0000    0.7041    0.0000    0.1168    0.1840
                0.0891  -5.7719e-003   9.3194e-004   2.5547e-003  -7.1214e+008  -7.0756e+006   1.2032e+007    0.0000    0.7121    0.0000    0.1181    0.1168
                0.1223  -5.7731e-003   9.3213e-004   1.0348e-003  -7.1228e+008  -7.0770e+006   4.8740e+006    0.0000    0.7123    0.0000    0.1181    0.0473
                0.1560  -5.7746e-003   9.3238e-004   5.0854e-004  -7.1248e+008  -7.0790e+006   2.3952e+006    0.0000    0.7125    0.0000    0.1182    0.0233
                0.1903  -5.6281e-003   9.0873e-004   2.0602e-003  -6.9440e+008  -6.8993e+006   9.7035e+006    0.0000    0.6944    0.0000    0.1152    0.0942
                0.2253  -5.4709e-003   8.8335e-004   3.5973e-003  -6.7500e+008  -6.7065e+006   1.6943e+007    0.0000    0.6750    0.0000    0.1120    0.1645
                0.2544  -5.3076e-003   8.5699e-004   4.8408e-003  -6.5486e+008  -6.5063e+006   2.2800e+007    0.0000    0.6549    0.0000    0.1086    0.2214

               lamina:  5     
              matName:  (blade-shell)
                     s           e11           e22           e12           s11           s22           s12   s11_fcT   s11_fcC   s22_fcT   s22_fcC   s12_fcS
                   (m)         (m/m)         (m/m)         (rad)          (Pa)          (Pa)          (Pa)       (-)       (-)       (-)       (-)       (-)
                0.0000  -4.8721e-003   8.0271e-004   6.5464e-003  -9.3115e+007   3.3071e+006   2.5858e+007    0.0000    0.1874    0.0098   -0.0000    0.2249
                0.0253  -4.9929e-003   8.2220e-004   5.4401e-003  -9.5424e+007   3.3813e+006   2.1488e+007    0.0000    0.1920    0.0100   -0.0000    0.1869
                0.0569  -5.1422e-003   8.4636e-004   4.0246e-003  -9.8279e+007   3.4738e+006   1.5897e+007    0.0000    0.1977    0.0103   -0.0000    0.1382
                0.0891  -5.2060e-003   8.5670e-004   2.5547e-003  -9.9498e+007   3.5139e+006   1.0091e+007    0.0000    0.2002    0.0104   -0.0000    0.0877
                0.1223  -5.2070e-003   8.5686e-004   1.0348e-003  -9.9517e+007   3.5146e+006   4.0875e+006    0.0000    0.2002    0.0104   -0.0000    0.0355
                0.1560  -5.2092e-003   8.5720e-004   5.0854e-004  -9.9560e+007   3.5155e+006   2.0087e+006    0.0000    0.2003    0.0104   -0.0000    0.0175
                0.1903  -5.0648e-003   8.3384e-004   2.0602e-003  -9.6799e+007   3.4257e+006   8.1378e+006    0.0000    0.1948    0.0102   -0.0000    0.0708
                0.2253  -4.9085e-003   8.0857e-004   3.5973e-003  -9.3810e+007   3.3293e+006   1.4209e+007    0.0000    0.1888    0.0099   -0.0000    0.1236
                0.2544  -4.7462e-003   7.8234e-004   4.8408e-003  -9.0707e+007   3.2291e+006   1.9121e+007    0.0000    0.1825    0.0096   -0.0000    0.1663

            panel:  3     
           lam_num    nPlies        tPly      fibAng     matID  matName
               (-)       (-)         (m)       (deg)       (-)  (-)
                 1         1    0.003717      0.0000         2  (blade-shell)
                 2         1    0.001929      0.0000         6  (TEP-core)
                 3         1    0.003717      0.0000         2  (blade-shell)

               lamina:  1     
              matName:  (blade-shell)
                     s           e11           e22           e12           s11           s22           s12   s11_fcT   s11_fcC   s22_fcT   s22_fcC   s12_fcS
                   (m)         (m/m)         (m/m)         (rad)          (Pa)          (Pa)          (Pa)       (-)       (-)       (-)       (-)       (-)
                0.0000  -5.8445e-003   7.6314e-004   1.6114e-004  -1.1221e+008   6.5488e+004   6.3649e+005    0.0000    0.2258    0.0002   -0.0000    0.0055
                0.0060  -5.8079e-003   7.5835e-004   6.6078e-005  -1.1150e+008   6.5082e+004   2.6101e+005    0.0000    0.2244    0.0002   -0.0000    0.0023
                0.0418  -5.5227e-003   7.2111e-004   4.8676e-004  -1.0603e+008   6.1614e+004   1.9227e+006    0.0000    0.2133    0.0002   -0.0000    0.0167
                0.0775  -5.2369e-003   6.8378e-004   1.0078e-003  -1.0054e+008   5.8152e+004   3.9809e+006    0.0000    0.2023    0.0002   -0.0000    0.0346
                0.1133  -4.8887e-003   6.3829e-004   1.4958e-003  -9.3855e+007   5.3941e+004   5.9083e+006    0.0000    0.1888    0.0002   -0.0000    0.0514
                0.1491  -4.5153e-003   5.8952e-004   1.9440e-003  -8.6688e+007   4.9403e+004   7.6790e+006    0.0000    0.1744    0.0001   -0.0000    0.0668
                0.1844  -4.1427e-003   5.4085e-004   2.3469e-003  -7.9534e+007   4.4887e+004   9.2703e+006    0.0000    0.1600    0.0001   -0.0000    0.0806
                0.2194  -3.7203e-003   4.8568e-004   2.7049e-003  -7.1425e+007   3.9764e+004   1.0684e+007    0.0000    0.1437    0.0001   -0.0000    0.0929
                0.2538  -3.3075e-003   4.3176e-004   3.0130e-003  -6.3500e+007   3.4737e+004   1.1901e+007    0.0000    0.1278    0.0001   -0.0000    0.1035
                0.2874  -2.8940e-003   3.7774e-004   3.2719e-003  -5.5560e+007   2.9708e+004   1.2924e+007    0.0000    0.1118    0.0001   -0.0000    0.1124
                0.3201  -2.4784e-003   3.2346e-004   3.4832e-003  -4.7583e+007   2.4650e+004   1.3759e+007    0.0000    0.0957    0.0001   -0.0000    0.1196
                0.3518  -2.0775e-003   2.7109e-004   3.6485e-003  -3.9885e+007   1.9761e+004   1.4411e+007    0.0000    0.0803    0.0001   -0.0000    0.1253
                0.3822  -1.6940e-003   2.2100e-004   3.7712e-003  -3.2524e+007   1.5084e+004   1.4896e+007    0.0000    0.0654    0.0000   -0.0000    0.1295
                0.4112  -1.3282e-003   1.7321e-004   3.8555e-003  -2.5500e+007   1.0622e+004   1.5229e+007    0.0000    0.0513    0.0000   -0.0000    0.1324
                0.4387  -9.8425e-004   1.2828e-004   3.9059e-003  -1.8897e+007   6.4160e+003   1.5428e+007    0.0000    0.0380    0.0000   -0.0000    0.1342
                0.4646  -6.7457e-004   8.7828e-005   3.9277e-003  -1.2951e+007   2.6300e+003   1.5514e+007    0.0000    0.0261    0.0000   -0.0000    0.1349
                0.4889  -3.8488e-004   4.9988e-005   3.9260e-003  -7.3899e+006  -1.0674e+003   1.5508e+007    0.0000    0.0149    0.0000    0.0000    0.1348
                0.5113   2.5072e-004  -3.2809e-005   3.9058e-003   4.8132e+006  -4.2146e+003   1.5428e+007    0.0143   -0.0000    0.0000    0.0000    0.1342
                0.5317   4.7733e-004  -6.2410e-005   3.8723e-003   9.1638e+006  -6.9792e+003   1.5296e+007    0.0272   -0.0000    0.0000    0.0000    0.1330
                0.5503   6.8268e-004  -8.9234e-005   3.8298e-003   1.3106e+007  -9.4857e+003   1.5128e+007    0.0389   -0.0000    0.0000    0.0000    0.1315
                0.5668   8.5049e-004  -1.1115e-004   3.7827e-003   1.6328e+007  -1.1535e+004   1.4942e+007    0.0485   -0.0000    0.0000    0.0000    0.1299
                0.5812   9.9541e-004  -1.3008e-004   3.7348e-003   1.9110e+007  -1.3303e+004   1.4753e+007    0.0567   -0.0000    0.0000    0.0000    0.1283
                0.5935   1.1171e-003  -1.4599e-004   3.6889e-003   2.1447e+007  -1.4789e+004   1.4571e+007    0.0636   -0.0000    0.0000    0.0000    0.1267
                0.6036   1.2124e-003  -1.5843e-004   3.6479e-003   2.3276e+007  -1.5952e+004   1.4409e+007    0.0691   -0.0000    0.0000    0.0000    0.1253
                0.6114   1.2867e-003  -1.6813e-004   3.6140e-003   2.4702e+007  -1.6857e+004   1.4275e+007    0.0733   -0.0000    0.0000    0.0001    0.1241
                0.6170   1.3421e-003  -1.7538e-004   3.5886e-003   2.5767e+007  -1.7531e+004   1.4175e+007    0.0765   -0.0000    0.0000    0.0001    0.1233
                0.6204   1.3765e-003  -1.7987e-004   3.5728e-003   2.6427e+007  -1.7949e+004   1.4113e+007    0.0784   -0.0000    0.0000    0.0001    0.1227
                0.6216   1.3880e-003  -1.8137e-004   3.5675e-003   2.6648e+007  -1.8089e+004   1.4091e+007    0.0791   -0.0000    0.0000    0.0001    0.1225

               lamina:  2     
              matName:  (TEP-core)
                     s           e11           e22           e12           s11           s22           s12   s11_fcT   s11_fcC   s22_fcT   s22_fcC   s12_fcS
                   (m)         (m/m)         (m/m)         (rad)          (Pa)          (Pa)          (Pa)       (-)       (-)       (-)       (-)       (-)
                0.0000  -5.4555e-003   7.1256e-004   1.6114e-004  -1.2303e+006  -2.5635e+005   1.5791e+004    0.0000    0.2868    0.0000    0.0598    0.0054
                0.0060  -5.4216e-003   7.0814e-004   6.6078e-005  -1.2226e+006  -2.5475e+005   6.4757e+003    0.0000    0.2850    0.0000    0.0594    0.0022
                0.0418  -5.1371e-003   6.7097e-004   4.8676e-004  -1.1584e+006  -2.4138e+005   4.7703e+004    0.0000    0.2700    0.0000    0.0563    0.0162
                0.0775  -4.8528e-003   6.3383e-004   1.0078e-003  -1.0943e+006  -2.2802e+005   9.8767e+004    0.0000    0.2551    0.0000    0.0532    0.0335
                0.1133  -4.5069e-003   5.8865e-004   1.4958e-003  -1.0163e+006  -2.1177e+005   1.4659e+005    0.0000    0.2369    0.0000    0.0494    0.0497
                0.1491  -4.1345e-003   5.4001e-004   1.9440e-003  -9.3236e+005  -1.9428e+005   1.9052e+005    0.0000    0.2173    0.0000    0.0453    0.0646
                0.1844  -3.7637e-003   4.9157e-004   2.3469e-003  -8.4873e+005  -1.7685e+005   2.3000e+005    0.0000    0.1978    0.0000    0.0412    0.0780
                0.2194  -3.3431e-003   4.3663e-004   2.7049e-003  -7.5389e+005  -1.5709e+005   2.6508e+005    0.0000    0.1757    0.0000    0.0366    0.0899
                0.2538  -2.9307e-003   3.8276e-004   3.0130e-003  -6.6089e+005  -1.3771e+005   2.9527e+005    0.0000    0.1541    0.0000    0.0321    0.1001
                0.2874  -2.5180e-003   3.2886e-004   3.2719e-003  -5.6783e+005  -1.1833e+005   3.2065e+005    0.0000    0.1324    0.0000    0.0276    0.1087
                0.3201  -2.1031e-003   2.7465e-004   3.4832e-003  -4.7426e+005  -9.8828e+004   3.4136e+005    0.0000    0.1105    0.0000    0.0230    0.1157
                0.3518  -1.7020e-003   2.2227e-004   3.6485e-003  -3.8383e+005  -7.9986e+004   3.5755e+005    0.0000    0.0895    0.0000    0.0186    0.1212
                0.3822  -1.3185e-003   1.7217e-004   3.7712e-003  -2.9733e+005  -6.1964e+004   3.6957e+005    0.0000    0.0693    0.0000    0.0144    0.1253
                0.4112  -9.5253e-004   1.2436e-004   3.8555e-003  -2.1481e+005  -4.4769e+004   3.7784e+005    0.0000    0.0501    0.0000    0.0104    0.1281
                0.4387  -6.0776e-004   7.9329e-005   3.9059e-003  -1.3706e+005  -2.8570e+004   3.8278e+005    0.0000    0.0319    0.0000    0.0067    0.1298
                0.4646  -2.9738e-004   3.8786e-005   3.9277e-003  -6.7066e+004  -1.3987e+004   3.8491e+005    0.0000    0.0156    0.0000    0.0033    0.1305
                0.4889   1.8892e-004  -2.4618e-005   3.9260e-003   4.2606e+004   8.8903e+003   3.8474e+005    0.0099   -0.0000    0.0021   -0.0000    0.1304
                0.5113   4.4734e-004  -5.8375e-005   3.9058e-003   1.0088e+005   2.1033e+004   3.8277e+005    0.0235   -0.0000    0.0049   -0.0000    0.1298
                0.5317   6.7424e-004  -8.8013e-005   3.8723e-003   1.5205e+005   3.1694e+004   3.7949e+005    0.0354   -0.0000    0.0074   -0.0000    0.1286
                0.5503   8.8008e-004  -1.1490e-004   3.8298e-003   1.9847e+005   4.1365e+004   3.7532e+005    0.0463   -0.0000    0.0096   -0.0000    0.1272
                0.5668   1.0485e-003  -1.3690e-004   3.7827e-003   2.3644e+005   4.9278e+004   3.7071e+005    0.0551   -0.0000    0.0115   -0.0000    0.1257
                0.5812   1.1936e-003  -1.5585e-004   3.7348e-003   2.6916e+005   5.6094e+004   3.6601e+005    0.0627   -0.0000    0.0131   -0.0000    0.1241
                0.5935   1.3156e-003  -1.7179e-004   3.6889e-003   2.9668e+005   6.1828e+004   3.6152e+005    0.0692   -0.0000    0.0144   -0.0000    0.1225
                0.6036   1.4111e-003  -1.8427e-004   3.6479e-003   3.1822e+005   6.6317e+004   3.5750e+005    0.0742   -0.0000    0.0155   -0.0000    0.1212
                0.6114   1.4852e-003  -1.9395e-004   3.6140e-003   3.3493e+005   6.9799e+004   3.5417e+005    0.0781   -0.0000    0.0163   -0.0000    0.1201
                0.6170   1.5404e-003  -2.0115e-004   3.5886e-003   3.4736e+005   7.2389e+004   3.5168e+005    0.0810   -0.0000    0.0169   -0.0000    0.1192
                0.6204   1.5745e-003  -2.0561e-004   3.5728e-003   3.5507e+005   7.3995e+004   3.5014e+005    0.0828   -0.0000    0.0172   -0.0000    0.1187
                0.6216   1.5860e-003  -2.0712e-004   3.5675e-003   3.5766e+005   7.4535e+004   3.4961e+005    0.0834   -0.0000    0.0174   -0.0000    0.1185

               lamina:  3     
              matName:  (blade-shell)
                     s           e11           e22           e12           s11           s22           s12   s11_fcT   s11_fcC   s22_fcT   s22_fcC   s12_fcS
                   (m)         (m/m)         (m/m)         (rad)          (Pa)          (Pa)          (Pa)       (-)       (-)       (-)       (-)       (-)
                0.0000  -5.2537e-003   6.8632e-004   1.6114e-004  -1.0086e+008   6.5243e+004   6.3649e+005    0.0000    0.2029    0.0002   -0.0000    0.0055
                0.0060  -5.2212e-003   6.8208e-004   6.6078e-005  -1.0024e+008   6.4838e+004   2.6101e+005    0.0000    0.2017    0.0002   -0.0000    0.0023
                0.0418  -4.9369e-003   6.4494e-004   4.8676e-004  -9.4781e+007   6.1371e+004   1.9227e+006    0.0000    0.1907    0.0002   -0.0000    0.0167
                0.0775  -4.6534e-003   6.0790e-004   1.0078e-003  -8.9337e+007   5.7909e+004   3.9809e+006    0.0000    0.1798    0.0002   -0.0000    0.0346
                0.1133  -4.3088e-003   5.6289e-004   1.4958e-003  -8.2721e+007   5.3700e+004   5.9083e+006    0.0000    0.1664    0.0002   -0.0000    0.0514
                0.1491  -3.9369e-003   5.1431e-004   1.9440e-003  -7.5581e+007   4.9163e+004   7.6790e+006    0.0000    0.1521    0.0001   -0.0000    0.0668
                0.1844  -3.5669e-003   4.6599e-004   2.3469e-003  -6.8480e+007   4.4647e+004   9.2703e+006    0.0000    0.1378    0.0001   -0.0000    0.0806
                0.2194  -3.1474e-003   4.1118e-004   2.7049e-003  -6.0424e+007   3.9526e+004   1.0684e+007    0.0000    0.1216    0.0001   -0.0000    0.0929
                0.2538  -2.7351e-003   3.5733e-004   3.0130e-003  -5.2510e+007   3.4499e+004   1.1901e+007    0.0000    0.1057    0.0001   -0.0000    0.1035
                0.2874  -2.3229e-003   3.0349e-004   3.2719e-003  -4.4597e+007   2.9470e+004   1.2924e+007    0.0000    0.0897    0.0001   -0.0000    0.1124
                0.3201  -1.9083e-003   2.4932e-004   3.4832e-003  -3.6635e+007   2.4413e+004   1.3759e+007    0.0000    0.0737    0.0001   -0.0000    0.1196
                0.3518  -1.5072e-003   1.9694e-004   3.6485e-003  -2.8936e+007   1.9523e+004   1.4411e+007    0.0000    0.0582    0.0001   -0.0000    0.1253
                0.3822  -1.1236e-003   1.4683e-004   3.7712e-003  -2.1571e+007   1.4847e+004   1.4896e+007    0.0000    0.0434    0.0000   -0.0000    0.1295
                0.4112  -7.5756e-004   9.9014e-005   3.8555e-003  -1.4544e+007   1.0384e+004   1.5229e+007    0.0000    0.0293    0.0000   -0.0000    0.1324
                0.4387  -4.1237e-004   5.3925e-005   3.9059e-003  -7.9167e+006   6.1782e+003   1.5428e+007    0.0000    0.0159    0.0000   -0.0000    0.1342
                0.4646   2.7555e-004  -3.5707e-005   3.9277e-003   5.2908e+006   2.3918e+003   1.5514e+007    0.0157   -0.0000    0.0000   -0.0000    0.1349
                0.4889   5.6667e-004  -7.3734e-005   3.9260e-003   1.0880e+007  -1.3060e+003   1.5508e+007    0.0323   -0.0000    0.0000    0.0000    0.1348
                0.5113   8.2622e-004  -1.0764e-004   3.9058e-003   1.5863e+007  -4.4539e+003   1.5428e+007    0.0471   -0.0000    0.0000    0.0000    0.1342
                0.5317   1.0537e-003  -1.3735e-004   3.8723e-003   2.0230e+007  -7.2188e+003   1.5296e+007    0.0600   -0.0000    0.0000    0.0000    0.1330
                0.5503   1.2605e-003  -1.6436e-004   3.8298e-003   2.4200e+007  -9.7259e+003   1.5128e+007    0.0718   -0.0000    0.0000    0.0000    0.1315
                0.5668   1.4300e-003  -1.8650e-004   3.7827e-003   2.7455e+007  -1.1776e+004   1.4942e+007    0.0815   -0.0000    0.0000    0.0000    0.1299
                0.5812   1.5754e-003  -2.0549e-004   3.7348e-003   3.0245e+007  -1.3544e+004   1.4753e+007    0.0897   -0.0000    0.0000    0.0000    0.1283
                0.5935   1.6980e-003  -2.2151e-004   3.6889e-003   3.2600e+007  -1.5030e+004   1.4571e+007    0.0967   -0.0000    0.0000    0.0000    0.1267
                0.6036   1.7941e-003  -2.3406e-004   3.6479e-003   3.4444e+007  -1.6194e+004   1.4409e+007    0.1022   -0.0000    0.0000    0.0000    0.1253
                0.6114   1.8678e-003  -2.4370e-004   3.6140e-003   3.5860e+007  -1.7098e+004   1.4275e+007    0.1064   -0.0000    0.0000    0.0001    0.1241
                0.6170   1.9223e-003  -2.5081e-004   3.5886e-003   3.6906e+007  -1.7772e+004   1.4175e+007    0.1095   -0.0000    0.0000    0.0001    0.1233
                0.6204   1.9561e-003  -2.5522e-004   3.5728e-003   3.7555e+007  -1.8190e+004   1.4113e+007    0.1114   -0.0000    0.0000    0.0001    0.1227
                0.6216   1.9676e-003  -2.5673e-004   3.5675e-003   3.7776e+007  -1.8330e+004   1.4091e+007    0.1121   -0.0000    0.0000    0.0001    0.1225

  Bottom:  panel  nNode   nLam     xc_St    xc_End         b         t         E_eff         G_eff      nu_eff     density  buckleCrit
            (-)    (-)    (-)       (-)       (-)       (m)       (m)          (Pa)          (Pa)         (-)    (kg/m^3)         (-)
              1     18      3    0.0000    0.2369    0.2976    0.0076   1.8707e+010   3.8500e+009      0.1301   1631.8295      0.0927
              2      9      5    0.2369    0.4631    0.2545    0.0112   5.3665e+010   4.1863e+009      0.1614   1597.4286      0.0036
              3     28      3    0.4631    1.0000    0.6163    0.0094   1.5289e+010   3.1564e+009      0.1306   1367.1408      0.1809

            panel:  1     
           lam_num    nPlies        tPly      fibAng     matID  matName
               (-)       (-)         (m)       (deg)       (-)  (-)
                 1         1    0.003717      0.0000         2  (blade-shell)
                 2         1    0.000198      0.0000         5  (LEP-core)
                 3         1    0.003717      0.0000         2  (blade-shell)

               lamina:  1     
              matName:  (blade-shell)
                     s           e11           e22           e12           s11           s22           s12   s11_fcT   s11_fcC   s22_fcT   s22_fcC   s12_fcS
                   (m)         (m/m)         (m/m)         (rad)          (Pa)          (Pa)          (Pa)       (-)       (-)       (-)       (-)       (-)
                0.0000   4.5447e-004  -5.9100e-005   6.7068e-003   8.7257e+006  -3.7003e+002   2.6492e+007    0.0259   -0.0000    0.0000    0.0000    0.2304
                0.0032   5.8748e-004  -7.6400e-005   6.7041e-003   1.1280e+007  -5.3710e+002   2.6481e+007    0.0335   -0.0000    0.0000    0.0000    0.2303
                0.0126   1.0047e-003  -1.3067e-004   6.6886e-003   1.9291e+007  -1.0255e+003   2.6420e+007    0.0572   -0.0000    0.0000    0.0000    0.2297
                0.0242   1.5504e-003  -2.0164e-004   6.6548e-003   2.9768e+007  -1.6022e+003   2.6287e+007    0.0883   -0.0000    0.0000    0.0000    0.2286
                0.0344   1.9334e-003  -2.5145e-004   6.6133e-003   3.7122e+007  -2.0004e+003   2.6123e+007    0.1102   -0.0000    0.0000    0.0000    0.2272
                0.0479   2.3882e-003  -3.1060e-004   6.5432e-003   4.5854e+007  -2.5324e+003   2.5846e+007    0.1361   -0.0000    0.0000    0.0000    0.2247
                0.0619   2.7777e-003  -3.6126e-004   6.4543e-003   5.3332e+007  -2.9749e+003   2.5494e+007    0.1583   -0.0000    0.0000    0.0000    0.2217
                0.0779   3.1508e-003  -4.0978e-004   6.3349e-003   6.0495e+007  -3.4295e+003   2.5023e+007    0.1795   -0.0000    0.0000    0.0000    0.2176
                0.0959   3.5658e-003  -4.6375e-004   6.1802e-003   6.8463e+007  -3.9266e+003   2.4412e+007    0.2032   -0.0000    0.0000    0.0000    0.2123
                0.1149   3.8844e-003  -5.0519e-004   5.9977e-003   7.4580e+007  -4.3090e+003   2.3691e+007    0.2213   -0.0000    0.0000    0.0000    0.2060
                0.1360   4.2292e-003  -5.5003e-004   5.7736e-003   8.1200e+007  -4.7360e+003   2.2806e+007    0.2409   -0.0000    0.0000    0.0000    0.1983
                0.1585   4.5496e-003  -5.9171e-004   5.5128e-003   8.7352e+007  -5.1274e+003   2.1775e+007    0.2592   -0.0000    0.0000    0.0000    0.1894
                0.1825   4.8252e-003  -6.2756e-004   5.2134e-003   9.2643e+007  -5.4687e+003   2.0593e+007    0.2749   -0.0000    0.0000    0.0000    0.1791
                0.2081   5.1201e-003  -6.6592e-004   4.8718e-003   9.8306e+007  -5.8334e+003   1.9244e+007    0.2917   -0.0000    0.0000    0.0000    0.1673
                0.2348   5.3394e-003  -6.9443e-004   4.4948e-003   1.0252e+008  -6.1033e+003   1.7755e+007    0.3042   -0.0000    0.0000    0.0000    0.1544
                0.2630   5.5503e-003  -7.2187e-004   4.0787e-003   1.0657e+008  -6.3666e+003   1.6111e+007    0.3162   -0.0000    0.0000    0.0000    0.1401
                0.2925   5.7474e-003  -7.4750e-004   3.6260e-003   1.1035e+008  -6.6123e+003   1.4323e+007    0.3274   -0.0000    0.0000    0.0000    0.1245
                0.2976   5.7695e-003  -7.5037e-004   3.5450e-003   1.1077e+008  -6.6361e+003   1.4003e+007    0.3287   -0.0000    0.0000    0.0000    0.1218

               lamina:  2     
              matName:  (LEP-core)
                     s           e11           e22           e12           s11           s22           s12   s11_fcT   s11_fcC   s22_fcT   s22_fcC   s12_fcS
                   (m)         (m/m)         (m/m)         (rad)          (Pa)          (Pa)          (Pa)       (-)       (-)       (-)       (-)       (-)
                0.0000   2.9864e-004  -3.8842e-005   6.7068e-003   6.7357e+004   1.4071e+004   6.5727e+005    0.0157   -0.0000    0.0033   -0.0000    0.2228
                0.0032   4.3165e-004  -5.6142e-005   6.7041e-003   9.7358e+004   2.0338e+004   6.5700e+005    0.0227   -0.0000    0.0047   -0.0000    0.2227
                0.0126   8.2116e-004  -1.0680e-004   6.6886e-003   1.8521e+005   3.8691e+004   6.5549e+005    0.0432   -0.0000    0.0090   -0.0000    0.2222
                0.0242   1.2825e-003  -1.6681e-004   6.6548e-003   2.8928e+005   6.0431e+004   6.5217e+005    0.0674   -0.0000    0.0141   -0.0000    0.2211
                0.0344   1.6012e-003  -2.0826e-004   6.6133e-003   3.6114e+005   7.5444e+004   6.4811e+005    0.0842   -0.0000    0.0176   -0.0000    0.2197
                0.0479   2.0256e-003  -2.6345e-004   6.5432e-003   4.5686e+005   9.5440e+004   6.4123e+005    0.1065   -0.0000    0.0222   -0.0000    0.2174
                0.0619   2.3787e-003  -3.0939e-004   6.4543e-003   5.3652e+005   1.1208e+005   6.3252e+005    0.1251   -0.0000    0.0261   -0.0000    0.2144
                0.0779   2.7410e-003  -3.5650e-004   6.3349e-003   6.1822e+005   1.2915e+005   6.2082e+005    0.1441   -0.0000    0.0301   -0.0000    0.2104
                0.0959   3.1372e-003  -4.0803e-004   6.1802e-003   7.0759e+005   1.4782e+005   6.0566e+005    0.1649   -0.0000    0.0345   -0.0000    0.2053
                0.1149   3.4420e-003  -4.4768e-004   5.9977e-003   7.7634e+005   1.6218e+005   5.8777e+005    0.1810   -0.0000    0.0378   -0.0000    0.1992
                0.1360   3.7820e-003  -4.9191e-004   5.7736e-003   8.5303e+005   1.7820e+005   5.6582e+005    0.1988   -0.0000    0.0415   -0.0000    0.1918
                0.1585   4.0939e-003  -5.3247e-004   5.5128e-003   9.2338e+005   1.9290e+005   5.4025e+005    0.2152   -0.0000    0.0450   -0.0000    0.1831
                0.1825   4.3657e-003  -5.6782e-004   5.2134e-003   9.8468e+005   2.0570e+005   5.1091e+005    0.2295   -0.0000    0.0479   -0.0000    0.1732
                0.2081   4.6561e-003  -6.0560e-004   4.8718e-003   1.0502e+006   2.1939e+005   4.7744e+005    0.2448   -0.0000    0.0511   -0.0000    0.1618
                0.2348   4.8712e-003  -6.3356e-004   4.4948e-003   1.0987e+006   2.2952e+005   4.4049e+005    0.2561   -0.0000    0.0535   -0.0000    0.1493
                0.2630   5.0808e-003  -6.6083e-004   4.0787e-003   1.1460e+006   2.3939e+005   3.9971e+005    0.2671   -0.0000    0.0558   -0.0000    0.1355
                0.2925   5.2765e-003  -6.8628e-004   3.6260e-003   1.1901e+006   2.4861e+005   3.5535e+005    0.2774   -0.0000    0.0580   -0.0000    0.1205
                0.2976   5.2955e-003  -6.8875e-004   3.5450e-003   1.1944e+006   2.4951e+005   3.4741e+005    0.2784   -0.0000    0.0582   -0.0000    0.1178

               lamina:  3     
              matName:  (blade-shell)
                     s           e11           e22           e12           s11           s22           s12   s11_fcT   s11_fcC   s22_fcT   s22_fcC   s12_fcS
                   (m)         (m/m)         (m/m)         (rad)          (Pa)          (Pa)          (Pa)       (-)       (-)       (-)       (-)       (-)
                0.0000   2.9033e-004  -3.7762e-005   6.7068e-003   5.5742e+006  -3.6989e+002   2.6492e+007    0.0165   -0.0000    0.0000    0.0000    0.2304
                0.0032   4.2334e-004  -5.5062e-005   6.7041e-003   8.1281e+006  -5.3697e+002   2.6481e+007    0.0241   -0.0000    0.0000    0.0000    0.2303
                0.0126   8.1138e-004  -1.0553e-004   6.6886e-003   1.5578e+007  -1.0253e+003   2.6420e+007    0.0462   -0.0000    0.0000    0.0000    0.2297
                0.0242   1.2683e-003  -1.6496e-004   6.6548e-003   2.4350e+007  -1.6020e+003   2.6287e+007    0.0723   -0.0000    0.0000    0.0000    0.2286
                0.0344   1.5835e-003  -2.0595e-004   6.6133e-003   3.0402e+007  -2.0001e+003   2.6123e+007    0.0902   -0.0000    0.0000    0.0000    0.2272
                0.0479   2.0062e-003  -2.6094e-004   6.5432e-003   3.8519e+007  -2.5321e+003   2.5846e+007    0.1143   -0.0000    0.0000    0.0000    0.2247
                0.0619   2.3574e-003  -3.0662e-004   6.4543e-003   4.5263e+007  -2.9745e+003   2.5494e+007    0.1343   -0.0000    0.0000    0.0000    0.2217
                0.0779   2.7191e-003  -3.5366e-004   6.3349e-003   5.2206e+007  -3.4291e+003   2.5023e+007    0.1549   -0.0000    0.0000    0.0000    0.2176
                0.0959   3.1143e-003  -4.0506e-004   6.1802e-003   5.9794e+007  -3.9262e+003   2.4412e+007    0.1774   -0.0000    0.0000    0.0000    0.2123
                0.1149   3.4184e-003  -4.4462e-004   5.9977e-003   6.5633e+007  -4.3087e+003   2.3691e+007    0.1948   -0.0000    0.0000    0.0000    0.2060
                0.1360   3.7582e-003  -4.8881e-004   5.7736e-003   7.2157e+007  -4.7356e+003   2.2806e+007    0.2141   -0.0000    0.0000    0.0000    0.1983
                0.1585   4.0696e-003  -5.2931e-004   5.5128e-003   7.8136e+007  -5.1270e+003   2.1775e+007    0.2319   -0.0000    0.0000    0.0000    0.1894
                0.1825   4.3412e-003  -5.6464e-004   5.2134e-003   8.3350e+007  -5.4683e+003   2.0593e+007    0.2473   -0.0000    0.0000    0.0000    0.1791
                0.2081   4.6314e-003  -6.0238e-004   4.8718e-003   8.8922e+007  -5.8330e+003   1.9244e+007    0.2639   -0.0000    0.0000    0.0000    0.1673
                0.2348   4.8462e-003  -6.3032e-004   4.4948e-003   9.3046e+007  -6.1029e+003   1.7755e+007    0.2761   -0.0000    0.0000    0.0000    0.1544
                0.2630   5.0558e-003  -6.5757e-004   4.0787e-003   9.7070e+007  -6.3662e+003   1.6111e+007    0.2880   -0.0000    0.0000    0.0000    0.1401
                0.2925   5.2514e-003  -6.8302e-004   3.6260e-003   1.0083e+008  -6.6119e+003   1.4323e+007    0.2992   -0.0000    0.0000    0.0000    0.1245
                0.2976   5.2702e-003  -6.8547e-004   3.5450e-003   1.0119e+008  -6.6357e+003   1.4003e+007    0.3003   -0.0000    0.0000    0.0000    0.1218

            panel:  2     
           lam_num    nPlies        tPly      fibAng     matID  matName
               (-)       (-)         (m)       (deg)       (-)  (-)
                 1         1    0.003717      0.0000         2  (blade-shell)
                 2         1    0.001860      0.0000         3  (spar-uni)
                 3         1    0.000047      0.0000         4  (spar-core)
                 4         1    0.001860      0.0000         3  (spar-uni)
                 5         1    0.003717      0.0000         2  (blade-shell)

               lamina:  1     
              matName:  (blade-shell)
                     s           e11           e22           e12           s11           s22           s12   s11_fcT   s11_fcC   s22_fcT   s22_fcC   s12_fcS
                   (m)         (m/m)         (m/m)         (rad)          (Pa)          (Pa)          (Pa)       (-)       (-)       (-)       (-)       (-)
                0.0000   6.9035e-003  -1.0661e-003   6.6315e-003   1.3212e+008  -3.2927e+006   2.6194e+007    0.3920   -0.0000    0.0000    0.0098    0.2278
                0.0251   6.9969e-003  -1.0811e-003   5.5943e-003   1.3391e+008  -3.3501e+006   2.2097e+007    0.3973   -0.0000    0.0000    0.0099    0.1922
                0.0566   7.1172e-003  -1.1005e-003   4.2696e-003   1.3620e+008  -3.4220e+006   1.6865e+007    0.4042   -0.0000    0.0000    0.0102    0.1467
                0.0888   7.1652e-003  -1.1081e-003   2.8903e-003   1.3712e+008  -3.4500e+006   1.1417e+007    0.4069   -0.0000    0.0000    0.0102    0.0993
                0.1220   7.1569e-003  -1.1068e-003   1.4631e-003   1.3696e+008  -3.4448e+006   5.7792e+006    0.4064   -0.0000    0.0000    0.0102    0.0503
                0.1557   7.1466e-003  -1.1052e-003   1.2998e-005   1.3677e+008  -3.4396e+006   5.1342e+004    0.4058   -0.0000    0.0000    0.0102    0.0004
                0.1902   7.0050e-003  -1.0825e-003   1.4507e-003   1.3406e+008  -3.3556e+006   5.7303e+006    0.3978   -0.0000    0.0000    0.0100    0.0498
                0.2253   6.8574e-003  -1.0587e-003   2.9031e-003   1.3124e+008  -3.2662e+006   1.1467e+007    0.3894   -0.0000    0.0000    0.0097    0.0997
                0.2545   6.7081e-003  -1.0347e-003   4.0814e-003   1.2838e+008  -3.1757e+006   1.6122e+007    0.3810   -0.0000    0.0000    0.0094    0.1402

               lamina:  2     
              matName:  (spar-uni)
                     s           e11           e22           e12           s11           s22           s12   s11_fcT   s11_fcC   s22_fcT   s22_fcC   s12_fcS
                   (m)         (m/m)         (m/m)         (rad)          (Pa)          (Pa)          (Pa)       (-)       (-)       (-)       (-)       (-)
                0.0000   5.7762e-003  -9.1617e-004   6.6315e-003   7.1271e+008   7.2167e+006   3.1234e+007    0.3601   -0.0000    0.1205   -0.0000    0.3032
                0.0251   5.8696e-003  -9.3125e-004   5.5943e-003   7.2423e+008   7.3313e+006   2.6349e+007    0.3660   -0.0000    0.1224   -0.0000    0.2558
                0.0566   5.9877e-003  -9.5027e-004   4.2696e-003   7.3880e+008   7.4763e+006   2.0110e+007    0.3733   -0.0000    0.1248   -0.0000    0.1952
                0.0888   6.0339e-003  -9.5771e-004   2.8903e-003   7.4451e+008   7.5332e+006   1.3613e+007    0.3762   -0.0000    0.1258   -0.0000    0.1322
                0.1220   6.0255e-003  -9.5635e-004   1.4631e-003   7.4347e+008   7.5229e+006   6.8912e+006    0.3757   -0.0000    0.1256   -0.0000    0.0669
                0.1557   6.0165e-003  -9.5492e-004   1.2998e-005   7.4235e+008   7.5117e+006   6.1220e+004    0.3751   -0.0000    0.1254   -0.0000    0.0006
                0.1902   5.8784e-003  -9.3268e-004   1.4507e-003   7.2532e+008   7.3419e+006   6.8328e+006    0.3665   -0.0000    0.1226   -0.0000    0.0663
                0.2253   5.7321e-003  -9.0909e-004   2.9031e-003   7.0727e+008   7.1625e+006   1.3673e+007    0.3574   -0.0000    0.1196   -0.0000    0.1328
                0.2545   5.5842e-003  -8.8522e-004   4.0814e-003   6.8902e+008   6.9809e+006   1.9224e+007    0.3482   -0.0000    0.1165   -0.0000    0.1866

               lamina:  3     
              matName:  (spar-core)
                     s           e11           e22           e12           s11           s22           s12   s11_fcT   s11_fcC   s22_fcT   s22_fcC   s12_fcS
                   (m)         (m/m)         (m/m)         (rad)          (Pa)          (Pa)          (Pa)       (-)       (-)       (-)       (-)       (-)
                0.0000   5.2121e-003  -8.4117e-004   6.6315e-003   1.1629e+006   2.0711e+005   6.4989e+005    0.2711   -0.0000    0.0483   -0.0000    0.2203
                0.0251   5.3055e-003  -8.5625e-004   5.5943e-003   1.1837e+006   2.1082e+005   5.4824e+005    0.2759   -0.0000    0.0491   -0.0000    0.1858
                0.0566   5.4225e-003  -8.7513e-004   4.2696e-003   1.2098e+006   2.1547e+005   4.1842e+005    0.2820   -0.0000    0.0502   -0.0000    0.1418
                0.0888   5.4678e-003  -8.8245e-004   2.8903e-003   1.2199e+006   2.1727e+005   2.8325e+005    0.2844   -0.0000    0.0506   -0.0000    0.0960
                0.1220   5.4594e-003  -8.8108e-004   1.4631e-003   1.2181e+006   2.1693e+005   1.4338e+005    0.2839   -0.0000    0.0506   -0.0000    0.0486
                0.1557   5.4510e-003  -8.7974e-004   1.2998e-005   1.2162e+006   2.1660e+005   1.2738e+003    0.2835   -0.0000    0.0505   -0.0000    0.0004
                0.1902   5.3147e-003  -8.5773e-004   1.4507e-003   1.1858e+006   2.1118e+005   1.4217e+005    0.2764   -0.0000    0.0492   -0.0000    0.0482
                0.2253   5.1691e-003  -8.3423e-004   2.9031e-003   1.1533e+006   2.0540e+005   2.8450e+005    0.2688   -0.0000    0.0479   -0.0000    0.0964
                0.2545   5.0218e-003  -8.1045e-004   4.0814e-003   1.1204e+006   1.9955e+005   3.9998e+005    0.2612   -0.0000    0.0465   -0.0000    0.1356

               lamina:  4     
              matName:  (spar-uni)
                     s           e11           e22           e12           s11           s22           s12   s11_fcT   s11_fcC   s22_fcT   s22_fcC   s12_fcS
                   (m)         (m/m)         (m/m)         (rad)          (Pa)          (Pa)          (Pa)       (-)       (-)       (-)       (-)       (-)
                0.0000   5.1979e-003  -8.3928e-004   6.6315e-003   6.4132e+008   6.3718e+006   3.1234e+007    0.3241   -0.0000    0.1064   -0.0000    0.3032
                0.0251   5.2913e-003  -8.5436e-004   5.5943e-003   6.5284e+008   6.4863e+006   2.6349e+007    0.3299   -0.0000    0.1083   -0.0000    0.2558
                0.0566   5.4083e-003  -8.7324e-004   4.2696e-003   6.6727e+008   6.6297e+006   2.0110e+007    0.3372   -0.0000    0.1107   -0.0000    0.1952
                0.0888   5.4536e-003  -8.8055e-004   2.8903e-003   6.7286e+008   6.6853e+006   1.3613e+007    0.3400   -0.0000    0.1116   -0.0000    0.1322
                0.1220   5.4451e-003  -8.7919e-004   1.4631e-003   6.7182e+008   6.6749e+006   6.8912e+006    0.3395   -0.0000    0.1114   -0.0000    0.0669
                0.1557   5.4368e-003  -8.7784e-004   1.2998e-005   6.7079e+008   6.6647e+006   6.1220e+004    0.3390   -0.0000    0.1113   -0.0000    0.0006
                0.1902   5.3005e-003  -8.5584e-004   1.4507e-003   6.5397e+008   6.4976e+006   6.8328e+006    0.3305   -0.0000    0.1085   -0.0000    0.0663
                0.2253   5.1549e-003  -8.3234e-004   2.9031e-003   6.3601e+008   6.3191e+006   1.3673e+007    0.3214   -0.0000    0.1055   -0.0000    0.1328
                0.2545   5.0077e-003  -8.0857e-004   4.0814e-003   6.1784e+008   6.1385e+006   1.9224e+007    0.3122   -0.0000    0.1025   -0.0000    0.1866

               lamina:  5     
              matName:  (blade-shell)
                     s           e11           e22           e12           s11           s22           s12   s11_fcT   s11_fcC   s22_fcT   s22_fcC   s12_fcS
                   (m)         (m/m)         (m/m)         (rad)          (Pa)          (Pa)          (Pa)       (-)       (-)       (-)       (-)       (-)
                0.0000   4.6338e-003  -7.6428e-004   6.6315e-003   8.8559e+007  -3.1616e+006   2.6194e+007    0.2628   -0.0000    0.0000    0.0094    0.2278
                0.0251   4.7273e-003  -7.7937e-004   5.5943e-003   9.0345e+007  -3.2190e+006   2.2097e+007    0.2681   -0.0000    0.0000    0.0096    0.1922
                0.0566   4.8431e-003  -7.9810e-004   4.2696e-003   9.2560e+007  -3.2907e+006   1.6865e+007    0.2747   -0.0000    0.0000    0.0098    0.1467
                0.0888   4.8875e-003  -8.0529e-004   2.8903e-003   9.3409e+007  -3.3185e+006   1.1417e+007    0.2772   -0.0000    0.0000    0.0098    0.0993
                0.1220   4.8790e-003  -8.0392e-004   1.4631e-003   9.3246e+007  -3.3133e+006   5.7792e+006    0.2767   -0.0000    0.0000    0.0098    0.0503
                0.1557   4.8713e-003  -8.0266e-004   1.2998e-005   9.3099e+007  -3.3082e+006   5.1342e+004    0.2763   -0.0000    0.0000    0.0098    0.0004
                0.1902   4.7368e-003  -7.8090e-004   1.4507e-003   9.0527e+007  -3.2246e+006   5.7303e+006    0.2686   -0.0000    0.0000    0.0096    0.0498
                0.2253   4.5919e-003  -7.5748e-004   2.9031e-003   8.7756e+007  -3.1353e+006   1.1467e+007    0.2604   -0.0000    0.0000    0.0093    0.0997
                0.2545   4.4453e-003  -7.3380e-004   4.0814e-003   8.4954e+007  -3.0450e+006   1.6122e+007    0.2521   -0.0000    0.0000    0.0090    0.1402

            panel:  3     
           lam_num    nPlies        tPly      fibAng     matID  matName
               (-)       (-)         (m)       (deg)       (-)  (-)
                 1         1    0.003717      0.0000         2  (blade-shell)
                 2         1    0.001929      0.0000         6  (TEP-core)
                 3         1    0.003717      0.0000         2  (blade-shell)

               lamina:  1     
              matName:  (blade-shell)
                     s           e11           e22           e12           s11           s22           s12   s11_fcT   s11_fcC   s22_fcT   s22_fcC   s12_fcS
                   (m)         (m/m)         (m/m)         (rad)          (Pa)          (Pa)          (Pa)       (-)       (-)       (-)       (-)       (-)
                0.0000   5.5454e-003  -7.2406e-004   1.4198e-003   1.0646e+008  -6.1832e+004   5.6080e+006    0.3159   -0.0000    0.0000    0.0002    0.0488
                0.0060   5.5127e-003  -7.1980e-004   1.3288e-003   1.0584e+008  -6.1463e+004   5.2490e+006    0.3141   -0.0000    0.0000    0.0002    0.0456
                0.0419   5.2642e-003  -6.8734e-004   8.0238e-004   1.0107e+008  -5.8439e+004   3.1694e+006    0.2999   -0.0000    0.0000    0.0002    0.0276
                0.0778   5.0154e-003  -6.5483e-004   3.0234e-004   9.6288e+007  -5.5417e+004   1.1943e+006    0.2857   -0.0000    0.0000    0.0002    0.0104
                0.1136   4.7254e-003  -6.1696e-004   1.6971e-004   9.0721e+007  -5.1901e+004   6.7036e+005    0.2692   -0.0000    0.0000    0.0002    0.0058
                0.1494   4.4192e-003  -5.7696e-004   6.0888e-004   8.4841e+007  -4.8175e+004   2.4051e+006    0.2518   -0.0000    0.0000    0.0001    0.0209
                0.1847   4.1152e-003  -5.3726e-004   1.0113e-003   7.9007e+007  -4.4478e+004   3.9945e+006    0.2344   -0.0000    0.0000    0.0001    0.0347
                0.2195   3.7936e-003  -4.9525e-004   1.3766e-003   7.2833e+007  -4.0566e+004   5.4375e+006    0.2161   -0.0000    0.0000    0.0001    0.0473
                0.2537   3.4791e-003  -4.5416e-004   1.7030e-003   6.6793e+007  -3.6729e+004   6.7269e+006    0.1982   -0.0000    0.0000    0.0001    0.0585
                0.2871   3.1772e-003  -4.1472e-004   1.9911e-003   6.0998e+007  -3.3043e+004   7.8647e+006    0.1810   -0.0000    0.0000    0.0001    0.0684
                0.3194   2.8905e-003  -3.7728e-004   2.2424e-003   5.5493e+007  -2.9545e+004   8.8575e+006    0.1647   -0.0000    0.0000    0.0001    0.0770
                0.3507   2.6140e-003  -3.4116e-004   2.4596e-003   5.0186e+007  -2.6162e+004   9.7155e+006    0.1489   -0.0000    0.0000    0.0001    0.0845
                0.3806   2.3787e-003  -3.1042e-004   2.6449e-003   4.5667e+007  -2.3277e+004   1.0447e+007    0.1355   -0.0000    0.0000    0.0001    0.0908
                0.4091   2.1612e-003  -2.8201e-004   2.8024e-003   4.1492e+007  -2.0619e+004   1.1070e+007    0.1231   -0.0000    0.0000    0.0001    0.0963
                0.4362   1.9636e-003  -2.5620e-004   2.9357e-003   3.7699e+007  -1.8190e+004   1.1596e+007    0.1119   -0.0000    0.0000    0.0001    0.1008
                0.4616   1.8191e-003  -2.3733e-004   3.0477e-003   3.4925e+007  -1.6413e+004   1.2038e+007    0.1036   -0.0000    0.0000    0.0000    0.1047
                0.4853   1.6838e-003  -2.1965e-004   3.1426e-003   3.2328e+007  -1.4753e+004   1.2413e+007    0.0959   -0.0000    0.0000    0.0000    0.1079
                0.5073   1.5871e-003  -2.0702e-004   3.2230e-003   3.0471e+007  -1.3557e+004   1.2731e+007    0.0904   -0.0000    0.0000    0.0000    0.1107
                0.5273   1.5223e-003  -1.9856e-004   3.2917e-003   2.9227e+007  -1.2760e+004   1.3002e+007    0.0867   -0.0000    0.0000    0.0000    0.1131
                0.5455   1.4638e-003  -1.9092e-004   3.3509e-003   2.8104e+007  -1.2037e+004   1.3236e+007    0.0834   -0.0000    0.0000    0.0000    0.1151
                0.5618   1.4540e-003  -1.8963e-004   3.4021e-003   2.7916e+007  -1.1911e+004   1.3438e+007    0.0828   -0.0000    0.0000    0.0000    0.1169
                0.5759   1.4498e-003  -1.8909e-004   3.4464e-003   2.7836e+007  -1.1860e+004   1.3613e+007    0.0826   -0.0000    0.0000    0.0000    0.1184
                0.5880   1.4561e-003  -1.8991e-004   3.4847e-003   2.7956e+007  -1.1941e+004   1.3764e+007    0.0830   -0.0000    0.0000    0.0000    0.1197
                0.5981   1.4864e-003  -1.9386e-004   3.5169e-003   2.8537e+007  -1.2320e+004   1.3892e+007    0.0847   -0.0000    0.0000    0.0000    0.1208
                0.6059   1.5098e-003  -1.9692e-004   3.5427e-003   2.8987e+007  -1.2618e+004   1.3994e+007    0.0860   -0.0000    0.0000    0.0000    0.1217
                0.6117   1.5398e-003  -2.0084e-004   3.5624e-003   2.9563e+007  -1.3019e+004   1.4071e+007    0.0877   -0.0000    0.0000    0.0000    0.1224
                0.6152   1.5639e-003  -2.0399e-004   3.5745e-003   3.0025e+007  -1.3336e+004   1.4119e+007    0.0891   -0.0000    0.0000    0.0000    0.1228
                0.6163   1.5723e-003  -2.0509e-004   3.5785e-003   3.0186e+007  -1.3439e+004   1.4135e+007    0.0896   -0.0000    0.0000    0.0000    0.1229

               lamina:  2     
              matName:  (TEP-core)
                     s           e11           e22           e12           s11           s22           s12   s11_fcT   s11_fcC   s22_fcT   s22_fcC   s12_fcS
                   (m)         (m/m)         (m/m)         (rad)          (Pa)          (Pa)          (Pa)       (-)       (-)       (-)       (-)       (-)
                0.0000   5.1558e-003  -6.7341e-004   1.4198e-003   1.1627e+006   2.4226e+005   1.3914e+005    0.2710   -0.0000    0.0565   -0.0000    0.0472
                0.0060   5.1251e-003  -6.6940e-004   1.3288e-003   1.1557e+006   2.4082e+005   1.3023e+005    0.2694   -0.0000    0.0561   -0.0000    0.0441
                0.0419   4.8770e-003  -6.3699e-004   8.0238e-004   1.0998e+006   2.2916e+005   7.8633e+004    0.2564   -0.0000    0.0534   -0.0000    0.0267
                0.0778   4.6289e-003  -6.0459e-004   3.0234e-004   1.0439e+006   2.1751e+005   2.9630e+004    0.2433   -0.0000    0.0507   -0.0000    0.0100
                0.1136   4.3403e-003  -5.6689e-004   1.6971e-004   9.7877e+005   2.0395e+005   1.6632e+004    0.2282   -0.0000    0.0475   -0.0000    0.0056
                0.1494   4.0346e-003  -5.2695e-004   6.0888e-004   9.0982e+005   1.8958e+005   5.9670e+004    0.2121   -0.0000    0.0442   -0.0000    0.0202
                0.1847   3.7312e-003  -4.8733e-004   1.0113e-003   8.4142e+005   1.7533e+005   9.9104e+004    0.1961   -0.0000    0.0409   -0.0000    0.0336
                0.2195   3.4102e-003  -4.4540e-004   1.3766e-003   7.6903e+005   1.6025e+005   1.3491e+005    0.1793   -0.0000    0.0374   -0.0000    0.0457
                0.2537   3.0955e-003  -4.0429e-004   1.7030e-003   6.9806e+005   1.4546e+005   1.6690e+005    0.1627   -0.0000    0.0339   -0.0000    0.0566
                0.2871   2.7933e-003  -3.6482e-004   1.9911e-003   6.2991e+005   1.3126e+005   1.9513e+005    0.1468   -0.0000    0.0306   -0.0000    0.0661
                0.3194   2.5064e-003  -3.2734e-004   2.2424e-003   5.6522e+005   1.1778e+005   2.1976e+005    0.1318   -0.0000    0.0275   -0.0000    0.0745
                0.3507   2.2291e-003  -2.9112e-004   2.4596e-003   5.0269e+005   1.0475e+005   2.4104e+005    0.1172   -0.0000    0.0244   -0.0000    0.0817
                0.3806   1.9927e-003  -2.6024e-004   2.6449e-003   4.4937e+005   9.3643e+004   2.5920e+005    0.1047   -0.0000    0.0218   -0.0000    0.0879
                0.4091   1.7748e-003  -2.3178e-004   2.8024e-003   4.0024e+005   8.3406e+004   2.7464e+005    0.0933   -0.0000    0.0194   -0.0000    0.0931
                0.4362   1.5759e-003  -2.0578e-004   2.9357e-003   3.5537e+005   7.4057e+004   2.8770e+005    0.0828   -0.0000    0.0173   -0.0000    0.0975
                0.4616   1.4304e-003  -1.8678e-004   3.0477e-003   3.2256e+005   6.7220e+004   2.9867e+005    0.0752   -0.0000    0.0157   -0.0000    0.1012
                0.4853   1.2943e-003  -1.6901e-004   3.1426e-003   2.9189e+005   6.0830e+004   3.0797e+005    0.0680   -0.0000    0.0142   -0.0000    0.1044
                0.5073   1.1965e-003  -1.5623e-004   3.2230e-003   2.6982e+005   5.6232e+004   3.1586e+005    0.0629   -0.0000    0.0131   -0.0000    0.1071
                0.5273   1.1312e-003  -1.4771e-004   3.2917e-003   2.5511e+005   5.3167e+004   3.2259e+005    0.0595   -0.0000    0.0124   -0.0000    0.1094
                0.5455   1.0721e-003  -1.3998e-004   3.3509e-003   2.4177e+005   5.0387e+004   3.2839e+005    0.0564   -0.0000    0.0117   -0.0000    0.1113
                0.5618   1.0619e-003  -1.3865e-004   3.4021e-003   2.3946e+005   4.9907e+004   3.3341e+005    0.0558   -0.0000    0.0116   -0.0000    0.1130
                0.5759   1.0577e-003  -1.3810e-004   3.4464e-003   2.3851e+005   4.9710e+004   3.3775e+005    0.0556   -0.0000    0.0116   -0.0000    0.1145
                0.5880   1.0642e-003  -1.3895e-004   3.4847e-003   2.4000e+005   5.0019e+004   3.4150e+005    0.0559   -0.0000    0.0117   -0.0000    0.1158
                0.5981   1.0952e-003  -1.4300e-004   3.5169e-003   2.4698e+005   5.1473e+004   3.4465e+005    0.0576   -0.0000    0.0120   -0.0000    0.1168
                0.6059   1.1195e-003  -1.4617e-004   3.5427e-003   2.5245e+005   5.2613e+004   3.4719e+005    0.0588   -0.0000    0.0123   -0.0000    0.1177
                0.6117   1.1518e-003  -1.5039e-004   3.5624e-003   2.5975e+005   5.4133e+004   3.4912e+005    0.0605   -0.0000    0.0126   -0.0000    0.1183
                0.6152   1.1775e-003  -1.5375e-004   3.5745e-003   2.6554e+005   5.5339e+004   3.5030e+005    0.0619   -0.0000    0.0129   -0.0000    0.1187
                0.6163   1.1859e-003  -1.5485e-004   3.5785e-003   2.6744e+005   5.5735e+004   3.5069e+005    0.0623   -0.0000    0.0130   -0.0000    0.1189

               lamina:  3     
              matName:  (blade-shell)
                     s           e11           e22           e12           s11           s22           s12   s11_fcT   s11_fcC   s22_fcT   s22_fcC   s12_fcS
                   (m)         (m/m)         (m/m)         (rad)          (Pa)          (Pa)          (Pa)       (-)       (-)       (-)       (-)       (-)
                0.0000   4.9536e-003  -6.4712e-004   1.4198e-003   9.5101e+007  -6.1586e+004   5.6080e+006    0.2822   -0.0000    0.0000    0.0002    0.0488
                0.0060   4.9239e-003  -6.4324e-004   1.3288e-003   9.4531e+007  -6.1218e+004   5.2490e+006    0.2805   -0.0000    0.0000    0.0002    0.0456
                0.0419   4.6760e-003  -6.1086e-004   8.0238e-004   8.9771e+007  -5.8194e+004   3.1694e+006    0.2664   -0.0000    0.0000    0.0002    0.0276
                0.0778   4.4284e-003  -5.7852e-004   3.0234e-004   8.5018e+007  -5.5173e+004   1.1943e+006    0.2523   -0.0000    0.0000    0.0002    0.0104
                0.1136   4.1405e-003  -5.4090e-004   1.6971e-004   7.9490e+007  -5.1658e+004   6.7036e+005    0.2359   -0.0000    0.0000    0.0002    0.0058
                0.1494   3.8350e-003  -5.0100e-004   6.0888e-004   7.3625e+007  -4.7932e+004   2.4051e+006    0.2185   -0.0000    0.0000    0.0001    0.0209
                0.1847   3.5319e-003  -4.6142e-004   1.0113e-003   6.7807e+007  -4.4236e+004   3.9945e+006    0.2012   -0.0000    0.0000    0.0001    0.0347
                0.2195   3.2112e-003  -4.1953e-004   1.3766e-003   6.1651e+007  -4.0324e+004   5.4375e+006    0.1829   -0.0000    0.0000    0.0001    0.0473
                0.2537   2.8965e-003  -3.7841e-004   1.7030e-003   5.5608e+007  -3.6487e+004   6.7269e+006    0.1650   -0.0000    0.0000    0.0001    0.0585
                0.2871   2.5941e-003  -3.3891e-004   1.9911e-003   4.9803e+007  -3.2801e+004   7.8647e+006    0.1478   -0.0000    0.0000    0.0001    0.0684
                0.3194   2.3071e-003  -3.0143e-004   2.2424e-003   4.4293e+007  -2.9303e+004   8.8575e+006    0.1314   -0.0000    0.0000    0.0001    0.0770
                0.3507   2.0294e-003  -2.6515e-004   2.4596e-003   3.8961e+007  -2.5919e+004   9.7155e+006    0.1156   -0.0000    0.0000    0.0001    0.0845
                0.3806   1.7924e-003  -2.3419e-004   2.6449e-003   3.4412e+007  -2.3033e+004   1.0447e+007    0.1021   -0.0000    0.0000    0.0001    0.0908
                0.4091   1.5743e-003  -2.0570e-004   2.8024e-003   3.0224e+007  -2.0375e+004   1.1070e+007    0.0897   -0.0000    0.0000    0.0001    0.0963
                0.4362   1.3746e-003  -1.7962e-004   2.9357e-003   2.6391e+007  -1.7945e+004   1.1596e+007    0.0783   -0.0000    0.0000    0.0001    0.1008
                0.4616   1.2286e-003  -1.6054e-004   3.0477e-003   2.3587e+007  -1.6167e+004   1.2038e+007    0.0700   -0.0000    0.0000    0.0000    0.1047
                0.4853   1.0922e-003  -1.4273e-004   3.1426e-003   2.0969e+007  -1.4507e+004   1.2413e+007    0.0622   -0.0000    0.0000    0.0000    0.1079
                0.5073   9.9376e-004  -1.2987e-004   3.2230e-003   1.9079e+007  -1.3310e+004   1.2731e+007    0.0566   -0.0000    0.0000    0.0000    0.1107
                0.5273   9.2828e-004  -1.2132e-004   3.2917e-003   1.7821e+007  -1.2513e+004   1.3002e+007    0.0529   -0.0000    0.0000    0.0000    0.1131
                0.5455   8.6877e-004  -1.1354e-004   3.3509e-003   1.6679e+007  -1.1789e+004   1.3236e+007    0.0495   -0.0000    0.0000    0.0000    0.1151
                0.5618   8.5835e-004  -1.1218e-004   3.4021e-003   1.6479e+007  -1.1664e+004   1.3438e+007    0.0489   -0.0000    0.0000    0.0000    0.1169
                0.5759   8.5414e-004  -1.1163e-004   3.4464e-003   1.6398e+007  -1.1612e+004   1.3613e+007    0.0487   -0.0000    0.0000    0.0000    0.1184
                0.5880   8.6087e-004  -1.1251e-004   3.4847e-003   1.6527e+007  -1.1693e+004   1.3764e+007    0.0490   -0.0000    0.0000    0.0000    0.1197
                0.5981   8.9218e-004  -1.1660e-004   3.5169e-003   1.7128e+007  -1.2073e+004   1.3892e+007    0.0508   -0.0000    0.0000    0.0000    0.1208
                0.6059   9.1687e-004  -1.1983e-004   3.5427e-003   1.7602e+007  -1.2372e+004   1.3994e+007    0.0522   -0.0000    0.0000    0.0000    0.1217
                0.6117   9.5045e-004  -1.2421e-004   3.5624e-003   1.8247e+007  -1.2774e+004   1.4071e+007    0.0541   -0.0000    0.0000    0.0000    0.1224
                0.6152   9.7697e-004  -1.2768e-004   3.5745e-003   1.8756e+007  -1.3092e+004   1.4119e+007    0.0557   -0.0000    0.0000    0.0000    0.1228
                0.6163   9.8540e-004  -1.2878e-004   3.5785e-003   1.8918e+007  -1.3195e+004   1.4135e+007    0.0561   -0.0000    0.0000    0.0000    0.1229

     Web:  panel  nNode   nLam     xc_St    xc_End         b         t         E_eff         G_eff      nu_eff     density  buckleCrit
            (-)    (-)    (-)       (-)       (-)       (m)       (m)          (Pa)          (Pa)         (-)    (kg/m^3)         (-)
              1     10      3    0.2369    0.2369    0.2392    0.0121   6.5707e+009   1.3870e+009      0.1347    691.8994      0.0650
              2     10      3    0.4631    0.4631    0.2249    0.0121   6.5707e+009   1.3870e+009      0.1347    691.8994      0.0610

            panel:  1     
           lam_num    nPlies        tPly      fibAng     matID  matName
               (-)       (-)         (m)       (deg)       (-)  (-)
                 1         1    0.002023      0.0000         7  (web-shell)
                 2         1    0.008047      0.0000         8  (web-core)
                 3         1    0.002023      0.0000         7  (web-shell)

               lamina:  1     
              matName:  (web-shell)
                     s           e11           e22           e12           s11           s22           s12   s11_fcT   s11_fcC   s22_fcT   s22_fcC   s12_fcS
                   (m)         (m/m)         (m/m)         (rad)          (Pa)          (Pa)          (Pa)       (-)       (-)       (-)       (-)       (-)
                0.0000  -5.3482e-003   7.2034e-004   1.2221e-002  -1.0262e+008   4.8987e+005   4.8273e+007    0.0000    0.2065    0.0015   -0.0000    0.4198
                0.0266  -4.1848e-003   5.6366e-004   1.2594e-002  -8.0299e+007   3.8340e+005   4.9747e+007    0.0000    0.1616    0.0011   -0.0000    0.4326
                0.0532  -3.0215e-003   4.0698e-004   1.2877e-002  -5.7977e+007   2.7693e+005   5.0864e+007    0.0000    0.1167    0.0008   -0.0000    0.4423
                0.0797  -1.8582e-003   2.5029e-004   1.3070e-002  -3.5655e+007   1.7045e+005   5.1625e+007    0.0000    0.0717    0.0005   -0.0000    0.4489
                0.1063  -6.9488e-004   9.3610e-005   1.3172e-002  -1.3333e+007   6.3983e+004   5.2028e+007    0.0000    0.0268    0.0002   -0.0000    0.4524
                0.1329   4.7114e-004  -6.3426e-005   1.3184e-002   9.0403e+006  -4.2541e+004   5.2075e+007    0.0268   -0.0000    0.0000    0.0001    0.4528
                0.1595   1.6345e-003  -2.2011e-004   1.3105e-002   3.1362e+007  -1.4901e+005   5.1765e+007    0.0931   -0.0000    0.0000    0.0004    0.4501
                0.1860   2.7978e-003  -3.7679e-004   1.2936e-002   5.3684e+007  -2.5548e+005   5.1098e+007    0.1593   -0.0000    0.0000    0.0008    0.4443
                0.2126   3.9611e-003  -5.3348e-004   1.2677e-002   7.6006e+007  -3.6195e+005   5.0074e+007    0.2255   -0.0000    0.0000    0.0011    0.4354
                0.2392   5.1244e-003  -6.9016e-004   1.2327e-002   9.8328e+007  -4.6843e+005   4.8693e+007    0.2918   -0.0000    0.0000    0.0014    0.4234

               lamina:  2     
              matName:  (web-core)
                     s           e11           e22           e12           s11           s22           s12   s11_fcT   s11_fcC   s22_fcT   s22_fcC   s12_fcS
                   (m)         (m/m)         (m/m)         (rad)          (Pa)          (Pa)          (Pa)       (-)       (-)       (-)       (-)       (-)
                0.0000  -5.3589e-003   7.2175e-004   1.2221e-002  -1.2068e+006  -2.4667e+005   1.1977e+006    0.0000    0.2813    0.0000    0.0575    0.4060
                0.0266  -4.1956e-003   5.6506e-004   1.2594e-002  -9.4480e+005  -1.9312e+005   1.2342e+006    0.0000    0.2202    0.0000    0.0450    0.4184
                0.0532  -3.0322e-003   4.0838e-004   1.2877e-002  -6.8283e+005  -1.3957e+005   1.2620e+006    0.0000    0.1592    0.0000    0.0325    0.4278
                0.0797  -1.8689e-003   2.5170e-004   1.3070e-002  -4.2086e+005  -8.6028e+004   1.2808e+006    0.0000    0.0981    0.0000    0.0201    0.4342
                0.1063  -7.0560e-004   9.5015e-005   1.3172e-002  -1.5890e+005  -3.2482e+004   1.2908e+006    0.0000    0.0370    0.0000    0.0076    0.4376
                0.1329   4.6844e-004  -6.3073e-005   1.3184e-002   1.0549e+005   2.1566e+004   1.2920e+006    0.0246   -0.0000    0.0050   -0.0000    0.4380
                0.1595   1.6318e-003  -2.1976e-004   1.3105e-002   3.6746e+005   7.5112e+004   1.2843e+006    0.0857   -0.0000    0.0175   -0.0000    0.4354
                0.1860   2.7951e-003  -3.7644e-004   1.2936e-002   6.2942e+005   1.2866e+005   1.2677e+006    0.1467   -0.0000    0.0300   -0.0000    0.4297
                0.2126   3.9584e-003  -5.3312e-004   1.2677e-002   8.9139e+005   1.8220e+005   1.2423e+006    0.2078   -0.0000    0.0425   -0.0000    0.4211
                0.2392   5.1217e-003  -6.8981e-004   1.2327e-002   1.1534e+006   2.3575e+005   1.2081e+006    0.2688   -0.0000    0.0550   -0.0000    0.4095

               lamina:  3     
              matName:  (web-shell)
                     s           e11           e22           e12           s11           s22           s12   s11_fcT   s11_fcC   s22_fcT   s22_fcC   s12_fcS
                   (m)         (m/m)         (m/m)         (rad)          (Pa)          (Pa)          (Pa)       (-)       (-)       (-)       (-)       (-)
                0.0000  -5.3616e-003   7.2210e-004   1.2221e-002  -1.0288e+008   4.9013e+005   4.8273e+007    0.0000    0.2070    0.0015   -0.0000    0.4198
                0.0266  -4.1983e-003   5.6542e-004   1.2594e-002  -8.0557e+007   3.8366e+005   4.9747e+007    0.0000    0.1621    0.0011   -0.0000    0.4326
                0.0532  -3.0349e-003   4.0873e-004   1.2877e-002  -5.8235e+007   2.7719e+005   5.0864e+007    0.0000    0.1172    0.0008   -0.0000    0.4423
                0.0797  -1.8716e-003   2.5205e-004   1.3070e-002  -3.5913e+007   1.7072e+005   5.1625e+007    0.0000    0.0723    0.0005   -0.0000    0.4489
                0.1063  -7.0830e-004   9.5368e-005   1.3172e-002  -1.3591e+007   6.4246e+004   5.2028e+007    0.0000    0.0273    0.0002   -0.0000    0.4524
                0.1329   4.5772e-004  -6.1668e-005   1.3184e-002   8.7827e+006  -4.2278e+004   5.2075e+007    0.0261   -0.0000    0.0000    0.0001    0.4528
                0.1595   1.6210e-003  -2.1835e-004   1.3105e-002   3.1105e+007  -1.4875e+005   5.1765e+007    0.0923   -0.0000    0.0000    0.0004    0.4501
                0.1860   2.7844e-003  -3.7503e-004   1.2936e-002   5.3427e+007  -2.5522e+005   5.1098e+007    0.1585   -0.0000    0.0000    0.0008    0.4443
                0.2126   3.9477e-003  -5.3172e-004   1.2677e-002   7.5748e+007  -3.6169e+005   5.0074e+007    0.2248   -0.0000    0.0000    0.0011    0.4354
                0.2392   5.1110e-003  -6.8840e-004   1.2327e-002   9.8070e+007  -4.6816e+005   4.8693e+007    0.2910   -0.0000    0.0000    0.0014    0.4234

            panel:  2     
           lam_num    nPlies        tPly      fibAng     matID  matName
               (-)       (-)         (m)       (deg)       (-)  (-)
                 1         1    0.002023      0.0000         7  (web-shell)
                 2         1    0.008047      0.0000         8  (web-core)
                 3         1    0.002023      0.0000         7  (web-shell)

               lamina:  1     
              matName:  (web-shell)
                     s           e11           e22           e12           s11           s22           s12   s11_fcT   s11_fcC   s22_fcT   s22_fcC   s12_fcS
                   (m)         (m/m)         (m/m)         (rad)          (Pa)          (Pa)          (Pa)       (-)       (-)       (-)       (-)       (-)
                0.0000  -5.0664e-003   6.8239e-004   1.3816e-002  -9.7214e+007   4.6406e+005   5.4572e+007    0.0000    0.1956    0.0014   -0.0000    0.4745
                0.0250  -3.9727e-003   5.3509e-004   1.4146e-002  -7.6229e+007   3.6397e+005   5.5875e+007    0.0000    0.1534    0.0011   -0.0000    0.4859
                0.0500  -2.8791e-003   3.8779e-004   1.4396e-002  -5.5244e+007   2.6388e+005   5.6862e+007    0.0000    0.1112    0.0008   -0.0000    0.4945
                0.0750  -1.7855e-003   2.4050e-004   1.4566e-002  -3.4260e+007   1.6378e+005   5.7535e+007    0.0000    0.0689    0.0005   -0.0000    0.5003
                0.0999  -6.9182e-004   9.3198e-005   1.4656e-002  -1.3275e+007   6.3690e+004   5.7892e+007    0.0000    0.0267    0.0002   -0.0000    0.5034
                0.1249   4.0441e-004  -5.4440e-005   1.4667e-002   7.7599e+006  -3.6454e+004   5.7934e+007    0.0230   -0.0000    0.0000    0.0001    0.5038
                0.1499   1.4980e-003  -2.0174e-004   1.4597e-002   2.8745e+007  -1.3655e+005   5.7660e+007    0.0853   -0.0000    0.0000    0.0004    0.5014
                0.1749   2.5917e-003  -3.4903e-004   1.4448e-002   4.9729e+007  -2.3664e+005   5.7071e+007    0.1476   -0.0000    0.0000    0.0007    0.4963
                0.1999   3.6853e-003  -4.9633e-004   1.4219e-002   7.0714e+007  -3.3673e+005   5.6166e+007    0.2098   -0.0000    0.0000    0.0010    0.4884
                0.2249   4.7789e-003  -6.4363e-004   1.3910e-002   9.1699e+007  -4.3683e+005   5.4946e+007    0.2721   -0.0000    0.0000    0.0013    0.4778

               lamina:  2     
              matName:  (web-core)
                     s           e11           e22           e12           s11           s22           s12   s11_fcT   s11_fcC   s22_fcT   s22_fcC   s12_fcS
                   (m)         (m/m)         (m/m)         (rad)          (Pa)          (Pa)          (Pa)       (-)       (-)       (-)       (-)       (-)
                0.0000  -5.0767e-003   6.8374e-004   1.3816e-002  -1.1432e+006  -2.3368e+005   1.3539e+006    0.0000    0.2665    0.0000    0.0545    0.4590
                0.0250  -3.9831e-003   5.3645e-004   1.4146e-002  -8.9695e+005  -1.8334e+005   1.3863e+006    0.0000    0.2091    0.0000    0.0427    0.4699
                0.0500  -2.8894e-003   3.8915e-004   1.4396e-002  -6.5067e+005  -1.3300e+005   1.4108e+006    0.0000    0.1517    0.0000    0.0310    0.4782
                0.0750  -1.7958e-003   2.4185e-004   1.4566e-002  -4.0440e+005  -8.2662e+004   1.4274e+006    0.0000    0.0943    0.0000    0.0193    0.4839
                0.0999  -7.0217e-004   9.4554e-005   1.4656e-002  -1.5812e+005  -3.2324e+004   1.4363e+006    0.0000    0.0369    0.0000    0.0075    0.4869
                0.1249   4.0181e-004  -5.4099e-005   1.4667e-002   9.0484e+004   1.8499e+004   1.4373e+006    0.0211   -0.0000    0.0043   -0.0000    0.4872
                0.1499   1.4954e-003  -2.0140e-004   1.4597e-002   3.3676e+005   6.8837e+004   1.4305e+006    0.0785   -0.0000    0.0160   -0.0000    0.4849
                0.1749   2.5891e-003  -3.4869e-004   1.4448e-002   5.8303e+005   1.1918e+005   1.4159e+006    0.1359   -0.0000    0.0278   -0.0000    0.4800
                0.1999   3.6827e-003  -4.9599e-004   1.4219e-002   8.2931e+005   1.6951e+005   1.3935e+006    0.1933   -0.0000    0.0395   -0.0000    0.4724
                0.2249   4.7763e-003  -6.4329e-004   1.3910e-002   1.0756e+006   2.1985e+005   1.3632e+006    0.2507   -0.0000    0.0512   -0.0000    0.4621

               lamina:  3     
              matName:  (web-shell)
                     s           e11           e22           e12           s11           s22           s12   s11_fcT   s11_fcC   s22_fcT   s22_fcC   s12_fcS
                   (m)         (m/m)         (m/m)         (rad)          (Pa)          (Pa)          (Pa)       (-)       (-)       (-)       (-)       (-)
                0.0000  -5.0793e-003   6.8408e-004   1.3816e-002  -9.7462e+007   4.6432e+005   5.4572e+007    0.0000    0.1961    0.0014   -0.0000    0.4745
                0.0250  -3.9857e-003   5.3679e-004   1.4146e-002  -7.6478e+007   3.6422e+005   5.5875e+007    0.0000    0.1539    0.0011   -0.0000    0.4859
                0.0500  -2.8920e-003   3.8949e-004   1.4396e-002  -5.5493e+007   2.6413e+005   5.6862e+007    0.0000    0.1117    0.0008   -0.0000    0.4945
                0.0750  -1.7984e-003   2.4219e-004   1.4566e-002  -3.4508e+007   1.6404e+005   5.7535e+007    0.0000    0.0694    0.0005   -0.0000    0.5003
                0.0999  -7.0477e-004   9.4894e-005   1.4656e-002  -1.3523e+007   6.3944e+004   5.7892e+007    0.0000    0.0272    0.0002   -0.0000    0.5034
                0.1249   3.9146e-004  -5.2744e-005   1.4667e-002   7.5114e+006  -3.6200e+004   5.7934e+007    0.0223   -0.0000    0.0000    0.0001    0.5038
                0.1499   1.4851e-003  -2.0004e-004   1.4597e-002   2.8496e+007  -1.3629e+005   5.7660e+007    0.0846   -0.0000    0.0000    0.0004    0.5014
                0.1749   2.5787e-003  -3.4734e-004   1.4448e-002   4.9481e+007  -2.3639e+005   5.7071e+007    0.1468   -0.0000    0.0000    0.0007    0.4963
                0.1999   3.6724e-003  -4.9464e-004   1.4219e-002   7.0466e+007  -3.3648e+005   5.6166e+007    0.2091   -0.0000    0.0000    0.0010    0.4884
                0.2249   4.7660e-003  -6.4193e-004   1.3910e-002   9.1450e+007  -4.3657e+005   5.4946e+007    0.2714   -0.0000    0.0000    0.0013    0.4778

================================================================================
sec        =  21     
zSec       =  6.0030  (m)
nPanelsTop =  3      
nPanelsBot =  3      
nWebs      =  2      

    Top:  panel  nNode   nLam     xc_St    xc_End         b         t         E_eff         G_eff      nu_eff     density  buckleCrit
            (-)    (-)    (-)       (-)       (-)       (m)       (m)          (Pa)          (Pa)         (-)    (kg/m^3)         (-)
              1     18      3    0.0000    0.2364    0.2987    0.0073   1.8698e+010   3.8482e+009      0.1301   1631.1524      0.2913
              2      9      5    0.2364    0.4636    0.2454    0.0104   5.2265e+010   4.1749e+009      0.1599   1599.6570      0.4846
              3     28      3    0.4636    1.0000    0.5962    0.0088   1.5453e+010   3.1895e+009      0.1306   1379.7715      0.9074

            panel:  1     
           lam_num    nPlies        tPly      fibAng     matID  matName
               (-)       (-)         (m)       (deg)       (-)  (-)
                 1         1    0.003530      0.0000         2  (blade-shell)
                 2         1    0.000192      0.0000         5  (LEP-core)
                 3         1    0.003530      0.0000         2  (blade-shell)

               lamina:  1     
              matName:  (blade-shell)
                     s           e11           e22           e12           s11           s22           s12   s11_fcT   s11_fcC   s22_fcT   s22_fcC   s12_fcS
                   (m)         (m/m)         (m/m)         (rad)          (Pa)          (Pa)          (Pa)       (-)       (-)       (-)       (-)       (-)
                0.0000   3.8967e-004  -5.0683e-005   6.5528e-003   7.4816e+006  -5.0355e+002   2.5884e+007    0.0222   -0.0000    0.0000    0.0000    0.2251
                0.0034   2.4781e-004  -3.2232e-005   6.5558e-003   4.7579e+006  -3.2211e+002   2.5895e+007    0.0141   -0.0000    0.0000    0.0000    0.2252
                0.0135  -3.4232e-004   4.4512e-005   6.5550e-003  -6.5725e+006   2.1099e+002   2.5892e+007    0.0000    0.0132    0.0000   -0.0000    0.2252
                0.0259  -9.1439e-004   1.1891e-004   6.5352e-003  -1.7556e+007   8.4686e+002   2.5814e+007    0.0000    0.0353    0.0000   -0.0000    0.2245
                0.0366  -1.3208e-003   1.7177e-004   6.5032e-003  -2.5360e+007   1.2906e+003   2.5688e+007    0.0000    0.0510    0.0000   -0.0000    0.2234
                0.0508  -1.8082e-003   2.3516e-004   6.4420e-003  -3.4717e+007   1.8796e+003   2.5446e+007    0.0000    0.0699    0.0000   -0.0000    0.2213
                0.0654  -2.2422e-003   2.9160e-004   6.3581e-003  -4.3049e+007   2.3921e+003   2.5115e+007    0.0000    0.0866    0.0000   -0.0000    0.2184
                0.0819  -2.6717e-003   3.4747e-004   6.2402e-003  -5.1296e+007   2.9278e+003   2.4649e+007    0.0000    0.1032    0.0000   -0.0000    0.2143
                0.1005  -3.1510e-003   4.0980e-004   6.0812e-003  -6.0498e+007   3.5138e+003   2.4021e+007    0.0000    0.1217    0.0000   -0.0000    0.2089
                0.1195  -3.5252e-003   4.5848e-004   5.8925e-003  -6.7683e+007   3.9715e+003   2.3275e+007    0.0000    0.1362    0.0000   -0.0000    0.2024
                0.1407  -3.9304e-003   5.1118e-004   5.6557e-003  -7.5463e+007   4.4823e+003   2.2340e+007    0.0000    0.1518    0.0000   -0.0000    0.1943
                0.1631  -4.3099e-003   5.6054e-004   5.3773e-003  -8.2749e+007   4.9539e+003   2.1240e+007    0.0000    0.1665    0.0000   -0.0000    0.1847
                0.1868  -4.6398e-003   6.0345e-004   5.0558e-003  -8.9084e+007   5.3695e+003   1.9971e+007    0.0000    0.1792    0.0000   -0.0000    0.1737
                0.2121  -4.9932e-003   6.4941e-004   4.6848e-003  -9.5868e+007   5.8135e+003   1.8505e+007    0.0000    0.1929    0.0000   -0.0000    0.1609
                0.2381  -5.2570e-003   6.8372e-004   4.2761e-003  -1.0093e+008   6.1432e+003   1.6891e+007    0.0000    0.2031    0.0000   -0.0000    0.1469
                0.2656  -5.5107e-003   7.1672e-004   3.8223e-003  -1.0580e+008   6.4653e+003   1.5098e+007    0.0000    0.2129    0.0000   -0.0000    0.1313
                0.2942  -5.7487e-003   7.4768e-004   3.3268e-003  -1.1037e+008   6.7673e+003   1.3141e+007    0.0000    0.2221    0.0000   -0.0000    0.1143
                0.2987  -5.7741e-003   7.5098e-004   3.2485e-003  -1.1086e+008   6.7940e+003   1.2832e+007    0.0000    0.2231    0.0000   -0.0000    0.1116

               lamina:  2     
              matName:  (LEP-core)
                     s           e11           e22           e12           s11           s22           s12   s11_fcT   s11_fcC   s22_fcT   s22_fcC   s12_fcS
                   (m)         (m/m)         (m/m)         (rad)          (Pa)          (Pa)          (Pa)       (-)       (-)       (-)       (-)       (-)
                0.0000   3.9777e-004  -5.1735e-005   6.5528e-003   8.9716e+004   1.8742e+004   6.4218e+005    0.0209   -0.0000    0.0044   -0.0000    0.2177
                0.0034   2.5591e-004  -3.3284e-005   6.5558e-003   5.7719e+004   1.2058e+004   6.4246e+005    0.0135   -0.0000    0.0028   -0.0000    0.2178
                0.0135  -1.6954e-004   2.2051e-005   6.5550e-003  -3.8240e+004  -7.9884e+003   6.4239e+005    0.0000    0.0089    0.0000    0.0019    0.2178
                0.0259  -6.6864e-004   8.6967e-005   6.5352e-003  -1.5081e+005  -3.1505e+004   6.4045e+005    0.0000    0.0352    0.0000    0.0073    0.2171
                0.0366  -1.0171e-003   1.3229e-004   6.5032e-003  -2.2941e+005  -4.7924e+004   6.3732e+005    0.0000    0.0535    0.0000    0.0112    0.2160
                0.0508  -1.4784e-003   1.9228e-004   6.4420e-003  -3.3344e+005  -6.9657e+004   6.3132e+005    0.0000    0.0777    0.0000    0.0162    0.2140
                0.0654  -1.8799e-003   2.4451e-004   6.3581e-003  -4.2401e+005  -8.8576e+004   6.2310e+005    0.0000    0.0988    0.0000    0.0206    0.2112
                0.0819  -2.2991e-003   2.9903e-004   6.2402e-003  -5.1855e+005  -1.0833e+005   6.1154e+005    0.0000    0.1209    0.0000    0.0253    0.2073
                0.1005  -2.7577e-003   3.5869e-004   6.0812e-003  -6.2200e+005  -1.2994e+005   5.9596e+005    0.0000    0.1450    0.0000    0.0303    0.2020
                0.1195  -3.1161e-003   4.0529e-004   5.8925e-003  -7.0283e+005  -1.4682e+005   5.7747e+005    0.0000    0.1638    0.0000    0.0342    0.1958
                0.1407  -3.5156e-003   4.5726e-004   5.6557e-003  -7.9294e+005  -1.6565e+005   5.5426e+005    0.0000    0.1848    0.0000    0.0386    0.1879
                0.1631  -3.8846e-003   5.0525e-004   5.3773e-003  -8.7616e+005  -1.8303e+005   5.2697e+005    0.0000    0.2042    0.0000    0.0427    0.1786
                0.1868  -4.2097e-003   5.4753e-004   5.0558e-003  -9.4949e+005  -1.9835e+005   4.9547e+005    0.0000    0.2213    0.0000    0.0462    0.1680
                0.2121  -4.5570e-003   5.9271e-004   4.6848e-003  -1.0278e+006  -2.1471e+005   4.5911e+005    0.0000    0.2396    0.0000    0.0500    0.1556
                0.2381  -4.8149e-003   6.2626e-004   4.2761e-003  -1.0860e+006  -2.2687e+005   4.1906e+005    0.0000    0.2531    0.0000    0.0529    0.1421
                0.2656  -5.0668e-003   6.5901e-004   3.8223e-003  -1.1428e+006  -2.3873e+005   3.7459e+005    0.0000    0.2664    0.0000    0.0556    0.1270
                0.2942  -5.3030e-003   6.8974e-004   3.3268e-003  -1.1961e+006  -2.4986e+005   3.2603e+005    0.0000    0.2788    0.0000    0.0582    0.1105
                0.2987  -5.3240e-003   6.9247e-004   3.2485e-003  -1.2008e+006  -2.5085e+005   3.1836e+005    0.0000    0.2799    0.0000    0.0585    0.1079

               lamina:  3     
              matName:  (blade-shell)
                     s           e11           e22           e12           s11           s22           s12   s11_fcT   s11_fcC   s22_fcT   s22_fcC   s12_fcS
                   (m)         (m/m)         (m/m)         (rad)          (Pa)          (Pa)          (Pa)       (-)       (-)       (-)       (-)       (-)
                0.0000   5.4690e-004  -7.1122e-005   6.5528e-003   1.0500e+007  -5.0369e+002   2.5884e+007    0.0312   -0.0000    0.0000    0.0000    0.2251
                0.0034   4.0504e-004  -5.2671e-005   6.5558e-003   7.7766e+006  -3.2225e+002   2.5895e+007    0.0231   -0.0000    0.0000    0.0000    0.2252
                0.0135  -1.6016e-004   2.0832e-005   6.5550e-003  -3.0751e+006   2.1083e+002   2.5892e+007    0.0000    0.0062    0.0000   -0.0000    0.2252
                0.0259  -6.5530e-004   8.5232e-005   6.5352e-003  -1.2582e+007   8.4663e+002   2.5814e+007    0.0000    0.0253    0.0000   -0.0000    0.2245
                0.0366  -1.0006e-003   1.3015e-004   6.5032e-003  -1.9212e+007   1.2903e+003   2.5688e+007    0.0000    0.0387    0.0000   -0.0000    0.2234
                0.0508  -1.4605e-003   1.8996e-004   6.4420e-003  -2.8040e+007   1.8793e+003   2.5446e+007    0.0000    0.0564    0.0000   -0.0000    0.2213
                0.0654  -1.8602e-003   2.4195e-004   6.3581e-003  -3.5716e+007   2.3917e+003   2.5115e+007    0.0000    0.0719    0.0000   -0.0000    0.2184
                0.0819  -2.2788e-003   2.9640e-004   6.2402e-003  -4.3753e+007   2.9275e+003   2.4649e+007    0.0000    0.0880    0.0000   -0.0000    0.2143
                0.1005  -2.7364e-003   3.5591e-004   6.0812e-003  -5.2538e+007   3.5134e+003   2.4021e+007    0.0000    0.1057    0.0000   -0.0000    0.2089
                0.1195  -3.0939e-003   4.0241e-004   5.8925e-003  -5.9402e+007   3.9712e+003   2.3275e+007    0.0000    0.1195    0.0000   -0.0000    0.2024
                0.1407  -3.4931e-003   4.5433e-004   5.6557e-003  -6.7067e+007   4.4819e+003   2.2340e+007    0.0000    0.1349    0.0000   -0.0000    0.1943
                0.1631  -3.8615e-003   5.0225e-004   5.3773e-003  -7.4140e+007   4.9535e+003   2.1240e+007    0.0000    0.1492    0.0000   -0.0000    0.1847
                0.1868  -4.1863e-003   5.4450e-004   5.0558e-003  -8.0377e+007   5.3691e+003   1.9971e+007    0.0000    0.1617    0.0000   -0.0000    0.1737
                0.2121  -4.5333e-003   5.8963e-004   4.6848e-003  -8.7039e+007   5.8131e+003   1.8505e+007    0.0000    0.1751    0.0000   -0.0000    0.1609
                0.2381  -4.7909e-003   6.2314e-004   4.2761e-003  -9.1985e+007   6.1428e+003   1.6891e+007    0.0000    0.1851    0.0000   -0.0000    0.1469
                0.2656  -5.0427e-003   6.5588e-004   3.8223e-003  -9.6819e+007   6.4648e+003   1.5098e+007    0.0000    0.1948    0.0000   -0.0000    0.1313
                0.2942  -5.2788e-003   6.8659e-004   3.3268e-003  -1.0135e+008   6.7669e+003   1.3141e+007    0.0000    0.2039    0.0000   -0.0000    0.1143
                0.2987  -5.2996e-003   6.8929e-004   3.2485e-003  -1.0175e+008   6.7936e+003   1.2832e+007    0.0000    0.2047    0.0000   -0.0000    0.1116

            panel:  2     
           lam_num    nPlies        tPly      fibAng     matID  matName
               (-)       (-)         (m)       (deg)       (-)  (-)
                 1         1    0.003530      0.0000         2  (blade-shell)
                 2         1    0.001662      0.0000         3  (spar-uni)
                 3         1    0.000047      0.0000         4  (spar-core)
                 4         1    0.001662      0.0000         3  (spar-uni)
                 5         1    0.003530      0.0000         2  (blade-shell)

               lamina:  1     
              matName:  (blade-shell)
                     s           e11           e22           e12           s11           s22           s12   s11_fcT   s11_fcC   s22_fcT   s22_fcC   s12_fcS
                   (m)         (m/m)         (m/m)         (rad)          (Pa)          (Pa)          (Pa)       (-)       (-)       (-)       (-)       (-)
                0.0000  -6.8138e-003   1.0466e-003   6.5922e-003  -1.3042e+008   3.1399e+006   2.6039e+007    0.0000    0.2624    0.0093   -0.0000    0.2264
                0.0248  -6.9330e-003   1.0656e-003   5.4593e-003  -1.3270e+008   3.2095e+006   2.1564e+007    0.0000    0.2670    0.0095   -0.0000    0.1875
                0.0551  -7.0836e-003   1.0896e-003   4.0402e-003  -1.3558e+008   3.2949e+006   1.5959e+007    0.0000    0.2728    0.0098   -0.0000    0.1388
                0.0861  -7.1514e-003   1.1003e-003   2.5661e-003  -1.3687e+008   3.3321e+006   1.0136e+007    0.0000    0.2754    0.0099   -0.0000    0.0881
                0.1179  -7.1535e-003   1.1006e-003   1.0419e-003  -1.3691e+008   3.3331e+006   4.1155e+006    0.0000    0.2755    0.0099   -0.0000    0.0358
                0.1503  -7.1537e-003   1.1007e-003   5.0633e-004  -1.3692e+008   3.3342e+006   2.0000e+006    0.0000    0.2755    0.0099   -0.0000    0.0174
                0.1833  -7.0071e-003   1.0774e-003   2.0632e-003  -1.3411e+008   3.2518e+006   8.1496e+006    0.0000    0.2698    0.0096   -0.0000    0.0709
                0.2168  -6.8539e-003   1.0530e-003   3.6055e-003  -1.3118e+008   3.1637e+006   1.4242e+007    0.0000    0.2640    0.0094   -0.0000    0.1238
                0.2454  -6.6916e-003   1.0271e-003   4.8769e-003  -1.2808e+008   3.0704e+006   1.9264e+007    0.0000    0.2577    0.0091   -0.0000    0.1675

               lamina:  2     
              matName:  (spar-uni)
                     s           e11           e22           e12           s11           s22           s12   s11_fcT   s11_fcC   s22_fcT   s22_fcC   s12_fcS
                   (m)         (m/m)         (m/m)         (rad)          (Pa)          (Pa)          (Pa)       (-)       (-)       (-)       (-)       (-)
                0.0000  -5.7502e-003   9.0552e-004   6.5922e-003  -7.0952e+008  -7.2382e+006   3.1049e+007    0.0000    0.7095    0.0000    0.1208    0.3014
                0.0248  -5.8695e-003   9.2458e-004   5.4593e-003  -7.2423e+008  -7.3859e+006   2.5713e+007    0.0000    0.7242    0.0000    0.1233    0.2496
                0.0551  -6.0169e-003   9.4811e-004   4.0402e-003  -7.4242e+008  -7.5689e+006   1.9029e+007    0.0000    0.7424    0.0000    0.1264    0.1848
                0.0861  -6.0817e-003   9.5844e-004   2.5661e-003  -7.5042e+008  -7.6496e+006   1.2086e+007    0.0000    0.7504    0.0000    0.1277    0.1173
                0.1179  -6.0835e-003   9.5872e-004   1.0419e-003  -7.5065e+008  -7.6518e+006   4.9073e+006    0.0000    0.7506    0.0000    0.1277    0.0476
                0.1503  -6.0850e-003   9.5897e-004   5.0633e-004  -7.5082e+008  -7.6535e+006   2.3848e+006    0.0000    0.7508    0.0000    0.1278    0.0232
                0.1833  -5.9425e-003   9.3624e-004   2.0632e-003  -7.3324e+008  -7.4765e+006   9.7176e+006    0.0000    0.7332    0.0000    0.1248    0.0943
                0.2168  -5.7909e-003   9.1203e-004   3.6055e-003  -7.1454e+008  -7.2886e+006   1.6982e+007    0.0000    0.7145    0.0000    0.1217    0.1649
                0.2454  -5.6304e-003   8.8638e-004   4.8769e-003  -6.9473e+008  -7.0895e+006   2.2970e+007    0.0000    0.6947    0.0000    0.1184    0.2230

               lamina:  3     
              matName:  (spar-core)
                     s           e11           e22           e12           s11           s22           s12   s11_fcT   s11_fcC   s22_fcT   s22_fcC   s12_fcS
                   (m)         (m/m)         (m/m)         (rad)          (Pa)          (Pa)          (Pa)       (-)       (-)       (-)       (-)       (-)
                0.0000  -5.2495e-003   8.3911e-004   6.5922e-003  -1.1719e+006  -2.1050e+005   6.4603e+005    0.0000    0.2732    0.0000    0.0491    0.2190
                0.0248  -5.3687e-003   8.5816e-004   5.4593e-003  -1.1985e+006  -2.1528e+005   5.3501e+005    0.0000    0.2794    0.0000    0.0502    0.1814
                0.0551  -5.5146e-003   8.8150e-004   4.0402e-003  -1.2310e+006  -2.2113e+005   3.9594e+005    0.0000    0.2870    0.0000    0.0515    0.1342
                0.0861  -5.5781e-003   8.9164e-004   2.5661e-003  -1.2452e+006  -2.2367e+005   2.5147e+005    0.0000    0.2903    0.0000    0.0521    0.0852
                0.1179  -5.5797e-003   8.9191e-004   1.0419e-003  -1.2456e+006  -2.2374e+005   1.0211e+005    0.0000    0.2903    0.0000    0.0522    0.0346
                0.1503  -5.5817e-003   8.9223e-004   5.0633e-004  -1.2460e+006  -2.2382e+005   4.9620e+004    0.0000    0.2904    0.0000    0.0522    0.0168
                0.1833  -5.4412e-003   8.6975e-004   2.0632e-003  -1.2146e+006  -2.1818e+005   2.0219e+005    0.0000    0.2831    0.0000    0.0509    0.0685
                0.2168  -5.2904e-003   8.4565e-004   3.6055e-003  -1.1810e+006  -2.1214e+005   3.5334e+005    0.0000    0.2753    0.0000    0.0494    0.1198
                0.2454  -5.1307e-003   8.2011e-004   4.8769e-003  -1.1453e+006  -2.0574e+005   4.7794e+005    0.0000    0.2670    0.0000    0.0480    0.1620

               lamina:  4     
              matName:  (spar-uni)
                     s           e11           e22           e12           s11           s22           s12   s11_fcT   s11_fcC   s22_fcT   s22_fcC   s12_fcS
                   (m)         (m/m)         (m/m)         (rad)          (Pa)          (Pa)          (Pa)       (-)       (-)       (-)       (-)       (-)
                0.0000  -5.2353e-003   8.3723e-004   6.5922e-003  -6.4596e+008  -6.4845e+006   3.1049e+007    0.0000    0.6460    0.0000    0.1083    0.3014
                0.0248  -5.3545e-003   8.5629e-004   5.4593e-003  -6.6067e+008  -6.6322e+006   2.5713e+007    0.0000    0.6607    0.0000    0.1107    0.2496
                0.0551  -5.5004e-003   8.7962e-004   4.0402e-003  -6.7867e+008  -6.8129e+006   1.9029e+007    0.0000    0.6787    0.0000    0.1137    0.1848
                0.0861  -5.5639e-003   8.8976e-004   2.5661e-003  -6.8649e+008  -6.8915e+006   1.2086e+007    0.0000    0.6865    0.0000    0.1150    0.1173
                0.1179  -5.5655e-003   8.9002e-004   1.0419e-003  -6.8670e+008  -6.8935e+006   4.9073e+006    0.0000    0.6867    0.0000    0.1151    0.0476
                0.1503  -5.5676e-003   8.9035e-004   5.0633e-004  -6.8695e+008  -6.8960e+006   2.3848e+006    0.0000    0.6869    0.0000    0.1151    0.0232
                0.1833  -5.4270e-003   8.6788e-004   2.0632e-003  -6.6961e+008  -6.7219e+006   9.7176e+006    0.0000    0.6696    0.0000    0.1122    0.0943
                0.2168  -5.2763e-003   8.4377e-004   3.6055e-003  -6.5101e+008  -6.5352e+006   1.6982e+007    0.0000    0.6510    0.0000    0.1091    0.1649
                0.2454  -5.1166e-003   8.1824e-004   4.8769e-003  -6.3130e+008  -6.3373e+006   2.2970e+007    0.0000    0.6313    0.0000    0.1058    0.2230

               lamina:  5     
              matName:  (blade-shell)
                     s           e11           e22           e12           s11           s22           s12   s11_fcT   s11_fcC   s22_fcT   s22_fcC   s12_fcS
                   (m)         (m/m)         (m/m)         (rad)          (Pa)          (Pa)          (Pa)       (-)       (-)       (-)       (-)       (-)
                0.0000  -4.7346e-003   7.7082e-004   6.5922e-003  -9.0509e+007   3.0336e+006   2.6039e+007    0.0000    0.1821    0.0090   -0.0000    0.2264
                0.0248  -4.8538e-003   7.8988e-004   5.4593e-003  -9.2789e+007   3.1031e+006   2.1564e+007    0.0000    0.1867    0.0092   -0.0000    0.1875
                0.0551  -4.9982e-003   8.1301e-004   4.0402e-003  -9.5550e+007   3.1882e+006   1.5959e+007    0.0000    0.1923    0.0095   -0.0000    0.1388
                0.0861  -5.0602e-003   8.2296e-004   2.5661e-003  -9.6736e+007   3.2251e+006   1.0136e+007    0.0000    0.1946    0.0096   -0.0000    0.0881
                0.1179  -5.0617e-003   8.2321e-004   1.0419e-003  -9.6765e+007   3.2261e+006   4.1155e+006    0.0000    0.1947    0.0096   -0.0000    0.0358
                0.1503  -5.0643e-003   8.2361e-004   5.0633e-004  -9.6816e+007   3.2273e+006   2.0000e+006    0.0000    0.1948    0.0096   -0.0000    0.0174
                0.1833  -4.9257e-003   8.0140e-004   2.0632e-003  -9.4165e+007   3.1454e+006   8.1496e+006    0.0000    0.1895    0.0093   -0.0000    0.0709
                0.2168  -4.7757e-003   7.7739e-004   3.6055e-003  -9.1296e+007   3.0574e+006   1.4242e+007    0.0000    0.1837    0.0091   -0.0000    0.1238
                0.2454  -4.6169e-003   7.5197e-004   4.8769e-003  -8.8258e+007   2.9643e+006   1.9264e+007    0.0000    0.1776    0.0088   -0.0000    0.1675

            panel:  3     
           lam_num    nPlies        tPly      fibAng     matID  matName
               (-)       (-)         (m)       (deg)       (-)  (-)
                 1         1    0.003530      0.0000         2  (blade-shell)
                 2         1    0.001737      0.0000         6  (TEP-core)
                 3         1    0.003530      0.0000         2  (blade-shell)

               lamina:  1     
              matName:  (blade-shell)
                     s           e11           e22           e12           s11           s22           s12   s11_fcT   s11_fcC   s22_fcT   s22_fcC   s12_fcS
                   (m)         (m/m)         (m/m)         (rad)          (Pa)          (Pa)          (Pa)       (-)       (-)       (-)       (-)       (-)
                0.0000  -5.6252e-003   7.3434e-004   3.4401e-004  -1.0800e+008   5.9813e+004   1.3588e+006    0.0000    0.2173    0.0002   -0.0000    0.0118
                0.0052  -5.5930e-003   7.3014e-004   2.5541e-004  -1.0738e+008   5.9478e+004   1.0089e+006    0.0000    0.2161    0.0002   -0.0000    0.0088
                0.0396  -5.3191e-003   6.9437e-004   3.1273e-004  -1.0212e+008   5.6319e+004   1.2353e+006    0.0000    0.2055    0.0002   -0.0000    0.0107
                0.0739  -5.0446e-003   6.5852e-004   8.4837e-004  -9.6849e+007   5.3165e+004   3.3510e+006    0.0000    0.1949    0.0002   -0.0000    0.0291
                0.1083  -4.7099e-003   6.1482e-004   1.3502e-003  -9.0424e+007   4.9328e+004   5.3332e+006    0.0000    0.1819    0.0001   -0.0000    0.0464
                0.1426  -4.3511e-003   5.6796e-004   1.8114e-003  -8.3536e+007   4.5193e+004   7.1549e+006    0.0000    0.1681    0.0001   -0.0000    0.0622
                0.1765  -3.9930e-003   5.2119e-004   2.2261e-003  -7.6659e+007   4.1076e+004   8.7931e+006    0.0000    0.1542    0.0001   -0.0000    0.0765
                0.2101  -3.5869e-003   4.6816e-004   2.5949e-003  -6.8864e+007   3.6407e+004   1.0250e+007    0.0000    0.1386    0.0001   -0.0000    0.0891
                0.2432  -3.1901e-003   4.1634e-004   2.9125e-003  -6.1245e+007   3.1824e+004   1.1504e+007    0.0000    0.1232    0.0001   -0.0000    0.1000
                0.2754  -2.7925e-003   3.6442e-004   3.1799e-003  -5.3612e+007   2.7240e+004   1.2560e+007    0.0000    0.1079    0.0001   -0.0000    0.1092
                0.3068  -2.3930e-003   3.1225e-004   3.3983e-003  -4.5943e+007   2.2629e+004   1.3423e+007    0.0000    0.0924    0.0001   -0.0000    0.1167
                0.3372  -2.0075e-003   2.6191e-004   3.5696e-003  -3.8542e+007   1.8172e+004   1.4100e+007    0.0000    0.0775    0.0001   -0.0000    0.1226
                0.3664  -1.6389e-003   2.1376e-004   3.6973e-003  -3.1464e+007   1.3909e+004   1.4604e+007    0.0000    0.0633    0.0000   -0.0000    0.1270
                0.3942  -1.2872e-003   1.6783e-004   3.7856e-003  -2.4712e+007   9.8407e+003   1.4953e+007    0.0000    0.0497    0.0000   -0.0000    0.1300
                0.4207  -9.5646e-004   1.2465e-004   3.8392e-003  -1.8363e+007   6.0070e+003   1.5165e+007    0.0000    0.0369    0.0000   -0.0000    0.1319
                0.4456  -6.5874e-004   8.5768e-005   3.8632e-003  -1.2648e+007   2.5559e+003   1.5260e+007    0.0000    0.0254    0.0000   -0.0000    0.1327
                0.4688  -3.8026e-004   4.9399e-005   3.8631e-003  -7.3010e+006  -8.0396e+002   1.5259e+007    0.0000    0.0147    0.0000    0.0000    0.1327
                0.4903   2.3087e-004  -3.0201e-005   3.8441e-003   4.4323e+006  -3.6724e+003   1.5184e+007    0.0132   -0.0000    0.0000    0.0000    0.1320
                0.5100   4.4870e-004  -5.8648e-005   3.8112e-003   8.6142e+006  -6.1921e+003   1.5054e+007    0.0256   -0.0000    0.0000    0.0000    0.1309
                0.5278   6.4609e-004  -8.4425e-005   3.7691e-003   1.2404e+007  -8.4765e+003   1.4888e+007    0.0368   -0.0000    0.0000    0.0000    0.1295
                0.5436   8.0737e-004  -1.0549e-004   3.7220e-003   1.5500e+007  -1.0344e+004   1.4702e+007    0.0460   -0.0000    0.0000    0.0000    0.1278
                0.5574   9.4666e-004  -1.2368e-004   3.6740e-003   1.8174e+007  -1.1955e+004   1.4512e+007    0.0539   -0.0000    0.0000    0.0000    0.1262
                0.5692   1.0636e-003  -1.3896e-004   3.6280e-003   2.0420e+007  -1.3309e+004   1.4330e+007    0.0606   -0.0000    0.0000    0.0000    0.1246
                0.5789   1.1552e-003  -1.5091e-004   3.5867e-003   2.2178e+007  -1.4369e+004   1.4168e+007    0.0658   -0.0000    0.0000    0.0000    0.1232
                0.5865   1.2266e-003  -1.6023e-004   3.5525e-003   2.3548e+007  -1.5193e+004   1.4033e+007    0.0699   -0.0000    0.0000    0.0000    0.1220
                0.5919   1.2799e-003  -1.6719e-004   3.5270e-003   2.4571e+007  -1.5807e+004   1.3932e+007    0.0729   -0.0000    0.0000    0.0000    0.1211
                0.5951   1.3129e-003  -1.7151e-004   3.5111e-003   2.5206e+007  -1.6188e+004   1.3869e+007    0.0748   -0.0000    0.0000    0.0000    0.1206
                0.5962   1.3240e-003  -1.7295e-004   3.5057e-003   2.5418e+007  -1.6316e+004   1.3847e+007    0.0754   -0.0000    0.0000    0.0000    0.1204

               lamina:  2     
              matName:  (TEP-core)
                     s           e11           e22           e12           s11           s22           s12   s11_fcT   s11_fcC   s22_fcT   s22_fcC   s12_fcS
                   (m)         (m/m)         (m/m)         (rad)          (Pa)          (Pa)          (Pa)       (-)       (-)       (-)       (-)       (-)
                0.0000  -5.2512e-003   6.8571e-004   3.4401e-004  -1.1842e+006  -2.4678e+005   3.3713e+004    0.0000    0.2760    0.0000    0.0575    0.0114
                0.0052  -5.2217e-003   6.8185e-004   2.5541e-004  -1.1775e+006  -2.4540e+005   2.5030e+004    0.0000    0.2745    0.0000    0.0572    0.0085
                0.0396  -4.9483e-003   6.4615e-004   3.1273e-004  -1.1159e+006  -2.3255e+005   3.0648e+004    0.0000    0.2601    0.0000    0.0542    0.0104
                0.0739  -4.6752e-003   6.1049e-004   8.4837e-004  -1.0543e+006  -2.1971e+005   8.3140e+004    0.0000    0.2458    0.0000    0.0512    0.0282
                0.1083  -4.3428e-003   5.6708e-004   1.3502e-003  -9.7934e+005  -2.0409e+005   1.3232e+005    0.0000    0.2283    0.0000    0.0476    0.0449
                0.1426  -3.9849e-003   5.2034e-004   1.8114e-003  -8.9863e+005  -1.8727e+005   1.7751e+005    0.0000    0.2095    0.0000    0.0437    0.0602
                0.1765  -3.6285e-003   4.7380e-004   2.2261e-003  -8.1825e+005  -1.7053e+005   2.1816e+005    0.0000    0.1907    0.0000    0.0397    0.0740
                0.2101  -3.2242e-003   4.2100e-004   2.5949e-003  -7.2708e+005  -1.5153e+005   2.5430e+005    0.0000    0.1695    0.0000    0.0353    0.0862
                0.2432  -2.8277e-003   3.6922e-004   2.9125e-003  -6.3767e+005  -1.3289e+005   2.8543e+005    0.0000    0.1486    0.0000    0.0310    0.0968
                0.2754  -2.4310e-003   3.1741e-004   3.1799e-003  -5.4821e+005  -1.1425e+005   3.1163e+005    0.0000    0.1278    0.0000    0.0266    0.1056
                0.3068  -2.0320e-003   2.6532e-004   3.3983e-003  -4.5824e+005  -9.5503e+004   3.3304e+005    0.0000    0.1068    0.0000    0.0223    0.1129
                0.3372  -1.6465e-003   2.1497e-004   3.5696e-003  -3.7130e+005  -7.7385e+004   3.4983e+005    0.0000    0.0865    0.0000    0.0180    0.1186
                0.3664  -1.2777e-003   1.6681e-004   3.6973e-003  -2.8814e+005  -6.0056e+004   3.6234e+005    0.0000    0.0672    0.0000    0.0140    0.1228
                0.3942  -9.2588e-004   1.2086e-004   3.7856e-003  -2.0880e+005  -4.3522e+004   3.7099e+005    0.0000    0.0487    0.0000    0.0101    0.1258
                0.4207  -5.9441e-004   7.7574e-005   3.8392e-003  -1.3405e+005  -2.7945e+004   3.7624e+005    0.0000    0.0312    0.0000    0.0065    0.1275
                0.4456  -2.9603e-004   3.8608e-005   3.8632e-003  -6.6761e+004  -1.3923e+004   3.7859e+005    0.0000    0.0156    0.0000    0.0032    0.1283
                0.4688   1.6173e-004  -2.1070e-005   3.8631e-003   3.6476e+004   7.6124e+003   3.7859e+005    0.0085   -0.0000    0.0018   -0.0000    0.1283
                0.4903   4.1013e-004  -5.3508e-005   3.8441e-003   9.2491e+004   1.9285e+004   3.7672e+005    0.0216   -0.0000    0.0045   -0.0000    0.1277
                0.5100   6.2822e-004  -8.1989e-005   3.8112e-003   1.4167e+005   2.9534e+004   3.7350e+005    0.0330   -0.0000    0.0069   -0.0000    0.1266
                0.5278   8.2605e-004  -1.0782e-004   3.7691e-003   1.8629e+005   3.8831e+004   3.6937e+005    0.0434   -0.0000    0.0091   -0.0000    0.1252
                0.5436   9.8788e-004  -1.2896e-004   3.7220e-003   2.2278e+005   4.6436e+004   3.6476e+005    0.0519   -0.0000    0.0108   -0.0000    0.1236
                0.5574   1.1273e-003  -1.4716e-004   3.6740e-003   2.5422e+005   5.2987e+004   3.6006e+005    0.0593   -0.0000    0.0124   -0.0000    0.1221
                0.5692   1.2446e-003  -1.6248e-004   3.6280e-003   2.8066e+005   5.8499e+004   3.5554e+005    0.0654   -0.0000    0.0136   -0.0000    0.1205
                0.5789   1.3364e-003  -1.7447e-004   3.5867e-003   3.0136e+005   6.2812e+004   3.5150e+005    0.0702   -0.0000    0.0146   -0.0000    0.1192
                0.5865   1.4076e-003  -1.8377e-004   3.5525e-003   3.1743e+005   6.6159e+004   3.4815e+005    0.0740   -0.0000    0.0154   -0.0000    0.1180
                0.5919   1.4606e-003  -1.9069e-004   3.5270e-003   3.2937e+005   6.8649e+004   3.4564e+005    0.0768   -0.0000    0.0160   -0.0000    0.1172
                0.5951   1.4934e-003  -1.9498e-004   3.5111e-003   3.3678e+005   7.0193e+004   3.4409e+005    0.0785   -0.0000    0.0164   -0.0000    0.1166
                0.5962   1.5045e-003  -1.9642e-004   3.5057e-003   3.3928e+005   7.0713e+004   3.4356e+005    0.0791   -0.0000    0.0165   -0.0000    0.1165

               lamina:  3     
              matName:  (blade-shell)
                     s           e11           e22           e12           s11           s22           s12   s11_fcT   s11_fcC   s22_fcT   s22_fcC   s12_fcS
                   (m)         (m/m)         (m/m)         (rad)          (Pa)          (Pa)          (Pa)       (-)       (-)       (-)       (-)       (-)
                0.0000  -5.0672e-003   6.6179e-004   3.4401e-004  -9.7282e+007   5.9609e+004   1.3588e+006    0.0000    0.1957    0.0002   -0.0000    0.0118
                0.0052  -5.0390e-003   6.5810e-004   2.5541e-004  -9.6740e+007   5.9276e+004   1.0089e+006    0.0000    0.1946    0.0002   -0.0000    0.0088
                0.0396  -4.7658e-003   6.2243e-004   3.1273e-004  -9.1497e+007   5.6117e+004   1.2353e+006    0.0000    0.1841    0.0002   -0.0000    0.0107
                0.0739  -4.4934e-003   5.8685e-004   8.4837e-004  -8.6266e+007   5.2964e+004   3.3510e+006    0.0000    0.1736    0.0002   -0.0000    0.0291
                0.1083  -4.1622e-003   5.4360e-004   1.3502e-003  -7.9908e+007   4.9128e+004   5.3332e+006    0.0000    0.1608    0.0001   -0.0000    0.0464
                0.1426  -3.8047e-003   4.9691e-004   1.8114e-003  -7.3044e+007   4.4993e+004   7.1549e+006    0.0000    0.1470    0.0001   -0.0000    0.0622
                0.1765  -3.4491e-003   4.5048e-004   2.2261e-003  -6.6218e+007   4.0878e+004   8.7931e+006    0.0000    0.1332    0.0001   -0.0000    0.0765
                0.2101  -3.0457e-003   3.9780e-004   2.5949e-003  -5.8473e+007   3.6209e+004   1.0250e+007    0.0000    0.1177    0.0001   -0.0000    0.0891
                0.2432  -2.6494e-003   3.4604e-004   2.9125e-003  -5.0864e+007   3.1626e+004   1.1504e+007    0.0000    0.1023    0.0001   -0.0000    0.1000
                0.2754  -2.2531e-003   2.9429e-004   3.1799e-003  -4.3256e+007   2.7043e+004   1.2560e+007    0.0000    0.0870    0.0001   -0.0000    0.1092
                0.3068  -1.8544e-003   2.4222e-004   3.3983e-003  -3.5602e+007   2.2432e+004   1.3423e+007    0.0000    0.0716    0.0001   -0.0000    0.1167
                0.3372  -1.4688e-003   1.9187e-004   3.5696e-003  -2.8199e+007   1.7975e+004   1.4100e+007    0.0000    0.0567    0.0001   -0.0000    0.1226
                0.3664  -1.1000e-003   1.4371e-004   3.6973e-003  -2.1119e+007   1.3712e+004   1.4604e+007    0.0000    0.0425    0.0000   -0.0000    0.1270
                0.3942  -7.4813e-004   9.7750e-005   3.7856e-003  -1.4363e+007   9.6437e+003   1.4953e+007    0.0000    0.0289    0.0000   -0.0000    0.1300
                0.4207  -4.1628e-004   5.4414e-005   3.8392e-003  -7.9919e+006   5.8095e+003   1.5165e+007    0.0000    0.0161    0.0000   -0.0000    0.1319
                0.4456   2.4514e-004  -3.1754e-005   3.8632e-003   4.7070e+006   2.3581e+003   1.5260e+007    0.0140   -0.0000    0.0000   -0.0000    0.1327
                0.4688   5.2499e-004  -6.8301e-005   3.8631e-003   1.0080e+007  -1.0021e+003   1.5259e+007    0.0299   -0.0000    0.0000    0.0000    0.1327
                0.4903   7.7447e-004  -1.0088e-004   3.8441e-003   1.4869e+007  -3.8711e+003   1.5184e+007    0.0441   -0.0000    0.0000    0.0000    0.1320
                0.5100   9.9308e-004  -1.2943e-004   3.8112e-003   1.9066e+007  -6.3910e+003   1.5054e+007    0.0566   -0.0000    0.0000    0.0000    0.1309
                0.5278   1.1918e-003  -1.5538e-004   3.7691e-003   2.2882e+007  -8.6760e+003   1.4888e+007    0.0679   -0.0000    0.0000    0.0000    0.1295
                0.5436   1.3548e-003  -1.7666e-004   3.7220e-003   2.6010e+007  -1.0544e+004   1.4702e+007    0.0772   -0.0000    0.0000    0.0000    0.1278
                0.5574   1.4944e-003  -1.9490e-004   3.6740e-003   2.8692e+007  -1.2155e+004   1.4512e+007    0.0851   -0.0000    0.0000    0.0000    0.1262
                0.5692   1.6123e-003  -2.1029e-004   3.6280e-003   3.0954e+007  -1.3510e+004   1.4330e+007    0.0919   -0.0000    0.0000    0.0000    0.1246
                0.5789   1.7046e-003  -2.2234e-004   3.5867e-003   3.2726e+007  -1.4569e+004   1.4168e+007    0.0971   -0.0000    0.0000    0.0000    0.1232
                0.5865   1.7755e-003  -2.3160e-004   3.5525e-003   3.4088e+007  -1.5394e+004   1.4033e+007    0.1012   -0.0000    0.0000    0.0000    0.1220
                0.5919   1.8278e-003  -2.3844e-004   3.5270e-003   3.5092e+007  -1.6008e+004   1.3932e+007    0.1041   -0.0000    0.0000    0.0000    0.1211
                0.5951   1.8603e-003  -2.4268e-004   3.5111e-003   3.5717e+007  -1.6388e+004   1.3869e+007    0.1060   -0.0000    0.0000    0.0000    0.1206
                0.5962   1.8714e-003  -2.4413e-004   3.5057e-003   3.5929e+007  -1.6516e+004   1.3847e+007    0.1066   -0.0000    0.0000    0.0000    0.1204

  Bottom:  panel  nNode   nLam     xc_St    xc_End         b         t         E_eff         G_eff      nu_eff     density  buckleCrit
            (-)    (-)    (-)       (-)       (-)       (m)       (m)          (Pa)          (Pa)         (-)    (kg/m^3)         (-)
              1     18      3    0.0000    0.2364    0.2852    0.0073   1.8698e+010   3.8482e+009      0.1301   1631.1524      0.0901
              2      9      5    0.2364    0.4636    0.2455    0.0104   5.2265e+010   4.1749e+009      0.1599   1599.6570      0.0041
              3     28      3    0.4636    1.0000    0.5911    0.0088   1.5453e+010   3.1895e+009      0.1306   1379.7715      0.1857

            panel:  1     
           lam_num    nPlies        tPly      fibAng     matID  matName
               (-)       (-)         (m)       (deg)       (-)  (-)
                 1         1    0.003530      0.0000         2  (blade-shell)
                 2         1    0.000192      0.0000         5  (LEP-core)
                 3         1    0.003530      0.0000         2  (blade-shell)

               lamina:  1     
              matName:  (blade-shell)
                     s           e11           e22           e12           s11           s22           s12   s11_fcT   s11_fcC   s22_fcT   s22_fcC   s12_fcS
                   (m)         (m/m)         (m/m)         (rad)          (Pa)          (Pa)          (Pa)       (-)       (-)       (-)       (-)       (-)
                0.0000   4.4162e-004  -5.7429e-005   6.5528e-003   8.4790e+006  -3.6986e+002   2.5884e+007    0.0252   -0.0000    0.0000    0.0000    0.2251
                0.0031   5.6965e-004  -7.4081e-005   6.5499e-003   1.0937e+007  -5.3360e+002   2.5872e+007    0.0325   -0.0000    0.0000    0.0000    0.2250
                0.0121   9.7107e-004  -1.2629e-004   6.5337e-003   1.8644e+007  -1.0123e+003   2.5808e+007    0.0553   -0.0000    0.0000    0.0000    0.2244
                0.0233   1.4957e-003  -1.9452e-004   6.4986e-003   2.8717e+007  -1.5780e+003   2.5669e+007    0.0852   -0.0000    0.0000    0.0000    0.2232
                0.0330   1.8638e-003  -2.4240e-004   6.4556e-003   3.5785e+007  -1.9683e+003   2.5500e+007    0.1062   -0.0000    0.0000    0.0000    0.2217
                0.0460   2.3012e-003  -2.9929e-004   6.3831e-003   4.4183e+007  -2.4898e+003   2.5213e+007    0.1311   -0.0000    0.0000    0.0000    0.2192
                0.0594   2.6757e-003  -3.4799e-004   6.2914e-003   5.1374e+007  -2.9234e+003   2.4851e+007    0.1524   -0.0000    0.0000    0.0000    0.2161
                0.0748   3.0345e-003  -3.9466e-004   6.1684e-003   5.8263e+007  -3.3688e+003   2.4365e+007    0.1729   -0.0000    0.0000    0.0000    0.2119
                0.0921   3.4336e-003  -4.4657e-004   6.0091e-003   6.5925e+007  -3.8558e+003   2.3736e+007    0.1956   -0.0000    0.0000    0.0000    0.2064
                0.1103   3.7400e-003  -4.8641e-004   5.8212e-003   7.1807e+007  -4.2303e+003   2.2994e+007    0.2131   -0.0000    0.0000    0.0000    0.1999
                0.1306   4.0715e-003  -5.2953e-004   5.5908e-003   7.8172e+007  -4.6484e+003   2.2084e+007    0.2320   -0.0000    0.0000    0.0000    0.1920
                0.1522   4.3795e-003  -5.6960e-004   5.3225e-003   8.4087e+007  -5.0317e+003   2.1024e+007    0.2495   -0.0000    0.0000    0.0000    0.1828
                0.1752   4.6444e-003  -6.0405e-004   5.0148e-003   8.9172e+007  -5.3658e+003   1.9809e+007    0.2646   -0.0000    0.0000    0.0000    0.1722
                0.1998   4.9279e-003  -6.4092e-004   4.6639e-003   9.4615e+007  -5.7227e+003   1.8422e+007    0.2808   -0.0000    0.0000    0.0000    0.1602
                0.2255   5.1385e-003  -6.6831e-004   4.2766e-003   9.8658e+007  -5.9868e+003   1.6893e+007    0.2928   -0.0000    0.0000    0.0000    0.1469
                0.2526   5.3411e-003  -6.9466e-004   3.8492e-003   1.0255e+008  -6.2443e+003   1.5204e+007    0.3043   -0.0000    0.0000    0.0000    0.1322
                0.2808   5.5303e-003  -7.1926e-004   3.3844e-003   1.0618e+008  -6.4846e+003   1.3369e+007    0.3151   -0.0000    0.0000    0.0000    0.1162
                0.2852   5.5495e-003  -7.2176e-004   3.3101e-003   1.0655e+008  -6.5052e+003   1.3075e+007    0.3162   -0.0000    0.0000    0.0000    0.1137

               lamina:  2     
              matName:  (LEP-core)
                     s           e11           e22           e12           s11           s22           s12   s11_fcT   s11_fcC   s22_fcT   s22_fcC   s12_fcS
                   (m)         (m/m)         (m/m)         (rad)          (Pa)          (Pa)          (Pa)       (-)       (-)       (-)       (-)       (-)
                0.0000   2.9311e-004  -3.8124e-005   6.5528e-003   6.6111e+004   1.3811e+004   6.4218e+005    0.0154   -0.0000    0.0032   -0.0000    0.2177
                0.0031   4.2114e-004  -5.4776e-005   6.5499e-003   9.4988e+004   1.9843e+004   6.4189e+005    0.0221   -0.0000    0.0046   -0.0000    0.2176
                0.0121   7.9616e-004  -1.0355e-004   6.5337e-003   1.7957e+005   3.7513e+004   6.4030e+005    0.0419   -0.0000    0.0087   -0.0000    0.2171
                0.0233   1.2405e-003  -1.6135e-004   6.4986e-003   2.7980e+005   5.8451e+004   6.3686e+005    0.0652   -0.0000    0.0136   -0.0000    0.2159
                0.0330   1.5474e-003  -2.0126e-004   6.4556e-003   3.4901e+005   7.2909e+004   6.3265e+005    0.0814   -0.0000    0.0170   -0.0000    0.2145
                0.0460   1.9559e-003  -2.5439e-004   6.3831e-003   4.4114e+005   9.2156e+004   6.2555e+005    0.1028   -0.0000    0.0215   -0.0000    0.2120
                0.0594   2.2958e-003  -2.9860e-004   6.2914e-003   5.1781e+005   1.0817e+005   6.1656e+005    0.1207   -0.0000    0.0252   -0.0000    0.2090
                0.0748   2.6443e-003  -3.4393e-004   6.1684e-003   5.9642e+005   1.2459e+005   6.0451e+005    0.1390   -0.0000    0.0290   -0.0000    0.2049
                0.0921   3.0255e-003  -3.9352e-004   6.0091e-003   6.8241e+005   1.4256e+005   5.8889e+005    0.1591   -0.0000    0.0332   -0.0000    0.1996
                0.1103   3.3188e-003  -4.3166e-004   5.8212e-003   7.4854e+005   1.5637e+005   5.7048e+005    0.1745   -0.0000    0.0365   -0.0000    0.1934
                0.1306   3.6458e-003  -4.7419e-004   5.5908e-003   8.2230e+005   1.7178e+005   5.4790e+005    0.1917   -0.0000    0.0400   -0.0000    0.1857
                0.1522   3.9457e-003  -5.1320e-004   5.3225e-003   8.8994e+005   1.8591e+005   5.2161e+005    0.2074   -0.0000    0.0433   -0.0000    0.1768
                0.1752   4.2069e-003  -5.4718e-004   5.0148e-003   9.4887e+005   1.9822e+005   4.9145e+005    0.2212   -0.0000    0.0462   -0.0000    0.1666
                0.1998   4.4862e-003  -5.8349e-004   4.6639e-003   1.0118e+006   2.1138e+005   4.5706e+005    0.2359   -0.0000    0.0493   -0.0000    0.1549
                0.2255   4.6927e-003  -6.1036e-004   4.2766e-003   1.0584e+006   2.2111e+005   4.1911e+005    0.2467   -0.0000    0.0515   -0.0000    0.1421
                0.2526   4.8941e-003  -6.3655e-004   3.8492e-003   1.1039e+006   2.3060e+005   3.7722e+005    0.2573   -0.0000    0.0538   -0.0000    0.1279
                0.2808   5.0820e-003  -6.6099e-004   3.3844e-003   1.1462e+006   2.3945e+005   3.3168e+005    0.2672   -0.0000    0.0558   -0.0000    0.1124
                0.2852   5.0982e-003  -6.6311e-004   3.3101e-003   1.1499e+006   2.4022e+005   3.2439e+005    0.2680   -0.0000    0.0560   -0.0000    0.1100

               lamina:  3     
              matName:  (blade-shell)
                     s           e11           e22           e12           s11           s22           s12   s11_fcT   s11_fcC   s22_fcT   s22_fcC   s12_fcS
                   (m)         (m/m)         (m/m)         (rad)          (Pa)          (Pa)          (Pa)       (-)       (-)       (-)       (-)       (-)
                0.0000   2.8505e-004  -3.7076e-005   6.5528e-003   5.4729e+006  -3.6972e+002   2.5884e+007    0.0162   -0.0000    0.0000    0.0000    0.2251
                0.0031   4.1308e-004  -5.3728e-005   6.5499e-003   7.9311e+006  -5.3347e+002   2.5872e+007    0.0235   -0.0000    0.0000    0.0000    0.2250
                0.0121   7.8666e-004  -1.0232e-004   6.5337e-003   1.5104e+007  -1.0122e+003   2.5808e+007    0.0448   -0.0000    0.0000    0.0000    0.2244
                0.0233   1.2267e-003  -1.5955e-004   6.4986e-003   2.3552e+007  -1.5777e+003   2.5669e+007    0.0699   -0.0000    0.0000    0.0000    0.2232
                0.0330   1.5302e-003  -1.9903e-004   6.4556e-003   2.9380e+007  -1.9681e+003   2.5500e+007    0.0872   -0.0000    0.0000    0.0000    0.2217
                0.0460   1.9371e-003  -2.5195e-004   6.3831e-003   3.7192e+007  -2.4895e+003   2.5213e+007    0.1104   -0.0000    0.0000    0.0000    0.2192
                0.0594   2.2752e-003  -2.9592e-004   6.2914e-003   4.3683e+007  -2.9230e+003   2.4851e+007    0.1296   -0.0000    0.0000    0.0000    0.2161
                0.0748   2.6231e-003  -3.4118e-004   6.1684e-003   5.0363e+007  -3.3684e+003   2.4365e+007    0.1494   -0.0000    0.0000    0.0000    0.2119
                0.0921   3.0034e-003  -3.9064e-004   6.0091e-003   5.7664e+007  -3.8554e+003   2.3736e+007    0.1711   -0.0000    0.0000    0.0000    0.2064
                0.1103   3.2959e-003  -4.2868e-004   5.8212e-003   6.3281e+007  -4.2300e+003   2.2994e+007    0.1878   -0.0000    0.0000    0.0000    0.1999
                0.1306   3.6227e-003  -4.7118e-004   5.5908e-003   6.9554e+007  -4.6480e+003   2.2084e+007    0.2064   -0.0000    0.0000    0.0000    0.1920
                0.1522   3.9221e-003  -5.1014e-004   5.3225e-003   7.5304e+007  -5.0313e+003   2.1024e+007    0.2235   -0.0000    0.0000    0.0000    0.1828
                0.1752   4.1832e-003  -5.4409e-004   5.0148e-003   8.0317e+007  -5.3654e+003   1.9809e+007    0.2383   -0.0000    0.0000    0.0000    0.1722
                0.1998   4.4622e-003  -5.8038e-004   4.6639e-003   8.5673e+007  -5.7223e+003   1.8422e+007    0.2542   -0.0000    0.0000    0.0000    0.1602
                0.2255   4.6685e-003  -6.0722e-004   4.2766e-003   8.9635e+007  -5.9864e+003   1.6893e+007    0.2660   -0.0000    0.0000    0.0000    0.1469
                0.2526   4.8698e-003  -6.3340e-004   3.8492e-003   9.3500e+007  -6.2438e+003   1.5204e+007    0.2774   -0.0000    0.0000    0.0000    0.1322
                0.2808   5.0577e-003  -6.5783e-004   3.3844e-003   9.7106e+007  -6.4841e+003   1.3369e+007    0.2881   -0.0000    0.0000    0.0000    0.1162
                0.2852   5.0737e-003  -6.5992e-004   3.3101e-003   9.7415e+007  -6.5048e+003   1.3075e+007    0.2891   -0.0000    0.0000    0.0000    0.1137

            panel:  2     
           lam_num    nPlies        tPly      fibAng     matID  matName
               (-)       (-)         (m)       (deg)       (-)  (-)
                 1         1    0.003530      0.0000         2  (blade-shell)
                 2         1    0.001662      0.0000         3  (spar-uni)
                 3         1    0.000047      0.0000         4  (spar-core)
                 4         1    0.001662      0.0000         3  (spar-uni)
                 5         1    0.003530      0.0000         2  (blade-shell)

               lamina:  1     
              matName:  (blade-shell)
                     s           e11           e22           e12           s11           s22           s12   s11_fcT   s11_fcC   s22_fcT   s22_fcC   s12_fcS
                   (m)         (m/m)         (m/m)         (rad)          (Pa)          (Pa)          (Pa)       (-)       (-)       (-)       (-)       (-)
                0.0000   6.5917e-003  -1.0109e-003   6.6726e-003   1.2617e+008  -3.0082e+006   2.6357e+007    0.3744   -0.0000    0.0000    0.0089    0.2292
                0.0247   6.6832e-003  -1.0256e-003   5.6090e-003   1.2792e+008  -3.0616e+006   2.2156e+007    0.3796   -0.0000    0.0000    0.0091    0.1927
                0.0548   6.7983e-003  -1.0439e-003   4.2798e-003   1.3012e+008  -3.1272e+006   1.6905e+007    0.3861   -0.0000    0.0000    0.0093    0.1470
                0.0858   6.8439e-003  -1.0511e-003   2.8959e-003   1.3099e+008  -3.1525e+006   1.1439e+007    0.3887   -0.0000    0.0000    0.0094    0.0995
                0.1176   6.8353e-003  -1.0497e-003   1.4644e-003   1.3083e+008  -3.1474e+006   5.7842e+006    0.3882   -0.0000    0.0000    0.0093    0.0503
                0.1500   6.8249e-003  -1.0481e-003   9.9988e-006   1.3063e+008  -3.1423e+006   3.9495e+004    0.3876   -0.0000    0.0000    0.0093    0.0003
                0.1831   6.6881e-003  -1.0264e-003   1.4577e-003   1.2801e+008  -3.0651e+006   5.7581e+006    0.3799   -0.0000    0.0000    0.0091    0.0501
                0.2168   6.5456e-003  -1.0037e-003   2.9136e-003   1.2529e+008  -2.9829e+006   1.1509e+007    0.3718   -0.0000    0.0000    0.0089    0.1001
                0.2455   6.3988e-003  -9.8024e-004   4.1168e-003   1.2248e+008  -2.8982e+006   1.6261e+007    0.3634   -0.0000    0.0000    0.0086    0.1414

               lamina:  2     
              matName:  (spar-uni)
                     s           e11           e22           e12           s11           s22           s12   s11_fcT   s11_fcC   s22_fcT   s22_fcC   s12_fcS
                   (m)         (m/m)         (m/m)         (rad)          (Pa)          (Pa)          (Pa)       (-)       (-)       (-)       (-)       (-)
                0.0000   5.5255e-003  -8.6956e-004   6.6726e-003   6.8180e+008   6.9601e+006   3.1428e+007    0.3445   -0.0000    0.1162   -0.0000    0.3051
                0.0247   5.6170e-003  -8.8419e-004   5.6090e-003   6.9309e+008   7.0735e+006   2.6418e+007    0.3502   -0.0000    0.1181   -0.0000    0.2565
                0.0548   5.7301e-003  -9.0224e-004   4.2798e-003   7.0704e+008   7.2138e+006   2.0158e+007    0.3573   -0.0000    0.1204   -0.0000    0.1957
                0.0858   5.7740e-003  -9.0924e-004   2.8959e-003   7.1246e+008   7.2684e+006   1.3639e+007    0.3600   -0.0000    0.1213   -0.0000    0.1324
                0.1176   5.7654e-003  -9.0785e-004   1.4644e-003   7.1139e+008   7.2577e+006   6.8972e+006    0.3595   -0.0000    0.1212   -0.0000    0.0670
                0.1500   5.7562e-003  -9.0640e-004   9.9988e-006   7.1026e+008   7.2461e+006   4.7095e+004    0.3589   -0.0000    0.1210   -0.0000    0.0005
                0.1831   5.6228e-003  -8.8512e-004   1.4577e-003   6.9380e+008   7.0805e+006   6.8659e+006    0.3506   -0.0000    0.1182   -0.0000    0.0667
                0.2168   5.4815e-003  -8.6254e-004   2.9136e-003   6.7636e+008   6.9053e+006   1.3723e+007    0.3418   -0.0000    0.1153   -0.0000    0.1332
                0.2455   5.3359e-003  -8.3928e-004   4.1168e-003   6.5840e+008   6.7248e+006   1.9390e+007    0.3327   -0.0000    0.1123   -0.0000    0.1883

               lamina:  3     
              matName:  (spar-core)
                     s           e11           e22           e12           s11           s22           s12   s11_fcT   s11_fcC   s22_fcT   s22_fcC   s12_fcS
                   (m)         (m/m)         (m/m)         (rad)          (Pa)          (Pa)          (Pa)       (-)       (-)       (-)       (-)       (-)
                0.0000   5.0235e-003  -8.0298e-004   6.6726e-003   1.1214e+006   2.0144e+005   6.5391e+005    0.2614   -0.0000    0.0470   -0.0000    0.2217
                0.0247   5.1150e-003  -8.1761e-004   5.6090e-003   1.1418e+006   2.0511e+005   5.4968e+005    0.2662   -0.0000    0.0478   -0.0000    0.1863
                0.0548   5.2271e-003  -8.3553e-004   4.2798e-003   1.1669e+006   2.0960e+005   4.1942e+005    0.2720   -0.0000    0.0489   -0.0000    0.1422
                0.0858   5.2703e-003  -8.4243e-004   2.8959e-003   1.1765e+006   2.1133e+005   2.8379e+005    0.2742   -0.0000    0.0493   -0.0000    0.0962
                0.1176   5.2616e-003  -8.4104e-004   1.4644e-003   1.1746e+006   2.1098e+005   1.4351e+005    0.2738   -0.0000    0.0492   -0.0000    0.0486
                0.1500   5.2530e-003  -8.3967e-004   9.9988e-006   1.1726e+006   2.1064e+005   9.7989e+002    0.2733   -0.0000    0.0491   -0.0000    0.0003
                0.1831   5.1212e-003  -8.1859e-004   1.4577e-003   1.1432e+006   2.0535e+005   1.4286e+005    0.2665   -0.0000    0.0479   -0.0000    0.0484
                0.2168   4.9804e-003  -7.9609e-004   2.9136e-003   1.1118e+006   1.9971e+005   2.8553e+005    0.2592   -0.0000    0.0466   -0.0000    0.0968
                0.2455   4.8355e-003  -7.7291e-004   4.1168e-003   1.0794e+006   1.9390e+005   4.0344e+005    0.2516   -0.0000    0.0452   -0.0000    0.1368

               lamina:  4     
              matName:  (spar-uni)
                     s           e11           e22           e12           s11           s22           s12   s11_fcT   s11_fcC   s22_fcT   s22_fcC   s12_fcS
                   (m)         (m/m)         (m/m)         (rad)          (Pa)          (Pa)          (Pa)       (-)       (-)       (-)       (-)       (-)
                0.0000   5.0094e-003  -8.0110e-004   6.6726e-003   6.1808e+008   6.2045e+006   3.1428e+007    0.3123   -0.0000    0.1036   -0.0000    0.3051
                0.0247   5.1009e-003  -8.1573e-004   5.6090e-003   6.2936e+008   6.3179e+006   2.6418e+007    0.3180   -0.0000    0.1055   -0.0000    0.2565
                0.0548   5.2129e-003  -8.3365e-004   4.2798e-003   6.4319e+008   6.4567e+006   2.0158e+007    0.3250   -0.0000    0.1078   -0.0000    0.1957
                0.0858   5.2560e-003  -8.4054e-004   2.8959e-003   6.4851e+008   6.5101e+006   1.3639e+007    0.3277   -0.0000    0.1087   -0.0000    0.1324
                0.1176   5.2474e-003  -8.3915e-004   1.4644e-003   6.4744e+008   6.4993e+006   6.8972e+006    0.3272   -0.0000    0.1085   -0.0000    0.0670
                0.1500   5.2388e-003  -8.3778e-004   9.9988e-006   6.4638e+008   6.4887e+006   4.7095e+004    0.3266   -0.0000    0.1083   -0.0000    0.0005
                0.1831   5.1070e-003  -8.1671e-004   1.4577e-003   6.3012e+008   6.3255e+006   6.8659e+006    0.3184   -0.0000    0.1056   -0.0000    0.0667
                0.2168   4.9663e-003  -7.9421e-004   2.9136e-003   6.1276e+008   6.1511e+006   1.3723e+007    0.3096   -0.0000    0.1027   -0.0000    0.1332
                0.2455   4.8213e-003  -7.7104e-004   4.1168e-003   5.9488e+008   5.9716e+006   1.9390e+007    0.3006   -0.0000    0.0997   -0.0000    0.1883

               lamina:  5     
              matName:  (blade-shell)
                     s           e11           e22           e12           s11           s22           s12   s11_fcT   s11_fcC   s22_fcT   s22_fcC   s12_fcS
                   (m)         (m/m)         (m/m)         (rad)          (Pa)          (Pa)          (Pa)       (-)       (-)       (-)       (-)       (-)
                0.0000   4.5074e-003  -7.3453e-004   6.6726e-003   8.6164e+007  -2.9016e+006   2.6357e+007    0.2557   -0.0000    0.0000    0.0086    0.2292
                0.0247   4.5989e-003  -7.4916e-004   5.6090e-003   8.7914e+007  -2.9550e+006   2.2156e+007    0.2609   -0.0000    0.0000    0.0088    0.1927
                0.0548   4.7100e-003  -7.6695e-004   4.2798e-003   9.0039e+007  -3.0204e+006   1.6905e+007    0.2672   -0.0000    0.0000    0.0090    0.1470
                0.0858   4.7523e-003  -7.7373e-004   2.8959e-003   9.0848e+007  -3.0455e+006   1.1439e+007    0.2696   -0.0000    0.0000    0.0090    0.0995
                0.1176   4.7436e-003  -7.7234e-004   1.4644e-003   9.0681e+007  -3.0404e+006   5.7842e+006    0.2691   -0.0000    0.0000    0.0090    0.0503
                0.1500   4.7356e-003  -7.7105e-004   9.9988e-006   9.0528e+007  -3.0355e+006   3.9495e+004    0.2686   -0.0000    0.0000    0.0090    0.0003
                0.1831   4.6054e-003  -7.5019e-004   1.4577e-003   8.8038e+007  -2.9586e+006   5.7581e+006    0.2612   -0.0000    0.0000    0.0088    0.0501
                0.2168   4.4652e-003  -7.2776e-004   2.9136e-003   8.5358e+007  -2.8765e+006   1.1509e+007    0.2533   -0.0000    0.0000    0.0085    0.1001
                0.2455   4.3209e-003  -7.0467e-004   4.1168e-003   8.2598e+007  -2.7920e+006   1.6261e+007    0.2451   -0.0000    0.0000    0.0083    0.1414

            panel:  3     
           lam_num    nPlies        tPly      fibAng     matID  matName
               (-)       (-)         (m)       (deg)       (-)  (-)
                 1         1    0.003530      0.0000         2  (blade-shell)
                 2         1    0.001737      0.0000         6  (TEP-core)
                 3         1    0.003530      0.0000         2  (blade-shell)

               lamina:  1     
              matName:  (blade-shell)
                     s           e11           e22           e12           s11           s22           s12   s11_fcT   s11_fcC   s22_fcT   s22_fcC   s12_fcS
                   (m)         (m/m)         (m/m)         (rad)          (Pa)          (Pa)          (Pa)       (-)       (-)       (-)       (-)       (-)
                0.0000   5.3308e-003  -6.9589e-004   1.5838e-003   1.0234e+008  -5.6402e+004   6.2561e+006    0.3037   -0.0000    0.0000    0.0002    0.0544
                0.0053   5.3019e-003  -6.9212e-004   1.4992e-003   1.0179e+008  -5.6095e+004   5.9218e+006    0.3020   -0.0000    0.0000    0.0002    0.0515
                0.0397   5.0621e-003  -6.6081e-004   9.5920e-004   9.7186e+007  -5.3327e+004   3.7888e+006    0.2884   -0.0000    0.0000    0.0002    0.0329
                0.0741   4.8220e-003  -6.2945e-004   4.4648e-004   9.2576e+007  -5.0562e+004   1.7636e+006    0.2747   -0.0000    0.0000    0.0002    0.0153
                0.1086   4.5423e-003  -5.9292e-004   3.7429e-005   8.7206e+007  -4.7347e+004   1.4785e+005    0.2588   -0.0000    0.0000    0.0001    0.0013
                0.1429   4.2469e-003  -5.5435e-004   4.8746e-004   8.1535e+007  -4.3939e+004   1.9255e+006    0.2419   -0.0000    0.0000    0.0001    0.0167
                0.1768   3.9538e-003  -5.1607e-004   8.9967e-004   7.5907e+007  -4.0558e+004   3.5537e+006    0.2252   -0.0000    0.0000    0.0001    0.0309
                0.2102   3.6437e-003  -4.7557e-004   1.2737e-003   6.9953e+007  -3.6981e+004   5.0313e+006    0.2076   -0.0000    0.0000    0.0001    0.0438
                0.2431   3.3403e-003  -4.3595e-004   1.6078e-003   6.4129e+007  -3.3472e+004   6.3509e+006    0.1903   -0.0000    0.0000    0.0001    0.0552
                0.2751   3.0491e-003  -3.9793e-004   1.9024e-003   5.8540e+007  -3.0102e+004   7.5146e+006    0.1737   -0.0000    0.0000    0.0001    0.0653
                0.3061   2.7726e-003  -3.6182e-004   2.1593e-003   5.3231e+007  -2.6903e+004   8.5293e+006    0.1580   -0.0000    0.0000    0.0001    0.0742
                0.3361   2.5060e-003  -3.2700e-004   2.3811e-003   4.8112e+007  -2.3809e+004   9.4055e+006    0.1428   -0.0000    0.0000    0.0001    0.0818
                0.3648   2.2790e-003  -2.9735e-004   2.5701e-003   4.3753e+007  -2.1170e+004   1.0152e+007    0.1298   -0.0000    0.0000    0.0001    0.0883
                0.3922   2.0692e-003  -2.6995e-004   2.7307e-003   3.9726e+007  -1.8739e+004   1.0786e+007    0.1179   -0.0000    0.0000    0.0001    0.0938
                0.4182   1.8785e-003  -2.4505e-004   2.8663e-003   3.6065e+007  -1.6516e+004   1.1322e+007    0.1070   -0.0000    0.0000    0.0000    0.0985
                0.4426   1.7390e-003  -2.2684e-004   2.9801e-003   3.3388e+007  -1.4890e+004   1.1771e+007    0.0991   -0.0000    0.0000    0.0000    0.1024
                0.4654   1.6084e-003  -2.0978e-004   3.0764e-003   3.0879e+007  -1.3370e+004   1.2152e+007    0.0916   -0.0000    0.0000    0.0000    0.1057
                0.4865   1.5149e-003  -1.9757e-004   3.1580e-003   2.9085e+007  -1.2274e+004   1.2474e+007    0.0863   -0.0000    0.0000    0.0000    0.1085
                0.5057   1.4522e-003  -1.8938e-004   3.2274e-003   2.7882e+007  -1.1543e+004   1.2748e+007    0.0827   -0.0000    0.0000    0.0000    0.1109
                0.5232   1.3957e-003  -1.8199e-004   3.2872e-003   2.6795e+007  -1.0880e+004   1.2985e+007    0.0795   -0.0000    0.0000    0.0000    0.1129
                0.5388   1.3859e-003  -1.8072e-004   3.3389e-003   2.6609e+007  -1.0763e+004   1.3189e+007    0.0790   -0.0000    0.0000    0.0000    0.1147
                0.5523   1.3817e-003  -1.8017e-004   3.3836e-003   2.6527e+007  -1.0713e+004   1.3365e+007    0.0787   -0.0000    0.0000    0.0000    0.1162
                0.5640   1.3875e-003  -1.8093e-004   3.4222e-003   2.6639e+007  -1.0785e+004   1.3518e+007    0.0790   -0.0000    0.0000    0.0000    0.1175
                0.5736   1.4165e-003  -1.8472e-004   3.4547e-003   2.7196e+007  -1.1129e+004   1.3646e+007    0.0807   -0.0000    0.0000    0.0000    0.1187
                0.5811   1.4390e-003  -1.8765e-004   3.4807e-003   2.7627e+007  -1.1399e+004   1.3749e+007    0.0820   -0.0000    0.0000    0.0000    0.1196
                0.5867   1.4678e-003  -1.9141e-004   3.5005e-003   2.8179e+007  -1.1764e+004   1.3827e+007    0.0836   -0.0000    0.0000    0.0000    0.1202
                0.5900   1.4909e-003  -1.9443e-004   3.5128e-003   2.8623e+007  -1.2053e+004   1.3876e+007    0.0849   -0.0000    0.0000    0.0000    0.1207
                0.5911   1.4990e-003  -1.9549e-004   3.5168e-003   2.8779e+007  -1.2146e+004   1.3891e+007    0.0854   -0.0000    0.0000    0.0000    0.1208

               lamina:  2     
              matName:  (TEP-core)
                     s           e11           e22           e12           s11           s22           s12   s11_fcT   s11_fcC   s22_fcT   s22_fcC   s12_fcS
                   (m)         (m/m)         (m/m)         (rad)          (Pa)          (Pa)          (Pa)       (-)       (-)       (-)       (-)       (-)
                0.0000   4.9562e-003  -6.4719e-004   1.5838e-003   1.1177e+006   2.3292e+005   1.5522e+005    0.2605   -0.0000    0.0543   -0.0000    0.0526
                0.0053   4.9293e-003  -6.4367e-004   1.4992e-003   1.1116e+006   2.3165e+005   1.4692e+005    0.2591   -0.0000    0.0540   -0.0000    0.0498
                0.0397   4.6898e-003  -6.1240e-004   9.5920e-004   1.0576e+006   2.2040e+005   9.4001e+004    0.2465   -0.0000    0.0514   -0.0000    0.0319
                0.0741   4.4505e-003  -5.8114e-004   4.4648e-004   1.0036e+006   2.0915e+005   4.3755e+004    0.2339   -0.0000    0.0488   -0.0000    0.0148
                0.1086   4.1720e-003  -5.4478e-004   3.7429e-005   9.4083e+005   1.9607e+005   3.6681e+003    0.2193   -0.0000    0.0457   -0.0000    0.0012
                0.1429   3.8772e-003  -5.0627e-004   4.8746e-004   8.7433e+005   1.8221e+005   4.7771e+004    0.2038   -0.0000    0.0425   -0.0000    0.0162
                0.1768   3.5846e-003  -4.6807e-004   8.9967e-004   8.0836e+005   1.6846e+005   8.8168e+004    0.1884   -0.0000    0.0393   -0.0000    0.0299
                0.2102   3.2750e-003  -4.2764e-004   1.2737e-003   7.3855e+005   1.5392e+005   1.2483e+005    0.1722   -0.0000    0.0359   -0.0000    0.0423
                0.2431   2.9715e-003  -3.8801e-004   1.6078e-003   6.7011e+005   1.3965e+005   1.5757e+005    0.1562   -0.0000    0.0326   -0.0000    0.0534
                0.2751   2.6801e-003  -3.4995e-004   1.9024e-003   6.0438e+005   1.2596e+005   1.8644e+005    0.1409   -0.0000    0.0294   -0.0000    0.0632
                0.3061   2.4034e-003  -3.1381e-004   2.1593e-003   5.4199e+005   1.1296e+005   2.1161e+005    0.1263   -0.0000    0.0263   -0.0000    0.0717
                0.3361   2.1360e-003  -2.7889e-004   2.3811e-003   4.8168e+005   1.0039e+005   2.3335e+005    0.1123   -0.0000    0.0234   -0.0000    0.0791
                0.3648   1.9079e-003  -2.4910e-004   2.5701e-003   4.3025e+005   8.9670e+004   2.5187e+005    0.1003   -0.0000    0.0209   -0.0000    0.0854
                0.3922   1.6977e-003  -2.2165e-004   2.7307e-003   3.8284e+005   7.9792e+004   2.6761e+005    0.0892   -0.0000    0.0186   -0.0000    0.0907
                0.4182   1.5057e-003  -1.9658e-004   2.8663e-003   3.3955e+005   7.0770e+004   2.8090e+005    0.0791   -0.0000    0.0165   -0.0000    0.0952
                0.4426   1.3652e-003  -1.7823e-004   2.9801e-003   3.0787e+005   6.4169e+004   2.9205e+005    0.0718   -0.0000    0.0150   -0.0000    0.0990
                0.4654   1.2339e-003  -1.6109e-004   3.0764e-003   2.7826e+005   5.7998e+004   3.0149e+005    0.0649   -0.0000    0.0135   -0.0000    0.1022
                0.4865   1.1394e-003  -1.4874e-004   3.1580e-003   2.5694e+005   5.3554e+004   3.0948e+005    0.0599   -0.0000    0.0125   -0.0000    0.1049
                0.5057   1.0762e-003  -1.4049e-004   3.2274e-003   2.4270e+005   5.0587e+004   3.1629e+005    0.0566   -0.0000    0.0118   -0.0000    0.1072
                0.5232   1.0190e-003  -1.3302e-004   3.2872e-003   2.2979e+005   4.7897e+004   3.2215e+005    0.0536   -0.0000    0.0112   -0.0000    0.1092
                0.5388   1.0089e-003  -1.3170e-004   3.3389e-003   2.2751e+005   4.7423e+004   3.2721e+005    0.0530   -0.0000    0.0111   -0.0000    0.1109
                0.5523   1.0046e-003  -1.3114e-004   3.3836e-003   2.2655e+005   4.7222e+004   3.3159e+005    0.0528   -0.0000    0.0110   -0.0000    0.1124
                0.5640   1.0107e-003  -1.3194e-004   3.4222e-003   2.2793e+005   4.7510e+004   3.3537e+005    0.0531   -0.0000    0.0111   -0.0000    0.1137
                0.5736   1.0404e-003  -1.3581e-004   3.4547e-003   2.3462e+005   4.8903e+004   3.3856e+005    0.0547   -0.0000    0.0114   -0.0000    0.1148
                0.5811   1.0636e-003  -1.3885e-004   3.4807e-003   2.3986e+005   4.9995e+004   3.4111e+005    0.0559   -0.0000    0.0117   -0.0000    0.1156
                0.5867   1.0947e-003  -1.4290e-004   3.5005e-003   2.4686e+005   5.1454e+004   3.4305e+005    0.0575   -0.0000    0.0120   -0.0000    0.1163
                0.5900   1.1193e-003  -1.4612e-004   3.5128e-003   2.5242e+005   5.2613e+004   3.4425e+005    0.0588   -0.0000    0.0123   -0.0000    0.1167
                0.5911   1.1274e-003  -1.4718e-004   3.5168e-003   2.5425e+005   5.2994e+004   3.4465e+005    0.0593   -0.0000    0.0124   -0.0000    0.1168

               lamina:  3     
              matName:  (blade-shell)
                     s           e11           e22           e12           s11           s22           s12   s11_fcT   s11_fcC   s22_fcT   s22_fcC   s12_fcS
                   (m)         (m/m)         (m/m)         (rad)          (Pa)          (Pa)          (Pa)       (-)       (-)       (-)       (-)       (-)
                0.0000   4.7719e-003  -6.2322e-004   1.5838e-003   9.1613e+007  -5.6197e+004   6.2561e+006    0.2718   -0.0000    0.0000    0.0002    0.0544
                0.0053   4.7459e-003  -6.1983e-004   1.4992e-003   9.1114e+007  -5.5891e+004   5.9218e+006    0.2704   -0.0000    0.0000    0.0002    0.0515
                0.0397   4.5066e-003  -5.8858e-004   9.5920e-004   8.6520e+007  -5.3124e+004   3.7888e+006    0.2567   -0.0000    0.0000    0.0002    0.0329
                0.0741   4.2677e-003  -5.5738e-004   4.4648e-004   8.1933e+007  -5.0360e+004   1.7636e+006    0.2431   -0.0000    0.0000    0.0001    0.0153
                0.1086   3.9899e-003  -5.2110e-004   3.7429e-005   7.6600e+007  -4.7145e+004   1.4785e+005    0.2273   -0.0000    0.0000    0.0001    0.0013
                0.1429   3.6952e-003  -4.8262e-004   4.8746e-004   7.0943e+007  -4.3737e+004   1.9255e+006    0.2105   -0.0000    0.0000    0.0001    0.0167
                0.1768   3.4029e-003  -4.4445e-004   8.9967e-004   6.5331e+007  -4.0357e+004   3.5537e+006    0.1939   -0.0000    0.0000    0.0001    0.0309
                0.2102   3.0937e-003  -4.0406e-004   1.2737e-003   5.9393e+007  -3.6780e+004   5.0313e+006    0.1762   -0.0000    0.0000    0.0001    0.0438
                0.2431   2.7901e-003  -3.6442e-004   1.6078e-003   5.3566e+007  -3.3271e+004   6.3509e+006    0.1589   -0.0000    0.0000    0.0001    0.0552
                0.2751   2.4985e-003  -3.2634e-004   1.9024e-003   4.7967e+007  -2.9900e+004   7.5146e+006    0.1423   -0.0000    0.0000    0.0001    0.0653
                0.3061   2.2217e-003  -2.9019e-004   2.1593e-003   4.2654e+007  -2.6701e+004   8.5293e+006    0.1266   -0.0000    0.0000    0.0001    0.0742
                0.3361   1.9539e-003  -2.5521e-004   2.3811e-003   3.7512e+007  -2.3607e+004   9.4055e+006    0.1113   -0.0000    0.0000    0.0001    0.0818
                0.3648   1.7253e-003  -2.2537e-004   2.5701e-003   3.3123e+007  -2.0968e+004   1.0152e+007    0.0983   -0.0000    0.0000    0.0001    0.0883
                0.3922   1.5149e-003  -1.9789e-004   2.7307e-003   2.9084e+007  -1.8536e+004   1.0786e+007    0.0863   -0.0000    0.0000    0.0001    0.0938
                0.4182   1.3223e-003  -1.7273e-004   2.8663e-003   2.5386e+007  -1.6313e+004   1.1322e+007    0.0753   -0.0000    0.0000    0.0000    0.0985
                0.4426   1.1813e-003  -1.5432e-004   2.9801e-003   2.2679e+007  -1.4686e+004   1.1771e+007    0.0673   -0.0000    0.0000    0.0000    0.1024
                0.4654   1.0497e-003  -1.3713e-004   3.0764e-003   2.0152e+007  -1.3166e+004   1.2152e+007    0.0598   -0.0000    0.0000    0.0000    0.1057
                0.4865   9.5456e-004  -1.2471e-004   3.1580e-003   1.8326e+007  -1.2070e+004   1.2474e+007    0.0544   -0.0000    0.0000    0.0000    0.1085
                0.5057   8.9120e-004  -1.1644e-004   3.2274e-003   1.7110e+007  -1.1338e+004   1.2748e+007    0.0508   -0.0000    0.0000    0.0000    0.1109
                0.5232   8.3364e-004  -1.0892e-004   3.2872e-003   1.6005e+007  -1.0675e+004   1.2985e+007    0.0475   -0.0000    0.0000    0.0000    0.1129
                0.5388   8.2336e-004  -1.0758e-004   3.3389e-003   1.5807e+007  -1.0557e+004   1.3189e+007    0.0469   -0.0000    0.0000    0.0000    0.1147
                0.5523   8.1907e-004  -1.0702e-004   3.3836e-003   1.5725e+007  -1.0507e+004   1.3365e+007    0.0467   -0.0000    0.0000    0.0000    0.1162
                0.5640   8.2534e-004  -1.0784e-004   3.4222e-003   1.5845e+007  -1.0579e+004   1.3518e+007    0.0470   -0.0000    0.0000    0.0000    0.1175
                0.5736   8.5530e-004  -1.1175e-004   3.4547e-003   1.6420e+007  -1.0924e+004   1.3646e+007    0.0487   -0.0000    0.0000    0.0000    0.1187
                0.5811   8.7892e-004  -1.1483e-004   3.4807e-003   1.6874e+007  -1.1195e+004   1.3749e+007    0.0501   -0.0000    0.0000    0.0000    0.1196
                0.5867   9.1110e-004  -1.1904e-004   3.5005e-003   1.7492e+007  -1.1560e+004   1.3827e+007    0.0519   -0.0000    0.0000    0.0000    0.1202
                0.5900   9.3653e-004  -1.2236e-004   3.5128e-003   1.7980e+007  -1.1850e+004   1.3876e+007    0.0534   -0.0000    0.0000    0.0000    0.1207
                0.5911   9.4462e-004  -1.2341e-004   3.5168e-003   1.8135e+007  -1.1944e+004   1.3891e+007    0.0538   -0.0000    0.0000    0.0000    0.1208

     Web:  panel  nNode   nLam     xc_St    xc_End         b         t         E_eff         G_eff      nu_eff     density  buckleCrit
            (-)    (-)    (-)       (-)       (-)       (m)       (m)          (Pa)          (Pa)         (-)    (kg/m^3)         (-)
              1     10      3    0.2364    0.2364    0.2297    0.0121   6.5707e+009   1.3870e+009      0.1347    691.8994      0.0511
              2     10      3    0.4636    0.4636    0.2164    0.0121   6.5707e+009   1.3870e+009      0.1347    691.8994      0.0484

            panel:  1     
           lam_num    nPlies        tPly      fibAng     matID  matName
               (-)       (-)         (m)       (deg)       (-)  (-)
                 1         1    0.002023      0.0000         7  (web-shell)
                 2         1    0.008047      0.0000         8  (web-core)
                 3         1    0.002023      0.0000         7  (web-shell)

               lamina:  1     
              matName:  (web-shell)
                     s           e11           e22           e12           s11           s22           s12   s11_fcT   s11_fcC   s22_fcT   s22_fcC   s12_fcS
                   (m)         (m/m)         (m/m)         (rad)          (Pa)          (Pa)          (Pa)       (-)       (-)       (-)       (-)       (-)
                0.0000  -5.1483e-003   6.9342e-004   1.1712e-002  -9.8785e+007   4.7157e+005   4.6261e+007    0.0000    0.1988    0.0014   -0.0000    0.4023
                0.0255  -4.0282e-003   5.4256e-004   1.2094e-002  -7.7293e+007   3.6905e+005   4.7772e+007    0.0000    0.1555    0.0011   -0.0000    0.4154
                0.0510  -2.9081e-003   3.9170e-004   1.2384e-002  -5.5800e+007   2.6654e+005   4.8917e+007    0.0000    0.1123    0.0008   -0.0000    0.4254
                0.0766  -1.7880e-003   2.4083e-004   1.2581e-002  -3.4308e+007   1.6402e+005   4.9696e+007    0.0000    0.0690    0.0005   -0.0000    0.4321
                0.1021  -6.6786e-004   8.9971e-005   1.2686e-002  -1.2815e+007   6.1504e+004   5.0109e+007    0.0000    0.0258    0.0002   -0.0000    0.4357
                0.1276   4.5489e-004  -6.1238e-005   1.2698e-002   8.7285e+006  -4.1063e+004   5.0156e+007    0.0259   -0.0000    0.0000    0.0001    0.4361
                0.1531   1.5750e-003  -2.1210e-004   1.2617e-002   3.0221e+007  -1.4358e+005   4.9836e+007    0.0897   -0.0000    0.0000    0.0004    0.4334
                0.1786   2.6951e-003  -3.6296e-004   1.2443e-002   5.1714e+007  -2.4609e+005   4.9151e+007    0.1535   -0.0000    0.0000    0.0007    0.4274
                0.2042   3.8152e-003  -5.1382e-004   1.2177e-002   7.3206e+007  -3.4861e+005   4.8099e+007    0.2172   -0.0000    0.0000    0.0010    0.4183
                0.2297   4.9353e-003  -6.6469e-004   1.1818e-002   9.4699e+007  -4.5113e+005   4.6681e+007    0.2810   -0.0000    0.0000    0.0013    0.4059

               lamina:  2     
              matName:  (web-core)
                     s           e11           e22           e12           s11           s22           s12   s11_fcT   s11_fcC   s22_fcT   s22_fcC   s12_fcS
                   (m)         (m/m)         (m/m)         (rad)          (Pa)          (Pa)          (Pa)       (-)       (-)       (-)       (-)       (-)
                0.0000  -5.1588e-003   6.9480e-004   1.1712e-002  -1.1617e+006  -2.3746e+005   1.1477e+006    0.0000    0.2708    0.0000    0.0554    0.3891
                0.0255  -4.0387e-003   5.4394e-004   1.2094e-002  -9.0948e+005  -1.8590e+005   1.1852e+006    0.0000    0.2120    0.0000    0.0433    0.4018
                0.0510  -2.9186e-003   3.9308e-004   1.2384e-002  -6.5724e+005  -1.3434e+005   1.2136e+006    0.0000    0.1532    0.0000    0.0313    0.4114
                0.0766  -1.7985e-003   2.4222e-004   1.2581e-002  -4.0501e+005  -8.2787e+004   1.2330e+006    0.0000    0.0944    0.0000    0.0193    0.4180
                0.1021  -6.7841e-004   9.1353e-005   1.2686e-002  -1.5277e+005  -3.1231e+004   1.2432e+006    0.0000    0.0356    0.0000    0.0073    0.4214
                0.1276   4.5224e-004  -6.0891e-005   1.2698e-002   1.0184e+005   2.0820e+004   1.2444e+006    0.0237   -0.0000    0.0049   -0.0000    0.4218
                0.1531   1.5723e-003  -2.1175e-004   1.2617e-002   3.5408e+005   7.2377e+004   1.2364e+006    0.0825   -0.0000    0.0169   -0.0000    0.4191
                0.1786   2.6924e-003  -3.6262e-004   1.2443e-002   6.0631e+005   1.2393e+005   1.2194e+006    0.1413   -0.0000    0.0289   -0.0000    0.4134
                0.2042   3.8125e-003  -5.1348e-004   1.2177e-002   8.5854e+005   1.7549e+005   1.1933e+006    0.2001   -0.0000    0.0409   -0.0000    0.4045
                0.2297   4.9326e-003  -6.6434e-004   1.1818e-002   1.1108e+006   2.2705e+005   1.1582e+006    0.2589   -0.0000    0.0529   -0.0000    0.3926

               lamina:  3     
              matName:  (web-shell)
                     s           e11           e22           e12           s11           s22           s12   s11_fcT   s11_fcC   s22_fcT   s22_fcC   s12_fcS
                   (m)         (m/m)         (m/m)         (rad)          (Pa)          (Pa)          (Pa)       (-)       (-)       (-)       (-)       (-)
                0.0000  -5.1615e-003   6.9515e-004   1.1712e-002  -9.9039e+007   4.7183e+005   4.6261e+007    0.0000    0.1993    0.0014   -0.0000    0.4023
                0.0255  -4.0414e-003   5.4429e-004   1.2094e-002  -7.7546e+007   3.6931e+005   4.7772e+007    0.0000    0.1560    0.0011   -0.0000    0.4154
                0.0510  -2.9213e-003   3.9342e-004   1.2384e-002  -5.6054e+007   2.6679e+005   4.8917e+007    0.0000    0.1128    0.0008   -0.0000    0.4254
                0.0766  -1.8012e-003   2.4256e-004   1.2581e-002  -3.4561e+007   1.6428e+005   4.9696e+007    0.0000    0.0695    0.0005   -0.0000    0.4321
                0.1021  -6.8106e-004   9.1700e-005   1.2686e-002  -1.3068e+007   6.1763e+004   5.0109e+007    0.0000    0.0263    0.0002   -0.0000    0.4357
                0.1276   4.4169e-004  -5.9509e-005   1.2698e-002   8.4752e+006  -4.0805e+004   5.0156e+007    0.0251   -0.0000    0.0000    0.0001    0.4361
                0.1531   1.5618e-003  -2.1037e-004   1.2617e-002   2.9968e+007  -1.4332e+005   4.9836e+007    0.0889   -0.0000    0.0000    0.0004    0.4334
                0.1786   2.6819e-003  -3.6123e-004   1.2443e-002   5.1460e+007  -2.4584e+005   4.9151e+007    0.1527   -0.0000    0.0000    0.0007    0.4274
                0.2042   3.8020e-003  -5.1210e-004   1.2177e-002   7.2953e+007  -3.4835e+005   4.8099e+007    0.2165   -0.0000    0.0000    0.0010    0.4183
                0.2297   4.9221e-003  -6.6296e-004   1.1818e-002   9.4446e+007  -4.5087e+005   4.6681e+007    0.2803   -0.0000    0.0000    0.0013    0.4059

            panel:  2     
           lam_num    nPlies        tPly      fibAng     matID  matName
               (-)       (-)         (m)       (deg)       (-)  (-)
                 1         1    0.002023      0.0000         7  (web-shell)
                 2         1    0.008047      0.0000         8  (web-core)
                 3         1    0.002023      0.0000         7  (web-shell)

               lamina:  1     
              matName:  (web-shell)
                     s           e11           e22           e12           s11           s22           s12   s11_fcT   s11_fcC   s22_fcT   s22_fcC   s12_fcS
                   (m)         (m/m)         (m/m)         (rad)          (Pa)          (Pa)          (Pa)       (-)       (-)       (-)       (-)       (-)
                0.0000  -4.8914e-003   6.5882e-004   1.3239e-002  -9.3857e+007   4.4804e+005   5.2292e+007    0.0000    0.1888    0.0013   -0.0000    0.4547
                0.0240  -3.8361e-003   5.1669e-004   1.3579e-002  -7.3608e+007   3.5146e+005   5.3636e+007    0.0000    0.1481    0.0010   -0.0000    0.4664
                0.0481  -2.7809e-003   3.7456e-004   1.3837e-002  -5.3359e+007   2.5488e+005   5.4655e+007    0.0000    0.1074    0.0008   -0.0000    0.4753
                0.0721  -1.7256e-003   2.3243e-004   1.4012e-002  -3.3111e+007   1.5830e+005   5.5349e+007    0.0000    0.0666    0.0005   -0.0000    0.4813
                0.0962  -6.7033e-004   9.0303e-005   1.4106e-002  -1.2862e+007   6.1716e+004   5.5718e+007    0.0000    0.0259    0.0002   -0.0000    0.4845
                0.1202   3.8749e-004  -5.2162e-005   1.4117e-002   7.4353e+006  -3.4916e+004   5.5762e+007    0.0221   -0.0000    0.0000    0.0001    0.4849
                0.1442   1.4428e-003  -1.9429e-004   1.4046e-002   2.7684e+007  -1.3150e+005   5.5481e+007    0.0821   -0.0000    0.0000    0.0004    0.4824
                0.1683   2.4980e-003  -3.3642e-004   1.3892e-002   4.7932e+007  -2.2808e+005   5.4875e+007    0.1422   -0.0000    0.0000    0.0007    0.4772
                0.1923   3.5533e-003  -4.7855e-004   1.3657e-002   6.8181e+007  -3.2466e+005   5.3944e+007    0.2023   -0.0000    0.0000    0.0010    0.4691
                0.2164   4.6086e-003  -6.2068e-004   1.3339e-002   8.8430e+007  -4.2124e+005   5.2688e+007    0.2624   -0.0000    0.0000    0.0012    0.4582

               lamina:  2     
              matName:  (web-core)
                     s           e11           e22           e12           s11           s22           s12   s11_fcT   s11_fcC   s22_fcT   s22_fcC   s12_fcS
                   (m)         (m/m)         (m/m)         (rad)          (Pa)          (Pa)          (Pa)       (-)       (-)       (-)       (-)       (-)
                0.0000  -4.9016e-003   6.6015e-004   1.3239e-002  -1.1038e+006  -2.2561e+005   1.2974e+006    0.0000    0.2573    0.0000    0.0526    0.4398
                0.0240  -3.8463e-003   5.1802e-004   1.3579e-002  -8.6614e+005  -1.7704e+005   1.3307e+006    0.0000    0.2019    0.0000    0.0413    0.4511
                0.0481  -2.7910e-003   3.7589e-004   1.3837e-002  -6.2851e+005  -1.2847e+005   1.3560e+006    0.0000    0.1465    0.0000    0.0299    0.4597
                0.0721  -1.7358e-003   2.3376e-004   1.4012e-002  -3.9087e+005  -7.9898e+004   1.3732e+006    0.0000    0.0911    0.0000    0.0186    0.4655
                0.0962  -6.8048e-004   9.1633e-005   1.4106e-002  -1.5324e+005  -3.1326e+004   1.3824e+006    0.0000    0.0357    0.0000    0.0073    0.4686
                0.1202   3.8494e-004  -5.1827e-005   1.4117e-002   8.6685e+004   1.7722e+004   1.3835e+006    0.0202   -0.0000    0.0041   -0.0000    0.4690
                0.1442   1.4402e-003  -1.9396e-004   1.4046e-002   3.2432e+005   6.6295e+004   1.3765e+006    0.0756   -0.0000    0.0155   -0.0000    0.4666
                0.1683   2.4955e-003  -3.3609e-004   1.3892e-002   5.6196e+005   1.1487e+005   1.3615e+006    0.1310   -0.0000    0.0268   -0.0000    0.4615
                0.1923   3.5507e-003  -4.7822e-004   1.3657e-002   7.9959e+005   1.6344e+005   1.3384e+006    0.1864   -0.0000    0.0381   -0.0000    0.4537
                0.2164   4.6060e-003  -6.2035e-004   1.3339e-002   1.0372e+006   2.1201e+005   1.3072e+006    0.2418   -0.0000    0.0494   -0.0000    0.4431

               lamina:  3     
              matName:  (web-shell)
                     s           e11           e22           e12           s11           s22           s12   s11_fcT   s11_fcC   s22_fcT   s22_fcC   s12_fcS
                   (m)         (m/m)         (m/m)         (rad)          (Pa)          (Pa)          (Pa)       (-)       (-)       (-)       (-)       (-)
                0.0000  -4.9041e-003   6.6049e-004   1.3239e-002  -9.4101e+007   4.4829e+005   5.2292e+007    0.0000    0.1893    0.0013   -0.0000    0.4547
                0.0240  -3.8488e-003   5.1836e-004   1.3579e-002  -7.3852e+007   3.5171e+005   5.3636e+007    0.0000    0.1486    0.0010   -0.0000    0.4664
                0.0481  -2.7936e-003   3.7623e-004   1.3837e-002  -5.3603e+007   2.5513e+005   5.4655e+007    0.0000    0.1079    0.0008   -0.0000    0.4753
                0.0721  -1.7383e-003   2.3410e-004   1.4012e-002  -3.3355e+007   1.5855e+005   5.5349e+007    0.0000    0.0671    0.0005   -0.0000    0.4813
                0.0962  -6.8304e-004   9.1968e-005   1.4106e-002  -1.3106e+007   6.1965e+004   5.5718e+007    0.0000    0.0264    0.0002   -0.0000    0.4845
                0.1202   3.7478e-004  -5.0497e-005   1.4117e-002   7.1913e+006  -3.4667e+004   5.5762e+007    0.0213   -0.0000    0.0000    0.0001    0.4849
                0.1442   1.4301e-003  -1.9263e-004   1.4046e-002   2.7440e+007  -1.3125e+005   5.5481e+007    0.0814   -0.0000    0.0000    0.0004    0.4824
                0.1683   2.4853e-003  -3.3476e-004   1.3892e-002   4.7688e+007  -2.2783e+005   5.4875e+007    0.1415   -0.0000    0.0000    0.0007    0.4772
                0.1923   3.5406e-003  -4.7689e-004   1.3657e-002   6.7937e+007  -3.2441e+005   5.3944e+007    0.2016   -0.0000    0.0000    0.0010    0.4691
                0.2164   4.5959e-003  -6.1902e-004   1.3339e-002   8.8186e+007  -4.2099e+005   5.2688e+007    0.2617   -0.0000    0.0000    0.0012    0.4582

================================================================================
sec        =  22     
zSec       =  6.3000  (m)
nPanelsTop =  3      
nPanelsBot =  3      
nWebs      =  2      

    Top:  panel  nNode   nLam     xc_St    xc_End         b         t         E_eff         G_eff      nu_eff     density  buckleCrit
            (-)    (-)    (-)       (-)       (-)       (m)       (m)          (Pa)          (Pa)         (-)    (kg/m^3)         (-)
              1     18      3    0.0000    0.2356    0.2852    0.0069   1.8689e+010   3.8463e+009      0.1301   1630.4239      0.2800
              2      9      5    0.2356    0.4644    0.2366    0.0097   5.0695e+010   4.1621e+009      0.1582   1602.1575      0.4882
              3     28      3    0.4644    1.0000    0.5700    0.0082   1.5632e+010   3.2259e+009      0.1306   1393.6869      0.9056

            panel:  1     
           lam_num    nPlies        tPly      fibAng     matID  matName
               (-)       (-)         (m)       (deg)       (-)  (-)
                 1         1    0.003349      0.0000         2  (blade-shell)
                 2         1    0.000185      0.0000         5  (LEP-core)
                 3         1    0.003349      0.0000         2  (blade-shell)

               lamina:  1     
              matName:  (blade-shell)
                     s           e11           e22           e12           s11           s22           s12   s11_fcT   s11_fcC   s22_fcT   s22_fcC   s12_fcS
                   (m)         (m/m)         (m/m)         (rad)          (Pa)          (Pa)          (Pa)       (-)       (-)       (-)       (-)       (-)
                0.0000   3.7845e-004  -4.9224e-005   6.3653e-003   7.2662e+006  -4.9843e+002   2.5143e+007    0.0216   -0.0000    0.0000    0.0000    0.2186
                0.0033   2.4277e-004  -3.1576e-005   6.3684e-003   4.6611e+006  -3.2155e+002   2.5155e+007    0.0138   -0.0000    0.0000    0.0000    0.2187
                0.0129  -3.1994e-004   4.1603e-005   6.3680e-003  -6.1429e+006   1.9826e+002   2.5154e+007    0.0000    0.0124    0.0000   -0.0000    0.2187
                0.0248  -8.6670e-004   1.1271e-004   6.3482e-003  -1.6641e+007   8.1847e+002   2.5076e+007    0.0000    0.0335    0.0000   -0.0000    0.2180
                0.0351  -1.2552e-003   1.6324e-004   6.3159e-003  -2.4099e+007   1.2514e+003   2.4948e+007    0.0000    0.0485    0.0000   -0.0000    0.2169
                0.0486  -1.7213e-003   2.2386e-004   6.2538e-003  -3.3049e+007   1.8259e+003   2.4703e+007    0.0000    0.0665    0.0000   -0.0000    0.2148
                0.0626  -2.1364e-003   2.7785e-004   6.1684e-003  -4.1018e+007   2.3258e+003   2.4365e+007    0.0000    0.0825    0.0000   -0.0000    0.2119
                0.0785  -2.5473e-003   3.3130e-004   6.0484e-003  -4.8908e+007   2.8484e+003   2.3891e+007    0.0000    0.0984    0.0000   -0.0000    0.2077
                0.0962  -3.0059e-003   3.9094e-004   5.8863e-003  -5.7712e+007   3.4200e+003   2.3251e+007    0.0000    0.1161    0.0000   -0.0000    0.2022
                0.1145  -3.3640e-003   4.3751e-004   5.6938e-003  -6.4588e+007   3.8667e+003   2.2490e+007    0.0000    0.1300    0.0000   -0.0000    0.1956
                0.1348  -3.7518e-003   4.8796e-004   5.4521e-003  -7.2035e+007   4.3651e+003   2.1536e+007    0.0000    0.1449    0.0000   -0.0000    0.1873
                0.1562  -4.1151e-003   5.3521e-004   5.1677e-003  -7.9010e+007   4.8253e+003   2.0413e+007    0.0000    0.1590    0.0000   -0.0000    0.1775
                0.1789  -4.4310e-003   5.7630e-004   4.8395e-003  -8.5075e+007   5.2311e+003   1.9116e+007    0.0000    0.1712    0.0000   -0.0000    0.1662
                0.2031  -4.7694e-003   6.2032e-004   4.4603e-003  -9.1572e+007   5.6645e+003   1.7618e+007    0.0000    0.1842    0.0000   -0.0000    0.1532
                0.2280  -5.0222e-003   6.5319e-004   4.0427e-003  -9.6425e+007   5.9865e+003   1.5969e+007    0.0000    0.1940    0.0000   -0.0000    0.1389
                0.2543  -5.2653e-003   6.8481e-004   3.5789e-003  -1.0109e+008   6.3011e+003   1.4137e+007    0.0000    0.2034    0.0000   -0.0000    0.1229
                0.2818  -5.4934e-003   7.1448e-004   3.0722e-003  -1.0547e+008   6.5964e+003   1.2135e+007    0.0000    0.2122    0.0000   -0.0000    0.1055
                0.2852  -5.5140e-003   7.1716e-004   3.0075e-003  -1.0587e+008   6.6174e+003   1.1880e+007    0.0000    0.2130    0.0000   -0.0000    0.1033

               lamina:  2     
              matName:  (LEP-core)
                     s           e11           e22           e12           s11           s22           s12   s11_fcT   s11_fcC   s22_fcT   s22_fcC   s12_fcS
                   (m)         (m/m)         (m/m)         (rad)          (Pa)          (Pa)          (Pa)       (-)       (-)       (-)       (-)       (-)
                0.0000   3.8626e-004  -5.0239e-005   6.3653e-003   8.7120e+004   1.8199e+004   6.2380e+005    0.0203   -0.0000    0.0042   -0.0000    0.2115
                0.0033   2.5057e-004  -3.2591e-005   6.3684e-003   5.6516e+004   1.1806e+004   6.2410e+005    0.0132   -0.0000    0.0028   -0.0000    0.2116
                0.0129  -1.5649e-004   2.0354e-005   6.3680e-003  -3.5296e+004  -7.3735e+003   6.2407e+005    0.0000    0.0082    0.0000    0.0017    0.2115
                0.0248  -6.3412e-004   8.2477e-005   6.3482e-003  -1.4302e+005  -2.9878e+004   6.2213e+005    0.0000    0.0333    0.0000    0.0070    0.2109
                0.0351  -9.6770e-004   1.2586e-004   6.3159e-003  -2.1826e+005  -4.5595e+004   6.1896e+005    0.0000    0.0509    0.0000    0.0106    0.2098
                0.0486  -1.4091e-003   1.8327e-004   6.2538e-003  -3.1781e+005  -6.6391e+004   6.1287e+005    0.0000    0.0741    0.0000    0.0155    0.2078
                0.0626  -1.7934e-003   2.3326e-004   6.1684e-003  -4.0450e+005  -8.4499e+004   6.0451e+005    0.0000    0.0943    0.0000    0.0197    0.2049
                0.0785  -2.1945e-003   2.8544e-004   6.0484e-003  -4.9497e+005  -1.0340e+005   5.9274e+005    0.0000    0.1154    0.0000    0.0241    0.2009
                0.0962  -2.6335e-003   3.4253e-004   5.8863e-003  -5.9399e+005  -1.2408e+005   5.7685e+005    0.0000    0.1385    0.0000    0.0289    0.1955
                0.1145  -2.9766e-003   3.8716e-004   5.6938e-003  -6.7137e+005  -1.4025e+005   5.5799e+005    0.0000    0.1565    0.0000    0.0327    0.1891
                0.1348  -3.3591e-003   4.3690e-004   5.4521e-003  -7.5764e+005  -1.5827e+005   5.3430e+005    0.0000    0.1766    0.0000    0.0369    0.1811
                0.1562  -3.7124e-003   4.8286e-004   5.1677e-003  -8.3732e+005  -1.7492e+005   5.0644e+005    0.0000    0.1952    0.0000    0.0408    0.1717
                0.1789  -4.0237e-003   5.2335e-004   4.8395e-003  -9.0755e+005  -1.8959e+005   4.7427e+005    0.0000    0.2115    0.0000    0.0442    0.1608
                0.2031  -4.3564e-003   5.6662e-004   4.4603e-003  -9.8257e+005  -2.0526e+005   4.3711e+005    0.0000    0.2290    0.0000    0.0478    0.1482
                0.2280  -4.6036e-003   5.9877e-004   4.0427e-003  -1.0383e+006  -2.1691e+005   3.9618e+005    0.0000    0.2420    0.0000    0.0506    0.1343
                0.2543  -4.8450e-003   6.3017e-004   3.5789e-003  -1.0928e+006  -2.2828e+005   3.5073e+005    0.0000    0.2547    0.0000    0.0532    0.1189
                0.2818  -5.0715e-003   6.5963e-004   3.0722e-003  -1.1439e+006  -2.3895e+005   3.0107e+005    0.0000    0.2666    0.0000    0.0557    0.1021
                0.2852  -5.0877e-003   6.6174e-004   3.0075e-003  -1.1475e+006  -2.3972e+005   2.9473e+005    0.0000    0.2675    0.0000    0.0559    0.0999

               lamina:  3     
              matName:  (blade-shell)
                     s           e11           e22           e12           s11           s22           s12   s11_fcT   s11_fcC   s22_fcT   s22_fcC   s12_fcS
                   (m)         (m/m)         (m/m)         (rad)          (Pa)          (Pa)          (Pa)       (-)       (-)       (-)       (-)       (-)
                0.0000   5.2730e-004  -6.8575e-005   6.3653e-003   1.0124e+007  -4.9857e+002   2.5143e+007    0.0300   -0.0000    0.0000    0.0000    0.2186
                0.0033   3.9162e-004  -5.0927e-005   6.3684e-003   7.5191e+006  -3.2169e+002   2.5155e+007    0.0223   -0.0000    0.0000    0.0000    0.2187
                0.0129  -1.4745e-004   1.9178e-005   6.3680e-003  -2.8309e+006   1.9810e+002   2.5154e+007    0.0000    0.0057    0.0000   -0.0000    0.2187
                0.0248  -6.2125e-004   8.0804e-005   6.3482e-003  -1.1928e+007   8.1825e+002   2.5076e+007    0.0000    0.0240    0.0000   -0.0000    0.2180
                0.0351  -9.5179e-004   1.2380e-004   6.3159e-003  -1.8274e+007   1.2511e+003   2.4948e+007    0.0000    0.0368    0.0000   -0.0000    0.2169
                0.0486  -1.3918e-003   1.8102e-004   6.2538e-003  -2.6722e+007   1.8256e+003   2.4703e+007    0.0000    0.0538    0.0000   -0.0000    0.2148
                0.0626  -1.7744e-003   2.3079e-004   6.1684e-003  -3.4068e+007   2.3255e+003   2.4365e+007    0.0000    0.0685    0.0000   -0.0000    0.2119
                0.0785  -2.1750e-003   2.8290e-004   6.0484e-003  -4.1760e+007   2.8481e+003   2.3891e+007    0.0000    0.0840    0.0000   -0.0000    0.2077
                0.0962  -2.6129e-003   3.3986e-004   5.8863e-003  -5.0168e+007   3.4196e+003   2.3251e+007    0.0000    0.1009    0.0000   -0.0000    0.2022
                0.1145  -2.9552e-003   3.8437e-004   5.6938e-003  -5.6739e+007   3.8663e+003   2.2490e+007    0.0000    0.1142    0.0000   -0.0000    0.1956
                0.1348  -3.3373e-003   4.3408e-004   5.4521e-003  -6.4076e+007   4.3647e+003   2.1536e+007    0.0000    0.1289    0.0000   -0.0000    0.1873
                0.1562  -3.6901e-003   4.7996e-004   5.1677e-003  -7.0849e+007   4.8249e+003   2.0413e+007    0.0000    0.1426    0.0000   -0.0000    0.1775
                0.1789  -4.0012e-003   5.2042e-004   4.8395e-003  -7.6822e+007   5.2307e+003   1.9116e+007    0.0000    0.1546    0.0000   -0.0000    0.1662
                0.2031  -4.3335e-003   5.6365e-004   4.4603e-003  -8.3203e+007   5.6641e+003   1.7618e+007    0.0000    0.1674    0.0000   -0.0000    0.1532
                0.2280  -4.5804e-003   5.9576e-004   4.0427e-003  -8.7943e+007   5.9861e+003   1.5969e+007    0.0000    0.1769    0.0000   -0.0000    0.1389
                0.2543  -4.8217e-003   6.2714e-004   3.5789e-003  -9.2576e+007   6.3007e+003   1.4137e+007    0.0000    0.1863    0.0000   -0.0000    0.1229
                0.2818  -5.0481e-003   6.5659e-004   3.0722e-003  -9.6923e+007   6.5960e+003   1.2135e+007    0.0000    0.1950    0.0000   -0.0000    0.1055
                0.2852  -5.0641e-003   6.5867e-004   3.0075e-003  -9.7230e+007   6.6170e+003   1.1880e+007    0.0000    0.1956    0.0000   -0.0000    0.1033

            panel:  2     
           lam_num    nPlies        tPly      fibAng     matID  matName
               (-)       (-)         (m)       (deg)       (-)  (-)
                 1         1    0.003349      0.0000         2  (blade-shell)
                 2         1    0.001471      0.0000         3  (spar-uni)
                 3         1    0.000047      0.0000         4  (spar-core)
                 4         1    0.001471      0.0000         3  (spar-uni)
                 5         1    0.003349      0.0000         2  (blade-shell)

               lamina:  1     
              matName:  (blade-shell)
                     s           e11           e22           e12           s11           s22           s12   s11_fcT   s11_fcC   s22_fcT   s22_fcC   s12_fcS
                   (m)         (m/m)         (m/m)         (rad)          (Pa)          (Pa)          (Pa)       (-)       (-)       (-)       (-)       (-)
                0.0000  -6.4574e-003   9.8407e-004   6.6099e-003  -1.2361e+008   2.8243e+006   2.6109e+007    0.0000    0.2487    0.0084   -0.0000    0.2270
                0.0246  -6.5758e-003   1.0028e-003   5.4438e-003  -1.2588e+008   2.8895e+006   2.1503e+007    0.0000    0.2533    0.0086   -0.0000    0.1870
                0.0536  -6.7203e-003   1.0255e-003   4.0301e-003  -1.2864e+008   2.9668e+006   1.5919e+007    0.0000    0.2588    0.0088   -0.0000    0.1384
                0.0832  -6.7856e-003   1.0358e-003   2.5611e-003  -1.2989e+008   3.0007e+006   1.0116e+007    0.0000    0.2614    0.0089   -0.0000    0.0880
                0.1137  -6.7882e-003   1.0362e-003   1.0422e-003  -1.2994e+008   3.0020e+006   4.1169e+006    0.0000    0.2615    0.0089   -0.0000    0.0358
                0.1447  -6.7891e-003   1.0364e-003   5.0109e-004  -1.2996e+008   3.0033e+006   1.9793e+006    0.0000    0.2615    0.0089   -0.0000    0.0172
                0.1763  -6.6498e-003   1.0145e-003   2.0534e-003  -1.2730e+008   2.9294e+006   8.1109e+006    0.0000    0.2561    0.0087   -0.0000    0.0705
                0.2084  -6.5041e-003   9.9147e-004   3.5913e-003  -1.2451e+008   2.8503e+006   1.4186e+007    0.0000    0.2505    0.0085   -0.0000    0.1234
                0.2366  -6.3450e-003   9.6638e-004   4.8961e-003  -1.2147e+008   2.7640e+006   1.9339e+007    0.0000    0.2444    0.0082   -0.0000    0.1682

               lamina:  2     
              matName:  (spar-uni)
                     s           e11           e22           e12           s11           s22           s12   s11_fcT   s11_fcC   s22_fcT   s22_fcC   s12_fcS
                   (m)         (m/m)         (m/m)         (rad)          (Pa)          (Pa)          (Pa)       (-)       (-)       (-)       (-)       (-)
                0.0000  -5.4598e-003   8.5213e-004   6.6099e-003  -6.7371e+008  -6.9359e+006   3.1133e+007    0.0000    0.6737    0.0000    0.1158    0.3023
                0.0246  -5.5782e-003   8.7085e-004   5.4438e-003  -6.8831e+008  -7.0842e+006   2.5640e+007    0.0000    0.6883    0.0000    0.1183    0.2489
                0.0536  -5.7197e-003   8.9320e-004   4.0301e-003  -7.0577e+008  -7.2618e+006   1.8982e+007    0.0000    0.7058    0.0000    0.1212    0.1843
                0.0832  -5.7822e-003   9.0306e-004   2.5611e-003  -7.1349e+008  -7.3404e+006   1.2063e+007    0.0000    0.7135    0.0000    0.1225    0.1171
                0.1137  -5.7846e-003   9.0342e-004   1.0422e-003  -7.1378e+008  -7.3434e+006   4.9090e+006    0.0000    0.7138    0.0000    0.1226    0.0477
                0.1447  -5.7866e-003   9.0376e-004   5.0109e-004  -7.1403e+008  -7.3458e+006   2.3602e+006    0.0000    0.7140    0.0000    0.1226    0.0229
                0.1763  -5.6511e-003   8.8238e-004   2.0534e-003  -6.9732e+008  -7.1757e+006   9.6715e+006    0.0000    0.6973    0.0000    0.1198    0.0939
                0.2084  -5.5069e-003   8.5958e-004   3.5913e-003  -6.7952e+008  -6.9949e+006   1.6915e+007    0.0000    0.6795    0.0000    0.1168    0.1642
                0.2366  -5.3495e-003   8.3470e-004   4.8961e-003  -6.6010e+008  -6.7975e+006   2.3060e+007    0.0000    0.6601    0.0000    0.1135    0.2239

               lamina:  3     
              matName:  (spar-core)
                     s           e11           e22           e12           s11           s22           s12   s11_fcT   s11_fcC   s22_fcT   s22_fcC   s12_fcS
                   (m)         (m/m)         (m/m)         (rad)          (Pa)          (Pa)          (Pa)       (-)       (-)       (-)       (-)       (-)
                0.0000  -5.0218e-003   7.9419e-004   6.6099e-003  -1.1217e+006  -2.0338e+005   6.4777e+005    0.0000    0.2615    0.0000    0.0474    0.2196
                0.0246  -5.1402e-003   8.1291e-004   5.4438e-003  -1.1481e+006  -2.0817e+005   5.3350e+005    0.0000    0.2676    0.0000    0.0485    0.1808
                0.0536  -5.2804e-003   8.3509e-004   4.0301e-003  -1.1794e+006  -2.1385e+005   3.9495e+005    0.0000    0.2749    0.0000    0.0498    0.1339
                0.0832  -5.3417e-003   8.4478e-004   2.5611e-003  -1.1931e+006  -2.1633e+005   2.5099e+005    0.0000    0.2781    0.0000    0.0504    0.0851
                0.1137  -5.3439e-003   8.4513e-004   1.0422e-003  -1.1936e+006  -2.1642e+005   1.0214e+005    0.0000    0.2782    0.0000    0.0504    0.0346
                0.1447  -5.3465e-003   8.4554e-004   5.0109e-004  -1.1942e+006  -2.1653e+005   4.9107e+004    0.0000    0.2784    0.0000    0.0505    0.0166
                0.1763  -5.2126e-003   8.2437e-004   2.0534e-003  -1.1643e+006  -2.1111e+005   2.0123e+005    0.0000    0.2714    0.0000    0.0492    0.0682
                0.2084  -5.0691e-003   8.0167e-004   3.5913e-003  -1.1323e+006  -2.0529e+005   3.5194e+005    0.0000    0.2639    0.0000    0.0479    0.1193
                0.2366  -4.9124e-003   7.7688e-004   4.8961e-003  -1.0973e+006  -1.9895e+005   4.7981e+005    0.0000    0.2558    0.0000    0.0464    0.1626

               lamina:  4     
              matName:  (spar-uni)
                     s           e11           e22           e12           s11           s22           s12   s11_fcT   s11_fcC   s22_fcT   s22_fcC   s12_fcS
                   (m)         (m/m)         (m/m)         (rad)          (Pa)          (Pa)          (Pa)       (-)       (-)       (-)       (-)       (-)
                0.0000  -5.0078e-003   7.9234e-004   6.6099e-003  -6.1791e+008  -6.2729e+006   3.1133e+007    0.0000    0.6179    0.0000    0.1047    0.3023
                0.0246  -5.1262e-003   8.1106e-004   5.4438e-003  -6.3251e+008  -6.4212e+006   2.5640e+007    0.0000    0.6325    0.0000    0.1072    0.2489
                0.0536  -5.2664e-003   8.3323e-004   4.0301e-003  -6.4981e+008  -6.5968e+006   1.8982e+007    0.0000    0.6498    0.0000    0.1101    0.1843
                0.0832  -5.3276e-003   8.4292e-004   2.5611e-003  -6.5737e+008  -6.6736e+006   1.2063e+007    0.0000    0.6574    0.0000    0.1114    0.1171
                0.1137  -5.3298e-003   8.4328e-004   1.0422e-003  -6.5764e+008  -6.6764e+006   4.9090e+006    0.0000    0.6576    0.0000    0.1115    0.0477
                0.1447  -5.3324e-003   8.4368e-004   5.0109e-004  -6.5796e+008  -6.6796e+006   2.3602e+006    0.0000    0.6580    0.0000    0.1115    0.0229
                0.1763  -5.1987e-003   8.2252e-004   2.0534e-003  -6.4145e+008  -6.5120e+006   9.6715e+006    0.0000    0.6415    0.0000    0.1087    0.0939
                0.2084  -5.0551e-003   7.9982e-004   3.5913e-003  -6.2374e+008  -6.3322e+006   1.6915e+007    0.0000    0.6237    0.0000    0.1057    0.1642
                0.2366  -4.8985e-003   7.7504e-004   4.8961e-003  -6.0442e+008  -6.1359e+006   2.3060e+007    0.0000    0.6044    0.0000    0.1024    0.2239

               lamina:  5     
              matName:  (blade-shell)
                     s           e11           e22           e12           s11           s22           s12   s11_fcT   s11_fcC   s22_fcT   s22_fcC   s12_fcS
                   (m)         (m/m)         (m/m)         (rad)          (Pa)          (Pa)          (Pa)       (-)       (-)       (-)       (-)       (-)
                0.0000  -4.5698e-003   7.3440e-004   6.6099e-003  -8.7384e+007   2.7406e+006   2.6109e+007    0.0000    0.1758    0.0081   -0.0000    0.2270
                0.0246  -4.6882e-003   7.5313e-004   5.4438e-003  -8.9649e+007   2.8057e+006   2.1503e+007    0.0000    0.1804    0.0083   -0.0000    0.1870
                0.0536  -4.8270e-003   7.7512e-004   4.0301e-003  -9.2304e+007   2.8828e+006   1.5919e+007    0.0000    0.1857    0.0086   -0.0000    0.1384
                0.0832  -4.8871e-003   7.8465e-004   2.5611e-003  -9.3452e+007   2.9165e+006   1.0116e+007    0.0000    0.1880    0.0087   -0.0000    0.0880
                0.1137  -4.8891e-003   7.8499e-004   1.0422e-003  -9.3492e+007   2.9177e+006   4.1169e+006    0.0000    0.1881    0.0087   -0.0000    0.0358
                0.1447  -4.8922e-003   7.8546e-004   5.0109e-004  -9.3551e+007   2.9192e+006   1.9793e+006    0.0000    0.1882    0.0087   -0.0000    0.0172
                0.1763  -4.7601e-003   7.6452e-004   2.0534e-003  -9.1025e+007   2.8456e+006   8.1109e+006    0.0000    0.1831    0.0084   -0.0000    0.0705
                0.2084  -4.6173e-003   7.4191e-004   3.5913e-003  -8.8292e+007   2.7666e+006   1.4186e+007    0.0000    0.1777    0.0082   -0.0000    0.1234
                0.2366  -4.4614e-003   7.1722e-004   4.8961e-003  -8.5310e+007   2.6804e+006   1.9339e+007    0.0000    0.1716    0.0080   -0.0000    0.1682

            panel:  3     
           lam_num    nPlies        tPly      fibAng     matID  matName
               (-)       (-)         (m)       (deg)       (-)  (-)
                 1         1    0.003349      0.0000         2  (blade-shell)
                 2         1    0.001551      0.0000         6  (TEP-core)
                 3         1    0.003349      0.0000         2  (blade-shell)

               lamina:  1     
              matName:  (blade-shell)
                     s           e11           e22           e12           s11           s22           s12   s11_fcT   s11_fcC   s22_fcT   s22_fcC   s12_fcS
                   (m)         (m/m)         (m/m)         (rad)          (Pa)          (Pa)          (Pa)       (-)       (-)       (-)       (-)       (-)
                0.0000  -5.3778e-003   7.0187e-004   5.2773e-004  -1.0325e+008   5.3850e+004   2.0845e+006    0.0000    0.2077    0.0002   -0.0000    0.0181
                0.0042  -5.3515e-003   6.9844e-004   4.5163e-004  -1.0274e+008   5.3598e+004   1.7839e+006    0.0000    0.2067    0.0002   -0.0000    0.0155
                0.0371  -5.0904e-003   6.6434e-004   1.3081e-004  -9.7728e+007   5.0762e+004   5.1672e+005    0.0000    0.1966    0.0002   -0.0000    0.0045
                0.0699  -4.8285e-003   6.3016e-004   6.8006e-004  -9.2700e+007   4.7930e+004   2.6862e+006    0.0000    0.1865    0.0001   -0.0000    0.0234
                0.1029  -4.5091e-003   5.8846e-004   1.1948e-003  -8.6569e+007   4.4484e+004   4.7196e+006    0.0000    0.1742    0.0001   -0.0000    0.0410
                0.1357  -4.1666e-003   5.4375e-004   1.6682e-003  -7.9994e+007   4.0769e+004   6.5892e+006    0.0000    0.1610    0.0001   -0.0000    0.0573
                0.1682  -3.8248e-003   4.9912e-004   2.0941e-003  -7.3431e+007   3.7071e+004   8.2716e+006    0.0000    0.1477    0.0001   -0.0000    0.0719
                0.2004  -3.4371e-003   4.4851e-004   2.4731e-003  -6.5988e+007   3.2876e+004   9.7686e+006    0.0000    0.1328    0.0001   -0.0000    0.0849
                0.2320  -3.0582e-003   3.9904e-004   2.7998e-003  -5.8714e+007   2.8758e+004   1.1059e+007    0.0000    0.1181    0.0001   -0.0000    0.0962
                0.2629  -2.6786e-003   3.4948e-004   3.0752e-003  -5.1426e+007   2.4639e+004   1.2147e+007    0.0000    0.1035    0.0001   -0.0000    0.1056
                0.2930  -2.2972e-003   2.9969e-004   3.3006e-003  -4.4104e+007   2.0495e+004   1.3037e+007    0.0000    0.0887    0.0001   -0.0000    0.1134
                0.3221  -1.9291e-003   2.5163e-004   3.4778e-003  -3.7037e+007   1.6490e+004   1.3737e+007    0.0000    0.0745    0.0000   -0.0000    0.1195
                0.3500  -1.5771e-003   2.0568e-004   3.6104e-003  -3.0279e+007   1.2659e+004   1.4261e+007    0.0000    0.0609    0.0000   -0.0000    0.1240
                0.3767  -1.2413e-003   1.6183e-004   3.7027e-003  -2.3832e+007   9.0038e+003   1.4626e+007    0.0000    0.0480    0.0000   -0.0000    0.1272
                0.4020  -9.2557e-004   1.2061e-004   3.7594e-003  -1.7770e+007   5.5589e+003   1.4850e+007    0.0000    0.0358    0.0000   -0.0000    0.1291
                0.4258  -6.4133e-004   8.3499e-005   3.7858e-003  -1.2313e+007   2.4582e+003   1.4954e+007    0.0000    0.0248    0.0000   -0.0000    0.1300
                0.4481  -3.7545e-004   4.8786e-005   3.7876e-003  -7.2087e+006  -5.5099e+002   1.4961e+007    0.0000    0.0145    0.0000    0.0000    0.1301
                0.4687   2.0908e-004  -2.7340e-005   3.7698e-003   4.0139e+006  -3.1280e+003   1.4891e+007    0.0119   -0.0000    0.0000    0.0000    0.1295
                0.4875   4.1701e-004  -5.4488e-005   3.7379e-003   8.0060e+006  -5.3916e+003   1.4765e+007    0.0238   -0.0000    0.0000    0.0000    0.1284
                0.5045   6.0544e-004  -7.9088e-005   3.6963e-003   1.1623e+007  -7.4438e+003   1.4600e+007    0.0345   -0.0000    0.0000    0.0000    0.1270
                0.5197   7.5938e-004  -9.9186e-005   3.6495e-003   1.4579e+007  -9.1211e+003   1.4416e+007    0.0433   -0.0000    0.0000    0.0000    0.1254
                0.5329   8.9231e-004  -1.1654e-004   3.6016e-003   1.7131e+007  -1.0568e+004   1.4226e+007    0.0508   -0.0000    0.0000    0.0000    0.1237
                0.5442   1.0040e-003  -1.3112e-004   3.5556e-003   1.9275e+007  -1.1784e+004   1.4044e+007    0.0572   -0.0000    0.0000    0.0000    0.1221
                0.5535   1.0913e-003  -1.4252e-004   3.5142e-003   2.0952e+007  -1.2736e+004   1.3881e+007    0.0622   -0.0000    0.0000    0.0000    0.1207
                0.5607   1.1594e-003  -1.5142e-004   3.4800e-003   2.2259e+007  -1.3476e+004   1.3746e+007    0.0661   -0.0000    0.0000    0.0000    0.1195
                0.5659   1.2103e-003  -1.5806e-004   3.4543e-003   2.3236e+007  -1.4028e+004   1.3645e+007    0.0689   -0.0000    0.0000    0.0000    0.1186
                0.5690   1.2418e-003  -1.6217e-004   3.4383e-003   2.3841e+007  -1.4370e+004   1.3581e+007    0.0707   -0.0000    0.0000    0.0000    0.1181
                0.5700   1.2524e-003  -1.6355e-004   3.4329e-003   2.4044e+007  -1.4485e+004   1.3560e+007    0.0713   -0.0000    0.0000    0.0000    0.1179

               lamina:  2     
              matName:  (TEP-core)
                     s           e11           e22           e12           s11           s22           s12   s11_fcT   s11_fcC   s22_fcT   s22_fcC   s12_fcS
                   (m)         (m/m)         (m/m)         (rad)          (Pa)          (Pa)          (Pa)       (-)       (-)       (-)       (-)       (-)
                0.0000  -5.0196e-003   6.5530e-004   5.2773e-004  -1.1320e+006  -2.3594e+005   5.1718e+004    0.0000    0.2639    0.0000    0.0550    0.0175
                0.0042  -4.9960e-003   6.5222e-004   4.5163e-004  -1.1266e+006  -2.3483e+005   4.4259e+004    0.0000    0.2626    0.0000    0.0547    0.0150
                0.0371  -4.7352e-003   6.1817e-004   1.3081e-004  -1.0678e+006  -2.2257e+005   1.2820e+004    0.0000    0.2489    0.0000    0.0519    0.0043
                0.0699  -4.4747e-003   5.8416e-004   6.8006e-004  -1.0091e+006  -2.1033e+005   6.6646e+004    0.0000    0.2352    0.0000    0.0490    0.0226
                0.1029  -4.1575e-003   5.4275e-004   1.1948e-003  -9.3757e+005  -1.9542e+005   1.1709e+005    0.0000    0.2185    0.0000    0.0456    0.0397
                0.1357  -3.8159e-003   4.9815e-004   1.6682e-003  -8.6053e+005  -1.7936e+005   1.6348e+005    0.0000    0.2006    0.0000    0.0418    0.0554
                0.1682  -3.4757e-003   4.5373e-004   2.0941e-003  -7.8381e+005  -1.6337e+005   2.0522e+005    0.0000    0.1827    0.0000    0.0381    0.0696
                0.2004  -3.0897e-003   4.0334e-004   2.4731e-003  -6.9677e+005  -1.4523e+005   2.4236e+005    0.0000    0.1624    0.0000    0.0339    0.0822
                0.2320  -2.7112e-003   3.5392e-004   2.7998e-003  -6.1140e+005  -1.2744e+005   2.7438e+005    0.0000    0.1425    0.0000    0.0297    0.0930
                0.2629  -2.3324e-003   3.0447e-004   3.0752e-003  -5.2599e+005  -1.0964e+005   3.0137e+005    0.0000    0.1226    0.0000    0.0256    0.1022
                0.2930  -1.9515e-003   2.5474e-004   3.3006e-003  -4.4008e+005  -9.1733e+004   3.2346e+005    0.0000    0.1026    0.0000    0.0214    0.1096
                0.3221  -1.5834e-003   2.0668e-004   3.4778e-003  -3.5707e+005  -7.4430e+004   3.4083e+005    0.0000    0.0832    0.0000    0.0173    0.1155
                0.3500  -1.2313e-003   1.6071e-004   3.6104e-003  -2.7767e+005  -5.7882e+004   3.5382e+005    0.0000    0.0647    0.0000    0.0135    0.1199
                0.3767  -8.9532e-004   1.1685e-004   3.7027e-003  -2.0191e+005  -4.2092e+004   3.6286e+005    0.0000    0.0471    0.0000    0.0098    0.1230
                0.4020  -5.7884e-004   7.5528e-005   3.7594e-003  -1.3054e+005  -2.7216e+004   3.6842e+005    0.0000    0.0304    0.0000    0.0063    0.1249
                0.4258  -2.9396e-004   3.8335e-005   3.7858e-003  -6.6295e+004  -1.3827e+004   3.7101e+005    0.0000    0.0155    0.0000    0.0032    0.1258
                0.4481   1.3351e-004  -1.7387e-005   3.7876e-003   3.0110e+004   6.2852e+003   3.7119e+005    0.0070   -0.0000    0.0015   -0.0000    0.1258
                0.4687   3.7061e-004  -4.8343e-005   3.7698e-003   8.3581e+004   1.7430e+004   3.6944e+005    0.0195   -0.0000    0.0041   -0.0000    0.1252
                0.4875   5.7878e-004  -7.5521e-005   3.7379e-003   1.3053e+005   2.7214e+004   3.6631e+005    0.0304   -0.0000    0.0063   -0.0000    0.1242
                0.5045   7.6762e-004  -1.0017e-004   3.6963e-003   1.7311e+005   3.6089e+004   3.6223e+005    0.0404   -0.0000    0.0084   -0.0000    0.1228
                0.5197   9.2204e-004  -1.2033e-004   3.6495e-003   2.0793e+005   4.3348e+004   3.5765e+005    0.0485   -0.0000    0.0101   -0.0000    0.1212
                0.5329   1.0551e-003  -1.3771e-004   3.6016e-003   2.3794e+005   4.9601e+004   3.5296e+005    0.0555   -0.0000    0.0116   -0.0000    0.1196
                0.5442   1.1670e-003  -1.5232e-004   3.5556e-003   2.6318e+005   5.4861e+004   3.4845e+005    0.0613   -0.0000    0.0128   -0.0000    0.1181
                0.5535   1.2546e-003  -1.6375e-004   3.5142e-003   2.8292e+005   5.8977e+004   3.4440e+005    0.0659   -0.0000    0.0137   -0.0000    0.1167
                0.5607   1.3226e-003  -1.7263e-004   3.4800e-003   2.9825e+005   6.2173e+004   3.4104e+005    0.0695   -0.0000    0.0145   -0.0000    0.1156
                0.5659   1.3731e-003  -1.7923e-004   3.4543e-003   3.0966e+005   6.4550e+004   3.3852e+005    0.0722   -0.0000    0.0150   -0.0000    0.1148
                0.5690   1.4045e-003  -1.8332e-004   3.4383e-003   3.1673e+005   6.6024e+004   3.3696e+005    0.0738   -0.0000    0.0154   -0.0000    0.1142
                0.5700   1.4151e-003  -1.8470e-004   3.4329e-003   3.1911e+005   6.6520e+004   3.3643e+005    0.0744   -0.0000    0.0155   -0.0000    0.1140

               lamina:  3     
              matName:  (blade-shell)
                     s           e11           e22           e12           s11           s22           s12   s11_fcT   s11_fcC   s22_fcT   s22_fcC   s12_fcS
                   (m)         (m/m)         (m/m)         (rad)          (Pa)          (Pa)          (Pa)       (-)       (-)       (-)       (-)       (-)
                0.0000  -4.8538e-003   6.3374e-004   5.2773e-004  -9.3186e+007   5.3684e+004   2.0845e+006    0.0000    0.1875    0.0002   -0.0000    0.0181
                0.0042  -4.8314e-003   6.3081e-004   4.5163e-004  -9.2755e+007   5.3434e+004   1.7839e+006    0.0000    0.1866    0.0002   -0.0000    0.0155
                0.0371  -4.5708e-003   5.9679e-004   1.3081e-004  -8.7752e+007   5.0598e+004   5.1672e+005    0.0000    0.1766    0.0002   -0.0000    0.0045
                0.0699  -4.3109e-003   5.6286e-004   6.8006e-004  -8.2763e+007   4.7767e+004   2.6862e+006    0.0000    0.1665    0.0001   -0.0000    0.0234
                0.1029  -3.9947e-003   5.2159e-004   1.1948e-003  -7.6693e+007   4.4322e+004   4.7196e+006    0.0000    0.1543    0.0001   -0.0000    0.0410
                0.1357  -3.6535e-003   4.7704e-004   1.6682e-003  -7.0142e+007   4.0607e+004   6.5892e+006    0.0000    0.1411    0.0001   -0.0000    0.0573
                0.1682  -3.3141e-003   4.3272e-004   2.0941e-003  -6.3626e+007   3.6910e+004   8.2716e+006    0.0000    0.1280    0.0001   -0.0000    0.0719
                0.2004  -2.9289e-003   3.8243e-004   2.4731e-003  -5.6230e+007   3.2715e+004   9.7686e+006    0.0000    0.1131    0.0001   -0.0000    0.0849
                0.2320  -2.5505e-003   3.3303e-004   2.7998e-003  -4.8966e+007   2.8598e+004   1.1059e+007    0.0000    0.0985    0.0001   -0.0000    0.0962
                0.2629  -2.1721e-003   2.8363e-004   3.0752e-003  -4.1702e+007   2.4479e+004   1.2147e+007    0.0000    0.0839    0.0001   -0.0000    0.1056
                0.2930  -1.7914e-003   2.3393e-004   3.3006e-003  -3.4393e+007   2.0336e+004   1.3037e+007    0.0000    0.0692    0.0001   -0.0000    0.1134
                0.3221  -1.4233e-003   1.8586e-004   3.4778e-003  -2.7325e+007   1.6331e+004   1.3737e+007    0.0000    0.0550    0.0000   -0.0000    0.1195
                0.3500  -1.0711e-003   1.3989e-004   3.6104e-003  -2.0564e+007   1.2500e+004   1.4261e+007    0.0000    0.0414    0.0000   -0.0000    0.1240
                0.3767  -7.3514e-004   9.6021e-005   3.7027e-003  -1.4114e+007   8.8443e+003   1.4626e+007    0.0000    0.0284    0.0000   -0.0000    0.1272
                0.4020  -4.1831e-004   5.4657e-005   3.7594e-003  -8.0309e+006   5.3991e+003   1.4850e+007    0.0000    0.0162    0.0000   -0.0000    0.1291
                0.4258   2.1423e-004  -2.7738e-005   3.7858e-003   4.1135e+006   2.2981e+003   1.4954e+007    0.0122   -0.0000    0.0000   -0.0000    0.1300
                0.4481   4.8140e-004  -6.2619e-005   3.7876e-003   9.2428e+006  -7.1136e+002   1.4961e+007    0.0274   -0.0000    0.0000    0.0000    0.1301
                0.4687   7.1954e-004  -9.3708e-005   3.7698e-003   1.3815e+007  -3.2889e+003   1.4891e+007    0.0410   -0.0000    0.0000    0.0000    0.1295
                0.4875   9.2822e-004  -1.2095e-004   3.7379e-003   1.7821e+007  -5.5526e+003   1.4765e+007    0.0529   -0.0000    0.0000    0.0000    0.1284
                0.5045   1.1179e-003  -1.4572e-004   3.6963e-003   2.1463e+007  -7.6052e+003   1.4600e+007    0.0637   -0.0000    0.0000    0.0000    0.1270
                0.5197   1.2734e-003  -1.6602e-004   3.6495e-003   2.4448e+007  -9.2831e+003   1.4416e+007    0.0725   -0.0000    0.0000    0.0000    0.1254
                0.5329   1.4067e-003  -1.8342e-004   3.6016e-003   2.7007e+007  -1.0730e+004   1.4226e+007    0.0801   -0.0000    0.0000    0.0000    0.1237
                0.5442   1.5192e-003  -1.9810e-004   3.5556e-003   2.9167e+007  -1.1947e+004   1.4044e+007    0.0865   -0.0000    0.0000    0.0000    0.1221
                0.5535   1.6072e-003  -2.0960e-004   3.5142e-003   3.0857e+007  -1.2898e+004   1.3881e+007    0.0916   -0.0000    0.0000    0.0000    0.1207
                0.5607   1.6749e-003  -2.1844e-004   3.4800e-003   3.2157e+007  -1.3639e+004   1.3746e+007    0.0954   -0.0000    0.0000    0.0000    0.1195
                0.5659   1.7249e-003  -2.2496e-004   3.4543e-003   3.3116e+007  -1.4190e+004   1.3645e+007    0.0983   -0.0000    0.0000    0.0000    0.1186
                0.5690   1.7559e-003  -2.2901e-004   3.4383e-003   3.3711e+007  -1.4532e+004   1.3581e+007    0.1000   -0.0000    0.0000    0.0000    0.1181
                0.5700   1.7665e-003  -2.3039e-004   3.4329e-003   3.3914e+007  -1.4647e+004   1.3560e+007    0.1006   -0.0000    0.0000    0.0000    0.1179

  Bottom:  panel  nNode   nLam     xc_St    xc_End         b         t         E_eff         G_eff      nu_eff     density  buckleCrit
            (-)    (-)    (-)       (-)       (-)       (m)       (m)          (Pa)          (Pa)         (-)    (kg/m^3)         (-)
              1     18      3    0.0000    0.2356    0.2723    0.0069   1.8689e+010   3.8463e+009      0.1301   1630.4239      0.0861
              2      9      5    0.2356    0.4644    0.2366    0.0097   5.0695e+010   4.1621e+009      0.1582   1602.1575      0.0048
              3     28      3    0.4644    1.0000    0.5651    0.0082   1.5632e+010   3.2259e+009      0.1306   1393.6869      0.1900

            panel:  1     
           lam_num    nPlies        tPly      fibAng     matID  matName
               (-)       (-)         (m)       (deg)       (-)  (-)
                 1         1    0.003349      0.0000         2  (blade-shell)
                 2         1    0.000185      0.0000         5  (LEP-core)
                 3         1    0.003349      0.0000         2  (blade-shell)

               lamina:  1     
              matName:  (blade-shell)
                     s           e11           e22           e12           s11           s22           s12   s11_fcT   s11_fcC   s22_fcT   s22_fcC   s12_fcS
                   (m)         (m/m)         (m/m)         (rad)          (Pa)          (Pa)          (Pa)       (-)       (-)       (-)       (-)       (-)
                0.0000   4.2789e-004  -5.5644e-005   6.3653e-003   8.2154e+006  -3.6925e+002   2.5143e+007    0.0244   -0.0000    0.0000    0.0000    0.2186
                0.0030   5.5030e-004  -7.1567e-005   6.3621e-003   1.0566e+007  -5.2883e+002   2.5130e+007    0.0314   -0.0000    0.0000    0.0000    0.2185
                0.0116   9.3397e-004  -1.2147e-004   6.3452e-003   1.7932e+007  -9.9550e+002   2.5063e+007    0.0532   -0.0000    0.0000    0.0000    0.2179
                0.0223   1.4350e-003  -1.8663e-004   6.3087e-003   2.7553e+007  -1.5470e+003   2.4919e+007    0.0818   -0.0000    0.0000    0.0000    0.2167
                0.0316   1.7866e-003  -2.3235e-004   6.2643e-003   3.4302e+007  -1.9276e+003   2.4744e+007    0.1018   -0.0000    0.0000    0.0000    0.2152
                0.0440   2.2045e-003  -2.8671e-004   6.1896e-003   4.2326e+007  -2.4358e+003   2.4449e+007    0.1256   -0.0000    0.0000    0.0000    0.2126
                0.0569   2.5622e-003  -3.3323e-004   6.0952e-003   4.9194e+007  -2.8582e+003   2.4076e+007    0.1460   -0.0000    0.0000    0.0000    0.2094
                0.0717   2.9050e-003  -3.7782e-004   5.9688e-003   5.5776e+007  -3.2921e+003   2.3577e+007    0.1655   -0.0000    0.0000    0.0000    0.2050
                0.0882   3.2862e-003  -4.2740e-004   5.8051e-003   6.3095e+007  -3.7664e+003   2.2930e+007    0.1872   -0.0000    0.0000    0.0000    0.1994
                0.1057   3.5787e-003  -4.6545e-004   5.6122e-003   6.8711e+007  -4.1311e+003   2.2168e+007    0.2039   -0.0000    0.0000    0.0000    0.1928
                0.1251   3.8954e-003  -5.0663e-004   5.3758e-003   7.4791e+007  -4.5382e+003   2.1234e+007    0.2219   -0.0000    0.0000    0.0000    0.1846
                0.1457   4.1895e-003  -5.4489e-004   5.1006e-003   8.0438e+007  -4.9113e+003   2.0148e+007    0.2387   -0.0000    0.0000    0.0000    0.1752
                0.1678   4.4424e-003  -5.7777e-004   4.7852e-003   8.5292e+007  -5.2364e+003   1.8901e+007    0.2531   -0.0000    0.0000    0.0000    0.1644
                0.1913   4.7129e-003  -6.1297e-004   4.4254e-003   9.0488e+007  -5.5837e+003   1.7480e+007    0.2685   -0.0000    0.0000    0.0000    0.1520
                0.2159   4.9138e-003  -6.3910e-004   4.0286e-003   9.4345e+007  -5.8405e+003   1.5913e+007    0.2800   -0.0000    0.0000    0.0000    0.1384
                0.2418   5.1070e-003  -6.6422e-004   3.5908e-003   9.8054e+007  -6.0907e+003   1.4184e+007    0.2910   -0.0000    0.0000    0.0000    0.1233
                0.2689   5.2873e-003  -6.8767e-004   3.1147e-003   1.0152e+008  -6.3243e+003   1.2303e+007    0.3012   -0.0000    0.0000    0.0000    0.1070
                0.2723   5.3027e-003  -6.8967e-004   3.0531e-003   1.0181e+008  -6.3405e+003   1.2060e+007    0.3021   -0.0000    0.0000    0.0000    0.1049

               lamina:  2     
              matName:  (LEP-core)
                     s           e11           e22           e12           s11           s22           s12   s11_fcT   s11_fcC   s22_fcT   s22_fcC   s12_fcS
                   (m)         (m/m)         (m/m)         (rad)          (Pa)          (Pa)          (Pa)       (-)       (-)       (-)       (-)       (-)
                0.0000   2.8705e-004  -3.7335e-005   6.3653e-003   6.4744e+004   1.3525e+004   6.2380e+005    0.0151   -0.0000    0.0032   -0.0000    0.2115
                0.0030   4.0947e-004  -5.3258e-005   6.3621e-003   9.2354e+004   1.9293e+004   6.2349e+005    0.0215   -0.0000    0.0045   -0.0000    0.2114
                0.0116   7.6812e-004  -9.9907e-005   6.3452e-003   1.7325e+005   3.6192e+004   6.2183e+005    0.0404   -0.0000    0.0084   -0.0000    0.2108
                0.0223   1.1932e-003  -1.5520e-004   6.3087e-003   2.6913e+005   5.6222e+004   6.1826e+005    0.0627   -0.0000    0.0131   -0.0000    0.2096
                0.0316   1.4867e-003  -1.9337e-004   6.2643e-003   3.3533e+005   7.0051e+004   6.1390e+005    0.0782   -0.0000    0.0163   -0.0000    0.2081
                0.0440   1.8773e-003  -2.4417e-004   6.1896e-003   4.2342e+005   8.8453e+004   6.0658e+005    0.0987   -0.0000    0.0206   -0.0000    0.2056
                0.0569   2.2022e-003  -2.8644e-004   6.0952e-003   4.9671e+005   1.0376e+005   5.9733e+005    0.1158   -0.0000    0.0242   -0.0000    0.2025
                0.0717   2.5353e-003  -3.2976e-004   5.9688e-003   5.7184e+005   1.1946e+005   5.8494e+005    0.1333   -0.0000    0.0278   -0.0000    0.1983
                0.0882   2.8996e-003  -3.7715e-004   5.8051e-003   6.5401e+005   1.3662e+005   5.6890e+005    0.1525   -0.0000    0.0318   -0.0000    0.1928
                0.1057   3.1798e-003  -4.1358e-004   5.6122e-003   7.1719e+005   1.4982e+005   5.5000e+005    0.1672   -0.0000    0.0349   -0.0000    0.1864
                0.1251   3.4921e-003  -4.5421e-004   5.3758e-003   7.8765e+005   1.6454e+005   5.2682e+005    0.1836   -0.0000    0.0384   -0.0000    0.1786
                0.1457   3.7786e-003  -4.9147e-004   5.1006e-003   8.5225e+005   1.7804e+005   4.9986e+005    0.1987   -0.0000    0.0415   -0.0000    0.1694
                0.1678   4.0280e-003  -5.2391e-004   4.7852e-003   9.0851e+005   1.8979e+005   4.6895e+005    0.2118   -0.0000    0.0442   -0.0000    0.1590
                0.1913   4.2946e-003  -5.5858e-004   4.4254e-003   9.6863e+005   2.0235e+005   4.3369e+005    0.2258   -0.0000    0.0472   -0.0000    0.1470
                0.2159   4.4916e-003  -5.8421e-004   4.0286e-003   1.0131e+006   2.1163e+005   3.9480e+005    0.2361   -0.0000    0.0493   -0.0000    0.1338
                0.2418   4.6836e-003  -6.0918e-004   3.5908e-003   1.0564e+006   2.2068e+005   3.5190e+005    0.2462   -0.0000    0.0514   -0.0000    0.1193
                0.2689   4.8628e-003  -6.3249e-004   3.1147e-003   1.0968e+006   2.2912e+005   3.0524e+005    0.2557   -0.0000    0.0534   -0.0000    0.1035
                0.2723   4.8753e-003  -6.3411e-004   3.0531e-003   1.0996e+006   2.2971e+005   2.9920e+005    0.2563   -0.0000    0.0535   -0.0000    0.1014

               lamina:  3     
              matName:  (blade-shell)
                     s           e11           e22           e12           s11           s22           s12   s11_fcT   s11_fcC   s22_fcT   s22_fcC   s12_fcS
                   (m)         (m/m)         (m/m)         (rad)          (Pa)          (Pa)          (Pa)       (-)       (-)       (-)       (-)       (-)
                0.0000   2.7926e-004  -3.6322e-005   6.3653e-003   5.3617e+006  -3.6912e+002   2.5143e+007    0.0159   -0.0000    0.0000    0.0000    0.2186
                0.0030   4.0167e-004  -5.2244e-005   6.3621e-003   7.7120e+006  -5.2870e+002   2.5130e+007    0.0229   -0.0000    0.0000    0.0000    0.2185
                0.0116   7.5894e-004  -9.8714e-005   6.3452e-003   1.4572e+007  -9.9534e+002   2.5063e+007    0.0432   -0.0000    0.0000    0.0000    0.2179
                0.0223   1.1799e-003  -1.5346e-004   6.3087e-003   2.2653e+007  -1.5468e+003   2.4919e+007    0.0672   -0.0000    0.0000    0.0000    0.2167
                0.0316   1.4702e-003  -1.9122e-004   6.2643e-003   2.8227e+007  -1.9273e+003   2.4744e+007    0.0838   -0.0000    0.0000    0.0000    0.2152
                0.0440   1.8592e-003  -2.4182e-004   6.1896e-003   3.5696e+007  -2.4354e+003   2.4449e+007    0.1059   -0.0000    0.0000    0.0000    0.2126
                0.0569   2.1823e-003  -2.8385e-004   6.0952e-003   4.1900e+007  -2.8579e+003   2.4076e+007    0.1243   -0.0000    0.0000    0.0000    0.2094
                0.0717   2.5149e-003  -3.2710e-004   5.9688e-003   4.8285e+007  -3.2917e+003   2.3577e+007    0.1433   -0.0000    0.0000    0.0000    0.2050
                0.0882   2.8783e-003  -3.7437e-004   5.8051e-003   5.5262e+007  -3.7660e+003   2.2930e+007    0.1640   -0.0000    0.0000    0.0000    0.1994
                0.1057   3.1577e-003  -4.1071e-004   5.6122e-003   6.0627e+007  -4.1308e+003   2.2168e+007    0.1799   -0.0000    0.0000    0.0000    0.1928
                0.1251   3.4698e-003  -4.5131e-004   5.3758e-003   6.6620e+007  -4.5378e+003   2.1234e+007    0.1977   -0.0000    0.0000    0.0000    0.1846
                0.1457   3.7558e-003  -4.8851e-004   5.1006e-003   7.2111e+007  -4.9109e+003   2.0148e+007    0.2140   -0.0000    0.0000    0.0000    0.1752
                0.1678   4.0051e-003  -5.2093e-004   4.7852e-003   7.6896e+007  -5.2359e+003   1.8901e+007    0.2282   -0.0000    0.0000    0.0000    0.1644
                0.1913   4.2714e-003  -5.5557e-004   4.4254e-003   8.2010e+007  -5.5833e+003   1.7480e+007    0.2434   -0.0000    0.0000    0.0000    0.1520
                0.2159   4.4683e-003  -5.8117e-004   4.0286e-003   8.5790e+007  -5.8401e+003   1.5913e+007    0.2546   -0.0000    0.0000    0.0000    0.1384
                0.2418   4.6602e-003  -6.0614e-004   3.5908e-003   8.9475e+007  -6.0903e+003   1.4184e+007    0.2655   -0.0000    0.0000    0.0000    0.1233
                0.2689   4.8393e-003  -6.2944e-004   3.1147e-003   9.2915e+007  -6.3239e+003   1.2303e+007    0.2757   -0.0000    0.0000    0.0000    0.1070
                0.2723   4.8517e-003  -6.3104e-004   3.0531e-003   9.3151e+007  -6.3400e+003   1.2060e+007    0.2764   -0.0000    0.0000    0.0000    0.1049

            panel:  2     
           lam_num    nPlies        tPly      fibAng     matID  matName
               (-)       (-)         (m)       (deg)       (-)  (-)
                 1         1    0.003349      0.0000         2  (blade-shell)
                 2         1    0.001471      0.0000         3  (spar-uni)
                 3         1    0.000047      0.0000         4  (spar-core)
                 4         1    0.001471      0.0000         3  (spar-uni)
                 5         1    0.003349      0.0000         2  (blade-shell)

               lamina:  1     
              matName:  (blade-shell)
                     s           e11           e22           e12           s11           s22           s12   s11_fcT   s11_fcC   s22_fcT   s22_fcC   s12_fcS
                   (m)         (m/m)         (m/m)         (rad)          (Pa)          (Pa)          (Pa)       (-)       (-)       (-)       (-)       (-)
                0.0000   6.2485e-003  -9.5093e-004   6.6838e-003   1.1962e+008  -2.7075e+006   2.6401e+007    0.3550   -0.0000    0.0000    0.0080    0.2296
                0.0244   6.3384e-003  -9.6516e-004   5.5875e-003   1.2134e+008  -2.7570e+006   2.2071e+007    0.3601   -0.0000    0.0000    0.0082    0.1919
                0.0533   6.4478e-003  -9.8239e-004   4.2620e-003   1.2343e+008  -2.8158e+006   1.6835e+007    0.3663   -0.0000    0.0000    0.0084    0.1464
                0.0829   6.4907e-003  -9.8912e-004   2.8822e-003   1.2425e+008  -2.8382e+006   1.1385e+007    0.3687   -0.0000    0.0000    0.0084    0.0990
                0.1134   6.4818e-003  -9.8771e-004   1.4554e-003   1.2408e+008  -2.8333e+006   5.7488e+006    0.3682   -0.0000    0.0000    0.0084    0.0500
                0.1445   6.4712e-003  -9.8608e-004   5.9227e-006   1.2388e+008  -2.8284e+006   2.3395e+004    0.3676   -0.0000    0.0000    0.0084    0.0002
                0.1762   6.3400e-003  -9.6544e-004   1.4566e-003   1.2137e+008  -2.7584e+006   5.7535e+006    0.3601   -0.0000    0.0000    0.0082    0.0500
                0.2084   6.2030e-003  -9.4382e-004   2.9067e-003   1.1875e+008  -2.6839e+006   1.1482e+007    0.3524   -0.0000    0.0000    0.0080    0.0998
                0.2366   6.0580e-003  -9.2092e-004   4.1396e-003   1.1598e+008  -2.6050e+006   1.6352e+007    0.3441   -0.0000    0.0000    0.0077    0.1422

               lamina:  2     
              matName:  (spar-uni)
                     s           e11           e22           e12           s11           s22           s12   s11_fcT   s11_fcC   s22_fcT   s22_fcC   s12_fcS
                   (m)         (m/m)         (m/m)         (rad)          (Pa)          (Pa)          (Pa)       (-)       (-)       (-)       (-)       (-)
                0.0000   5.2484e-003  -8.1865e-004   6.6838e-003   6.4762e+008   6.6712e+006   3.1481e+007    0.3272   -0.0000    0.1114   -0.0000    0.3056
                0.0244   5.3383e-003  -8.3288e-004   5.5875e-003   6.5872e+008   6.7839e+006   2.6317e+007    0.3329   -0.0000    0.1133   -0.0000    0.2555
                0.0533   5.4458e-003  -8.4985e-004   4.2620e-003   6.7198e+008   6.9187e+006   2.0074e+007    0.3396   -0.0000    0.1155   -0.0000    0.1949
                0.0829   5.4871e-003  -8.5637e-004   2.8822e-003   6.7708e+008   6.9707e+006   1.3575e+007    0.3421   -0.0000    0.1164   -0.0000    0.1318
                0.1134   5.4782e-003  -8.5496e-004   1.4554e-003   6.7598e+008   6.9595e+006   6.8549e+006    0.3416   -0.0000    0.1162   -0.0000    0.0666
                0.1445   5.4688e-003  -8.5349e-004   5.9227e-006   6.7482e+008   6.9476e+006   2.7896e+004    0.3410   -0.0000    0.1160   -0.0000    0.0003
                0.1762   5.3407e-003  -8.3326e-004   1.4566e-003   6.5901e+008   6.7868e+006   6.8605e+006    0.3330   -0.0000    0.1133   -0.0000    0.0666
                0.2084   5.2049e-003  -8.1180e-004   2.9067e-003   6.4226e+008   6.6166e+006   1.3691e+007    0.3245   -0.0000    0.1105   -0.0000    0.1329
                0.2366   5.0611e-003  -7.8906e-004   4.1396e-003   6.2451e+008   6.4363e+006   1.9498e+007    0.3156   -0.0000    0.1075   -0.0000    0.1893

               lamina:  3     
              matName:  (spar-core)
                     s           e11           e22           e12           s11           s22           s12   s11_fcT   s11_fcC   s22_fcT   s22_fcC   s12_fcS
                   (m)         (m/m)         (m/m)         (rad)          (Pa)          (Pa)          (Pa)       (-)       (-)       (-)       (-)       (-)
                0.0000   4.8092e-003  -7.6056e-004   6.6838e-003   1.0742e+006   1.9477e+005   6.5501e+005    0.2504   -0.0000    0.0454   -0.0000    0.2220
                0.0244   4.8992e-003  -7.7479e-004   5.5875e-003   1.0943e+006   1.9842e+005   5.4758e+005    0.2551   -0.0000    0.0463   -0.0000    0.1856
                0.0533   5.0058e-003  -7.9166e-004   4.2620e-003   1.1181e+006   2.0273e+005   4.1768e+005    0.2606   -0.0000    0.0473   -0.0000    0.1416
                0.0829   5.0465e-003  -7.9809e-004   2.8822e-003   1.1272e+006   2.0438e+005   2.8245e+005    0.2628   -0.0000    0.0476   -0.0000    0.0957
                0.1134   5.0375e-003  -7.9667e-004   1.4554e-003   1.1252e+006   2.0402e+005   1.4263e+005    0.2623   -0.0000    0.0476   -0.0000    0.0483
                0.1445   5.0287e-003  -7.9527e-004   5.9227e-006   1.1232e+006   2.0366e+005   5.8043e+002    0.2618   -0.0000    0.0475   -0.0000    0.0002
                0.1762   4.9019e-003  -7.7523e-004   1.4566e-003   1.0949e+006   1.9853e+005   1.4274e+005    0.2552   -0.0000    0.0463   -0.0000    0.0484
                0.2084   4.7667e-003  -7.5383e-004   2.9067e-003   1.0647e+006   1.9305e+005   2.8486e+005    0.2482   -0.0000    0.0450   -0.0000    0.0966
                0.2366   4.6234e-003  -7.3117e-004   4.1396e-003   1.0327e+006   1.8725e+005   4.0569e+005    0.2407   -0.0000    0.0436   -0.0000    0.1375

               lamina:  4     
              matName:  (spar-uni)
                     s           e11           e22           e12           s11           s22           s12   s11_fcT   s11_fcC   s22_fcT   s22_fcC   s12_fcS
                   (m)         (m/m)         (m/m)         (rad)          (Pa)          (Pa)          (Pa)       (-)       (-)       (-)       (-)       (-)
                0.0000   4.7952e-003  -7.5871e-004   6.6838e-003   5.9168e+008   6.0066e+006   3.1481e+007    0.2990   -0.0000    0.1003   -0.0000    0.3056
                0.0244   4.8852e-003  -7.7294e-004   5.5875e-003   6.0278e+008   6.1193e+006   2.6317e+007    0.3046   -0.0000    0.1022   -0.0000    0.2555
                0.0533   4.9918e-003  -7.8980e-004   4.2620e-003   6.1593e+008   6.2528e+006   2.0074e+007    0.3112   -0.0000    0.1044   -0.0000    0.1949
                0.0829   5.0324e-003  -7.9623e-004   2.8822e-003   6.2094e+008   6.3037e+006   1.3575e+007    0.3138   -0.0000    0.1052   -0.0000    0.1318
                0.1134   5.0235e-003  -7.9482e-004   1.4554e-003   6.1984e+008   6.2925e+006   6.8549e+006    0.3132   -0.0000    0.1051   -0.0000    0.0666
                0.1445   5.0146e-003  -7.9342e-004   5.9227e-006   6.1875e+008   6.2814e+006   2.7896e+004    0.3127   -0.0000    0.1049   -0.0000    0.0003
                0.1762   4.8879e-003  -7.7338e-004   1.4566e-003   6.0312e+008   6.1227e+006   6.8605e+006    0.3048   -0.0000    0.1022   -0.0000    0.0666
                0.2084   4.7527e-003  -7.5198e-004   2.9067e-003   5.8643e+008   5.9533e+006   1.3691e+007    0.2963   -0.0000    0.0994   -0.0000    0.1329
                0.2366   4.6094e-003  -7.2932e-004   4.1396e-003   5.6875e+008   5.7738e+006   1.9498e+007    0.2874   -0.0000    0.0964   -0.0000    0.1893

               lamina:  5     
              matName:  (blade-shell)
                     s           e11           e22           e12           s11           s22           s12   s11_fcT   s11_fcC   s22_fcT   s22_fcC   s12_fcS
                   (m)         (m/m)         (m/m)         (rad)          (Pa)          (Pa)          (Pa)       (-)       (-)       (-)       (-)       (-)
                0.0000   4.3561e-003  -7.0063e-004   6.6838e-003   8.3296e+007  -2.6235e+006   2.6401e+007    0.2472   -0.0000    0.0000    0.0078    0.2296
                0.0244   4.4461e-003  -7.1486e-004   5.5875e-003   8.5017e+007  -2.6730e+006   2.2071e+007    0.2523   -0.0000    0.0000    0.0079    0.1919
                0.0533   4.5518e-003  -7.3161e-004   4.2620e-003   8.7040e+007  -2.7317e+006   1.6835e+007    0.2583   -0.0000    0.0000    0.0081    0.1464
                0.0829   4.5918e-003  -7.3794e-004   2.8822e-003   8.7804e+007  -2.7540e+006   1.1385e+007    0.2605   -0.0000    0.0000    0.0082    0.0990
                0.1134   4.5828e-003  -7.3653e-004   1.4554e-003   8.7632e+007  -2.7491e+006   5.7488e+006    0.2600   -0.0000    0.0000    0.0082    0.0500
                0.1445   4.5745e-003  -7.3520e-004   5.9227e-006   8.7473e+007  -2.7442e+006   2.3395e+004    0.2596   -0.0000    0.0000    0.0081    0.0002
                0.1762   4.4492e-003  -7.1534e-004   1.4566e-003   8.5077e+007  -2.6746e+006   5.7535e+006    0.2525   -0.0000    0.0000    0.0079    0.0500
                0.2084   4.3144e-003  -6.9401e-004   2.9067e-003   8.2499e+007  -2.6001e+006   1.1482e+007    0.2448   -0.0000    0.0000    0.0077    0.0998
                0.2366   4.1717e-003  -6.7142e-004   4.1396e-003   7.9769e+007  -2.5213e+006   1.6352e+007    0.2367   -0.0000    0.0000    0.0075    0.1422

            panel:  3     
           lam_num    nPlies        tPly      fibAng     matID  matName
               (-)       (-)         (m)       (deg)       (-)  (-)
                 1         1    0.003349      0.0000         2  (blade-shell)
                 2         1    0.001551      0.0000         6  (TEP-core)
                 3         1    0.003349      0.0000         2  (blade-shell)

               lamina:  1     
              matName:  (blade-shell)
                     s           e11           e22           e12           s11           s22           s12   s11_fcT   s11_fcC   s22_fcT   s22_fcC   s12_fcS
                   (m)         (m/m)         (m/m)         (rad)          (Pa)          (Pa)          (Pa)       (-)       (-)       (-)       (-)       (-)
                0.0000   5.0894e-003  -6.6422e-004   1.7404e-003   9.7710e+007  -5.0706e+004   6.8744e+006    0.2899   -0.0000    0.0000    0.0002    0.0598
                0.0042   5.0658e-003  -6.6114e-004   1.6676e-003   9.7257e+007  -5.0473e+004   6.5872e+006    0.2886   -0.0000    0.0000    0.0001    0.0573
                0.0372   4.8358e-003  -6.3112e-004   1.1152e-003   9.2842e+007  -4.7975e+004   4.4052e+006    0.2755   -0.0000    0.0000    0.0001    0.0383
                0.0702   4.6055e-003  -6.0105e-004   5.9092e-004   8.8420e+007  -4.5479e+004   2.3341e+006    0.2624   -0.0000    0.0000    0.0001    0.0203
                0.1031   4.3373e-003  -5.6604e-004   9.6194e-005   8.3272e+007  -4.2578e+004   3.7997e+005    0.2471   -0.0000    0.0000    0.0001    0.0033
                0.1360   4.0542e-003  -5.2907e-004   3.6373e-004   7.7836e+007  -3.9503e+004   1.4367e+006    0.2310   -0.0000    0.0000    0.0001    0.0125
                0.1684   3.7732e-003  -4.9239e-004   7.8482e-004   7.2442e+007  -3.6453e+004   3.1000e+006    0.2150   -0.0000    0.0000    0.0001    0.0270
                0.2005   3.4760e-003  -4.5358e-004   1.1668e-003   6.6735e+007  -3.3226e+004   4.6088e+006    0.1980   -0.0000    0.0000    0.0001    0.0401
                0.2319   3.1853e-003  -4.1563e-004   1.5077e-003   6.1153e+007  -3.0062e+004   5.9554e+006    0.1815   -0.0000    0.0000    0.0001    0.0518
                0.2626   2.9062e-003  -3.7919e-004   1.8082e-003   5.5796e+007  -2.7022e+004   7.1423e+006    0.1656   -0.0000    0.0000    0.0001    0.0621
                0.2923   2.6412e-003  -3.4459e-004   2.0700e-003   5.0708e+007  -2.4136e+004   8.1763e+006    0.1505   -0.0000    0.0000    0.0001    0.0711
                0.3210   2.3856e-003  -3.1123e-004   2.2958e-003   4.5802e+007  -2.1346e+004   9.0683e+006    0.1359   -0.0000    0.0000    0.0001    0.0789
                0.3485   2.1679e-003  -2.8280e-004   2.4880e-003   4.1622e+007  -1.8964e+004   9.8275e+006    0.1235   -0.0000    0.0000    0.0001    0.0855
                0.3747   1.9668e-003  -2.5654e-004   2.6511e-003   3.7760e+007  -1.6771e+004   1.0472e+007    0.1120   -0.0000    0.0000    0.0000    0.0911
                0.3996   1.7840e-003  -2.3267e-004   2.7886e-003   3.4250e+007  -1.4765e+004   1.1015e+007    0.1016   -0.0000    0.0000    0.0000    0.0958
                0.4230   1.6501e-003  -2.1519e-004   2.9038e-003   3.1680e+007  -1.3296e+004   1.1470e+007    0.0940   -0.0000    0.0000    0.0000    0.0997
                0.4448   1.5247e-003  -1.9882e-004   3.0012e-003   2.9273e+007  -1.1924e+004   1.1855e+007    0.0869   -0.0000    0.0000    0.0000    0.1031
                0.4650   1.4349e-003  -1.8710e-004   3.0834e-003   2.7549e+007  -1.0933e+004   1.2180e+007    0.0817   -0.0000    0.0000    0.0000    0.1059
                0.4834   1.3746e-003  -1.7923e-004   3.1534e-003   2.6391e+007  -1.0271e+004   1.2456e+007    0.0783   -0.0000    0.0000    0.0000    0.1083
                0.5001   1.3202e-003  -1.7212e-004   3.2136e-003   2.5346e+007  -9.6703e+003   1.2694e+007    0.0752   -0.0000    0.0000    0.0000    0.1104
                0.5150   1.3106e-003  -1.7086e-004   3.2655e-003   2.5162e+007  -9.5612e+003   1.2899e+007    0.0747   -0.0000    0.0000    0.0000    0.1122
                0.5280   1.3062e-003  -1.7030e-004   3.3104e-003   2.5078e+007  -9.5137e+003   1.3076e+007    0.0744   -0.0000    0.0000    0.0000    0.1137
                0.5392   1.3116e-003  -1.7100e-004   3.3491e-003   2.5182e+007  -9.5756e+003   1.3229e+007    0.0747   -0.0000    0.0000    0.0000    0.1150
                0.5484   1.3391e-003  -1.7459e-004   3.3817e-003   2.5710e+007  -9.8832e+003   1.3358e+007    0.0763   -0.0000    0.0000    0.0000    0.1162
                0.5556   1.3605e-003  -1.7738e-004   3.4079e-003   2.6120e+007  -1.0125e+004   1.3461e+007    0.0775   -0.0000    0.0000    0.0000    0.1171
                0.5609   1.3879e-003  -1.8096e-004   3.4278e-003   2.6646e+007  -1.0452e+004   1.3540e+007    0.0791   -0.0000    0.0000    0.0000    0.1177
                0.5641   1.4100e-003  -1.8384e-004   3.4401e-003   2.7070e+007  -1.0711e+004   1.3588e+007    0.0803   -0.0000    0.0000    0.0000    0.1182
                0.5651   1.4177e-003  -1.8485e-004   3.4441e-003   2.7218e+007  -1.0795e+004   1.3604e+007    0.0808   -0.0000    0.0000    0.0000    0.1183

               lamina:  2     
              matName:  (TEP-core)
                     s           e11           e22           e12           s11           s22           s12   s11_fcT   s11_fcC   s22_fcT   s22_fcC   s12_fcS
                   (m)         (m/m)         (m/m)         (rad)          (Pa)          (Pa)          (Pa)       (-)       (-)       (-)       (-)       (-)
                0.0000   4.7308e-003  -6.1759e-004   1.7404e-003   1.0668e+006   2.2236e+005   1.7055e+005    0.2487   -0.0000    0.0518   -0.0000    0.0578
                0.0042   4.7090e-003  -6.1475e-004   1.6676e-003   1.0619e+006   2.2134e+005   1.6343e+005    0.2475   -0.0000    0.0516   -0.0000    0.0554
                0.0372   4.4793e-003  -5.8476e-004   1.1152e-003   1.0101e+006   2.1055e+005   1.0929e+005    0.2355   -0.0000    0.0491   -0.0000    0.0370
                0.0702   4.2498e-003  -5.5479e-004   5.9092e-004   9.5837e+005   1.9976e+005   5.7910e+004    0.2234   -0.0000    0.0466   -0.0000    0.0196
                0.1031   3.9829e-003  -5.1995e-004   9.6194e-005   8.9818e+005   1.8721e+005   9.4270e+003    0.2094   -0.0000    0.0436   -0.0000    0.0032
                0.1360   3.7002e-003  -4.8304e-004   3.6373e-004   8.3443e+005   1.7392e+005   3.5645e+004    0.1945   -0.0000    0.0405   -0.0000    0.0121
                0.1684   3.4197e-003  -4.4643e-004   7.8482e-004   7.7119e+005   1.6074e+005   7.6913e+004    0.1798   -0.0000    0.0375   -0.0000    0.0261
                0.2005   3.1231e-003  -4.0769e-004   1.1668e-003   7.0429e+005   1.4680e+005   1.1434e+005    0.1642   -0.0000    0.0342   -0.0000    0.0388
                0.2319   2.8322e-003  -3.6972e-004   1.5077e-003   6.3869e+005   1.3313e+005   1.4776e+005    0.1489   -0.0000    0.0310   -0.0000    0.0501
                0.2626   2.5529e-003  -3.3325e-004   1.8082e-003   5.7570e+005   1.2000e+005   1.7720e+005    0.1342   -0.0000    0.0280   -0.0000    0.0601
                0.2923   2.2877e-003  -2.9863e-004   2.0700e-003   5.1590e+005   1.0753e+005   2.0286e+005    0.1203   -0.0000    0.0251   -0.0000    0.0688
                0.3210   2.0313e-003  -2.6516e-004   2.2958e-003   4.5809e+005   9.5486e+004   2.2499e+005    0.1068   -0.0000    0.0223   -0.0000    0.0763
                0.3485   1.8127e-003  -2.3661e-004   2.4880e-003   4.0878e+005   8.5208e+004   2.4382e+005    0.0953   -0.0000    0.0199   -0.0000    0.0827
                0.3747   1.6111e-003  -2.1030e-004   2.6511e-003   3.6332e+005   7.5734e+004   2.5981e+005    0.0847   -0.0000    0.0177   -0.0000    0.0881
                0.3996   1.4270e-003  -1.8626e-004   2.7886e-003   3.2181e+005   6.7082e+004   2.7328e+005    0.0750   -0.0000    0.0156   -0.0000    0.0926
                0.4230   1.2922e-003  -1.6866e-004   2.9038e-003   2.9140e+005   6.0745e+004   2.8457e+005    0.0679   -0.0000    0.0142   -0.0000    0.0965
                0.4448   1.1662e-003  -1.5220e-004   3.0012e-003   2.6298e+005   5.4821e+004   2.9412e+005    0.0613   -0.0000    0.0128   -0.0000    0.0997
                0.4650   1.0753e-003  -1.4034e-004   3.0834e-003   2.4250e+005   5.0552e+004   3.0218e+005    0.0565   -0.0000    0.0118   -0.0000    0.1024
                0.4834   1.0145e-003  -1.3241e-004   3.1534e-003   2.2879e+005   4.7696e+004   3.0904e+005    0.0533   -0.0000    0.0111   -0.0000    0.1048
                0.5001   9.5946e-004  -1.2522e-004   3.2136e-003   2.1637e+005   4.5107e+004   3.1493e+005    0.0504   -0.0000    0.0105   -0.0000    0.1068
                0.5150   9.4950e-004  -1.2392e-004   3.2655e-003   2.1413e+005   4.4638e+004   3.2002e+005    0.0499   -0.0000    0.0104   -0.0000    0.1085
                0.5280   9.4514e-004  -1.2335e-004   3.3104e-003   2.1314e+005   4.4434e+004   3.2442e+005    0.0497   -0.0000    0.0104   -0.0000    0.1100
                0.5392   9.5078e-004  -1.2409e-004   3.3491e-003   2.1441e+005   4.4699e+004   3.2821e+005    0.0500   -0.0000    0.0104   -0.0000    0.1113
                0.5484   9.7893e-004  -1.2776e-004   3.3817e-003   2.2076e+005   4.6022e+004   3.3141e+005    0.0515   -0.0000    0.0107   -0.0000    0.1123
                0.5556   1.0010e-003  -1.3064e-004   3.4079e-003   2.2574e+005   4.7060e+004   3.3397e+005    0.0526   -0.0000    0.0110   -0.0000    0.1132
                0.5609   1.0306e-003  -1.3451e-004   3.4278e-003   2.3242e+005   4.8451e+004   3.3592e+005    0.0542   -0.0000    0.0113   -0.0000    0.1139
                0.5641   1.0541e-003  -1.3758e-004   3.4401e-003   2.3772e+005   4.9557e+004   3.3713e+005    0.0554   -0.0000    0.0116   -0.0000    0.1143
                0.5651   1.0619e-003  -1.3859e-004   3.4441e-003   2.3946e+005   4.9920e+004   3.3752e+005    0.0558   -0.0000    0.0116   -0.0000    0.1144

               lamina:  3     
              matName:  (blade-shell)
                     s           e11           e22           e12           s11           s22           s12   s11_fcT   s11_fcC   s22_fcT   s22_fcC   s12_fcS
                   (m)         (m/m)         (m/m)         (rad)          (Pa)          (Pa)          (Pa)       (-)       (-)       (-)       (-)       (-)
                0.0000   4.5647e-003  -5.9600e-004   1.7404e-003   8.7636e+007  -5.0540e+004   6.8744e+006    0.2600   -0.0000    0.0000    0.0001    0.0598
                0.0042   4.5438e-003  -5.9327e-004   1.6676e-003   8.7235e+007  -5.0308e+004   6.5872e+006    0.2589   -0.0000    0.0000    0.0001    0.0573
                0.0372   4.3143e-003  -5.6330e-004   1.1152e-003   8.2828e+007  -4.7810e+004   4.4052e+006    0.2458   -0.0000    0.0000    0.0001    0.0383
                0.0702   4.0851e-003  -5.3338e-004   5.9092e-004   7.8428e+007  -4.5315e+004   2.3341e+006    0.2327   -0.0000    0.0000    0.0001    0.0203
                0.1031   3.8187e-003  -4.9861e-004   9.6194e-005   7.3314e+007  -4.2414e+004   3.7997e+005    0.2175   -0.0000    0.0000    0.0001    0.0033
                0.1360   3.5363e-003  -4.6173e-004   3.6373e-004   6.7891e+007  -3.9340e+004   1.4367e+006    0.2015   -0.0000    0.0000    0.0001    0.0125
                0.1684   3.2561e-003  -4.2515e-004   7.8482e-004   6.2512e+007  -3.6290e+004   3.1000e+006    0.1855   -0.0000    0.0000    0.0001    0.0270
                0.2005   2.9597e-003  -3.8645e-004   1.1668e-003   5.6821e+007  -3.3064e+004   4.6088e+006    0.1686   -0.0000    0.0000    0.0001    0.0401
                0.2319   2.6687e-003  -3.4847e-004   1.5077e-003   5.1236e+007  -2.9899e+004   5.9554e+006    0.1520   -0.0000    0.0000    0.0001    0.0518
                0.2626   2.3893e-003  -3.1198e-004   1.8082e-003   4.5870e+007  -2.6859e+004   7.1423e+006    0.1361   -0.0000    0.0000    0.0001    0.0621
                0.2923   2.1240e-003  -2.7735e-004   2.0700e-003   4.0778e+007  -2.3973e+004   8.1763e+006    0.1210   -0.0000    0.0000    0.0001    0.0711
                0.3210   1.8673e-003  -2.4383e-004   2.2958e-003   3.5849e+007  -2.1182e+004   9.0683e+006    0.1064   -0.0000    0.0000    0.0001    0.0789
                0.3485   1.6482e-003  -2.1522e-004   2.4880e-003   3.1642e+007  -1.8801e+004   9.8275e+006    0.0939   -0.0000    0.0000    0.0001    0.0855
                0.3747   1.4464e-003  -1.8889e-004   2.6511e-003   2.7769e+007  -1.6607e+004   1.0472e+007    0.0824   -0.0000    0.0000    0.0000    0.0911
                0.3996   1.2617e-003  -1.6477e-004   2.7886e-003   2.4224e+007  -1.4601e+004   1.1015e+007    0.0719   -0.0000    0.0000    0.0000    0.0958
                0.4230   1.1265e-003  -1.4711e-004   2.9038e-003   2.1626e+007  -1.3131e+004   1.1470e+007    0.0642   -0.0000    0.0000    0.0000    0.0997
                0.4448   1.0002e-003  -1.3062e-004   3.0012e-003   1.9201e+007  -1.1758e+004   1.1855e+007    0.0570   -0.0000    0.0000    0.0000    0.1031
                0.4650   9.0881e-004  -1.1870e-004   3.0834e-003   1.7448e+007  -1.0767e+004   1.2180e+007    0.0518   -0.0000    0.0000    0.0000    0.1059
                0.4834   8.4785e-004  -1.1074e-004   3.1534e-003   1.6277e+007  -1.0105e+004   1.2456e+007    0.0483   -0.0000    0.0000    0.0000    0.1083
                0.5001   7.9247e-004  -1.0351e-004   3.2136e-003   1.5214e+007  -9.5041e+003   1.2694e+007    0.0451   -0.0000    0.0000    0.0000    0.1104
                0.5150   7.8234e-004  -1.0218e-004   3.2655e-003   1.5020e+007  -9.3947e+003   1.2899e+007    0.0446   -0.0000    0.0000    0.0000    0.1122
                0.5280   7.7797e-004  -1.0161e-004   3.3104e-003   1.4936e+007  -9.3473e+003   1.3076e+007    0.0443   -0.0000    0.0000    0.0000    0.1137
                0.5392   7.8373e-004  -1.0237e-004   3.3491e-003   1.5046e+007  -9.4093e+003   1.3229e+007    0.0446   -0.0000    0.0000    0.0000    0.1150
                0.5484   8.1217e-004  -1.0608e-004   3.3817e-003   1.5592e+007  -9.7172e+003   1.3358e+007    0.0463   -0.0000    0.0000    0.0000    0.1162
                0.5556   8.3460e-004  -1.0901e-004   3.4079e-003   1.6023e+007  -9.9594e+003   1.3461e+007    0.0475   -0.0000    0.0000    0.0000    0.1171
                0.5609   8.6520e-004  -1.1300e-004   3.4278e-003   1.6611e+007  -1.0287e+004   1.3540e+007    0.0493   -0.0000    0.0000    0.0000    0.1177
                0.5641   8.8942e-004  -1.1616e-004   3.4401e-003   1.7075e+007  -1.0547e+004   1.3588e+007    0.0507   -0.0000    0.0000    0.0000    0.1182
                0.5651   8.9714e-004  -1.1717e-004   3.4441e-003   1.7224e+007  -1.0631e+004   1.3604e+007    0.0511   -0.0000    0.0000    0.0000    0.1183

     Web:  panel  nNode   nLam     xc_St    xc_End         b         t         E_eff         G_eff      nu_eff     density  buckleCrit
            (-)    (-)    (-)       (-)       (-)       (m)       (m)          (Pa)          (Pa)         (-)    (kg/m^3)         (-)
              1     10      3    0.2356    0.2356    0.2199    0.0121   6.5707e+009   1.3870e+009      0.1347    691.8994      0.0391
              2     10      3    0.4644    0.4644    0.2076    0.0121   6.5707e+009   1.3870e+009      0.1347    691.8994      0.0374

            panel:  1     
           lam_num    nPlies        tPly      fibAng     matID  matName
               (-)       (-)         (m)       (deg)       (-)  (-)
                 1         1    0.002023      0.0000         7  (web-shell)
                 2         1    0.008047      0.0000         8  (web-core)
                 3         1    0.002023      0.0000         7  (web-shell)

               lamina:  1     
              matName:  (web-shell)
                     s           e11           e22           e12           s11           s22           s12   s11_fcT   s11_fcC   s22_fcT   s22_fcC   s12_fcS
                   (m)         (m/m)         (m/m)         (rad)          (Pa)          (Pa)          (Pa)       (-)       (-)       (-)       (-)       (-)
                0.0000  -4.9208e-003   6.6278e-004   1.1140e-002  -9.4420e+007   4.5073e+005   4.4004e+007    0.0000    0.1900    0.0013   -0.0000    0.3826
                0.0244  -3.8498e-003   5.1853e-004   1.1531e-002  -7.3869e+007   3.5271e+005   4.5547e+007    0.0000    0.1486    0.0010   -0.0000    0.3961
                0.0489  -2.7788e-003   3.7428e-004   1.1827e-002  -5.3319e+007   2.5469e+005   4.6717e+007    0.0000    0.1073    0.0008   -0.0000    0.4062
                0.0733  -1.7078e-003   2.3003e-004   1.2028e-002  -3.2769e+007   1.5667e+005   4.7512e+007    0.0000    0.0659    0.0005   -0.0000    0.4131
                0.0977  -6.3676e-004   8.5782e-005   1.2135e-002  -1.2218e+007   5.8649e+004   4.7933e+007    0.0000    0.0246    0.0002   -0.0000    0.4168
                0.1221   4.3682e-004  -5.8805e-005   1.2147e-002   8.3819e+006  -3.9424e+004   4.7979e+007    0.0249   -0.0000    0.0000    0.0001    0.4172
                0.1466   1.5078e-003  -2.0305e-004   1.2064e-002   2.8932e+007  -1.3745e+005   4.7651e+007    0.0859   -0.0000    0.0000    0.0004    0.4144
                0.1710   2.5788e-003  -3.4730e-004   1.1886e-002   4.9483e+007  -2.3547e+005   4.6949e+007    0.1468   -0.0000    0.0000    0.0007    0.4082
                0.1954   3.6498e-003  -4.9155e-004   1.1613e-002   7.0033e+007  -3.3349e+005   4.5872e+007    0.2078   -0.0000    0.0000    0.0010    0.3989
                0.2199   4.7208e-003  -6.3580e-004   1.1246e-002   9.0583e+007  -4.3151e+005   4.4421e+007    0.2688   -0.0000    0.0000    0.0013    0.3863

               lamina:  2     
              matName:  (web-core)
                     s           e11           e22           e12           s11           s22           s12   s11_fcT   s11_fcC   s22_fcT   s22_fcC   s12_fcS
                   (m)         (m/m)         (m/m)         (rad)          (Pa)          (Pa)          (Pa)       (-)       (-)       (-)       (-)       (-)
                0.0000  -4.9310e-003   6.6412e-004   1.1140e-002  -1.1104e+006  -2.2697e+005   1.0917e+006    0.0000    0.2588    0.0000    0.0529    0.3701
                0.0244  -3.8600e-003   5.1988e-004   1.1531e-002  -8.6924e+005  -1.7768e+005   1.1300e+006    0.0000    0.2026    0.0000    0.0414    0.3831
                0.0489  -2.7890e-003   3.7563e-004   1.1827e-002  -6.2806e+005  -1.2838e+005   1.1591e+006    0.0000    0.1464    0.0000    0.0299    0.3929
                0.0733  -1.7180e-003   2.3138e-004   1.2028e-002  -3.8689e+005  -7.9083e+004   1.1788e+006    0.0000    0.0902    0.0000    0.0184    0.3996
                0.0977  -6.4704e-004   8.7129e-005   1.2135e-002  -1.4571e+005  -2.9787e+004   1.1892e+006    0.0000    0.0340    0.0000    0.0069    0.4031
                0.1221   4.3424e-004  -5.8467e-005   1.2147e-002   9.7787e+004   1.9992e+004   1.1904e+006    0.0228   -0.0000    0.0047   -0.0000    0.4035
                0.1466   1.5052e-003  -2.0272e-004   1.2064e-002   3.3896e+005   6.9288e+004   1.1822e+006    0.0790   -0.0000    0.0162   -0.0000    0.4008
                0.1710   2.5762e-003  -3.4696e-004   1.1886e-002   5.8014e+005   1.1858e+005   1.1648e+006    0.1352   -0.0000    0.0276   -0.0000    0.3948
                0.1954   3.6472e-003  -4.9121e-004   1.1613e-002   8.2132e+005   1.6788e+005   1.1381e+006    0.1914   -0.0000    0.0391   -0.0000    0.3858
                0.2199   4.7182e-003  -6.3546e-004   1.1246e-002   1.0625e+006   2.1718e+005   1.1021e+006    0.2477   -0.0000    0.0506   -0.0000    0.3736

               lamina:  3     
              matName:  (web-shell)
                     s           e11           e22           e12           s11           s22           s12   s11_fcT   s11_fcC   s22_fcT   s22_fcC   s12_fcS
                   (m)         (m/m)         (m/m)         (rad)          (Pa)          (Pa)          (Pa)       (-)       (-)       (-)       (-)       (-)
                0.0000  -4.9336e-003   6.6446e-004   1.1140e-002  -9.4667e+007   4.5099e+005   4.4004e+007    0.0000    0.1905    0.0013   -0.0000    0.3826
                0.0244  -3.8626e-003   5.2021e-004   1.1531e-002  -7.4116e+007   3.5296e+005   4.5547e+007    0.0000    0.1491    0.0010   -0.0000    0.3961
                0.0489  -2.7916e-003   3.7597e-004   1.1827e-002  -5.3566e+007   2.5494e+005   4.6717e+007    0.0000    0.1078    0.0008   -0.0000    0.4062
                0.0733  -1.7206e-003   2.3172e-004   1.2028e-002  -3.3016e+007   1.5692e+005   4.7512e+007    0.0000    0.0664    0.0005   -0.0000    0.4131
                0.0977  -6.4963e-004   8.7468e-005   1.2135e-002  -1.2465e+007   5.8901e+004   4.7933e+007    0.0000    0.0251    0.0002   -0.0000    0.4168
                0.1221   4.2395e-004  -5.7120e-005   1.2147e-002   8.1348e+006  -3.9172e+004   4.7979e+007    0.0241   -0.0000    0.0000    0.0001    0.4172
                0.1466   1.4949e-003  -2.0137e-004   1.2064e-002   2.8685e+007  -1.3719e+005   4.7651e+007    0.0851   -0.0000    0.0000    0.0004    0.4144
                0.1710   2.5659e-003  -3.4562e-004   1.1886e-002   4.9236e+007  -2.3521e+005   4.6949e+007    0.1461   -0.0000    0.0000    0.0007    0.4082
                0.1954   3.6369e-003  -4.8987e-004   1.1613e-002   6.9786e+007  -3.3324e+005   4.5872e+007    0.2071   -0.0000    0.0000    0.0010    0.3989
                0.2199   4.7079e-003  -6.3411e-004   1.1246e-002   9.0336e+007  -4.3126e+005   4.4421e+007    0.2681   -0.0000    0.0000    0.0013    0.3863

            panel:  2     
           lam_num    nPlies        tPly      fibAng     matID  matName
               (-)       (-)         (m)       (deg)       (-)  (-)
                 1         1    0.002023      0.0000         7  (web-shell)
                 2         1    0.008047      0.0000         8  (web-core)
                 3         1    0.002023      0.0000         7  (web-shell)

               lamina:  1     
              matName:  (web-shell)
                     s           e11           e22           e12           s11           s22           s12   s11_fcT   s11_fcC   s22_fcT   s22_fcC   s12_fcS
                   (m)         (m/m)         (m/m)         (rad)          (Pa)          (Pa)          (Pa)       (-)       (-)       (-)       (-)       (-)
                0.0000  -4.6898e-003   6.3168e-004   1.2605e-002  -8.9989e+007   4.2959e+005   4.9791e+007    0.0000    0.1811    0.0013   -0.0000    0.4330
                0.0231  -3.6787e-003   4.9549e-004   1.2955e-002  -7.0587e+007   3.3704e+005   5.1172e+007    0.0000    0.1420    0.0010   -0.0000    0.4450
                0.0461  -2.6676e-003   3.5930e-004   1.3220e-002  -5.1185e+007   2.4450e+005   5.2220e+007    0.0000    0.1030    0.0007   -0.0000    0.4541
                0.0692  -1.6564e-003   2.2312e-004   1.3401e-002  -3.1784e+007   1.5196e+005   5.2933e+007    0.0000    0.0640    0.0005   -0.0000    0.4603
                0.0923  -6.4529e-004   8.6930e-005   1.3497e-002  -1.2382e+007   5.9415e+004   5.3313e+007    0.0000    0.0249    0.0002   -0.0000    0.4636
                0.1153   3.6834e-004  -4.9583e-005   1.3509e-002   7.0677e+006  -3.3177e+004   5.3360e+007    0.0210   -0.0000    0.0000    0.0001    0.4640
                0.1384   1.3795e-003  -1.8577e-004   1.3436e-002   2.6470e+007  -1.2572e+005   5.3072e+007    0.0785   -0.0000    0.0000    0.0004    0.4615
                0.1614   2.3906e-003  -3.2196e-004   1.3279e-002   4.5871e+007  -2.1826e+005   5.2451e+007    0.1361   -0.0000    0.0000    0.0006    0.4561
                0.1845   3.4018e-003  -4.5814e-004   1.3037e-002   6.5273e+007  -3.1081e+005   5.1497e+007    0.1937   -0.0000    0.0000    0.0009    0.4478
                0.2076   4.4129e-003  -5.9433e-004   1.2711e-002   8.4675e+007  -4.0335e+005   5.0208e+007    0.2513   -0.0000    0.0000    0.0012    0.4366

               lamina:  2     
              matName:  (web-core)
                     s           e11           e22           e12           s11           s22           s12   s11_fcT   s11_fcC   s22_fcT   s22_fcC   s12_fcS
                   (m)         (m/m)         (m/m)         (rad)          (Pa)          (Pa)          (Pa)       (-)       (-)       (-)       (-)       (-)
                0.0000  -4.6997e-003   6.3297e-004   1.2605e-002  -1.0583e+006  -2.1633e+005   1.2353e+006    0.0000    0.2467    0.0000    0.0504    0.4188
                0.0231  -3.6886e-003   4.9678e-004   1.2955e-002  -8.3063e+005  -1.6978e+005   1.2696e+006    0.0000    0.1936    0.0000    0.0396    0.4304
                0.0461  -2.6774e-003   3.6060e-004   1.3220e-002  -6.0293e+005  -1.2324e+005   1.2956e+006    0.0000    0.1405    0.0000    0.0287    0.4392
                0.0692  -1.6663e-003   2.2441e-004   1.3401e-002  -3.7524e+005  -7.6702e+004   1.3133e+006    0.0000    0.0875    0.0000    0.0179    0.4452
                0.0923  -6.5517e-004   8.8224e-005   1.3497e-002  -1.4754e+005  -3.0161e+004   1.3227e+006    0.0000    0.0344    0.0000    0.0070    0.4484
                0.1153   3.6585e-004  -4.9257e-005   1.3509e-002   8.2387e+004   1.6844e+004   1.3239e+006    0.0192   -0.0000    0.0039   -0.0000    0.4488
                0.1384   1.3770e-003  -1.8544e-004   1.3436e-002   3.1009e+005   6.3385e+004   1.3167e+006    0.0723   -0.0000    0.0148   -0.0000    0.4464
                0.1614   2.3881e-003  -3.2163e-004   1.3279e-002   5.3778e+005   1.0993e+005   1.3013e+006    0.1254   -0.0000    0.0256   -0.0000    0.4411
                0.1845   3.3993e-003  -4.5782e-004   1.3037e-002   7.6548e+005   1.5647e+005   1.2776e+006    0.1784   -0.0000    0.0365   -0.0000    0.4331
                0.2076   4.4104e-003  -5.9400e-004   1.2711e-002   9.9318e+005   2.0301e+005   1.2457e+006    0.2315   -0.0000    0.0473   -0.0000    0.4223

               lamina:  3     
              matName:  (web-shell)
                     s           e11           e22           e12           s11           s22           s12   s11_fcT   s11_fcC   s22_fcT   s22_fcC   s12_fcS
                   (m)         (m/m)         (m/m)         (rad)          (Pa)          (Pa)          (Pa)       (-)       (-)       (-)       (-)       (-)
                0.0000  -4.7022e-003   6.3330e-004   1.2605e-002  -9.0227e+007   4.2983e+005   4.9791e+007    0.0000    0.1815    0.0013   -0.0000    0.4330
                0.0231  -3.6911e-003   4.9711e-004   1.2955e-002  -7.0825e+007   3.3729e+005   5.1172e+007    0.0000    0.1425    0.0010   -0.0000    0.4450
                0.0461  -2.6799e-003   3.6092e-004   1.3220e-002  -5.1423e+007   2.4474e+005   5.2220e+007    0.0000    0.1035    0.0007   -0.0000    0.4541
                0.0692  -1.6688e-003   2.2474e-004   1.3401e-002  -3.2021e+007   1.5220e+005   5.2933e+007    0.0000    0.0644    0.0005   -0.0000    0.4603
                0.0923  -6.5766e-004   8.8550e-005   1.3497e-002  -1.2619e+007   5.9657e+004   5.3313e+007    0.0000    0.0254    0.0002   -0.0000    0.4636
                0.1153   3.5597e-004  -4.7962e-005   1.3509e-002   6.8303e+006  -3.2935e+004   5.3360e+007    0.0203   -0.0000    0.0000    0.0001    0.4640
                0.1384   1.3671e-003  -1.8415e-004   1.3436e-002   2.6232e+007  -1.2548e+005   5.3072e+007    0.0778   -0.0000    0.0000    0.0004    0.4615
                0.1614   2.3782e-003  -3.2034e-004   1.3279e-002   4.5634e+007  -2.1802e+005   5.2451e+007    0.1354   -0.0000    0.0000    0.0006    0.4561
                0.1845   3.3894e-003  -4.5652e-004   1.3037e-002   6.5036e+007  -3.1056e+005   5.1497e+007    0.1930   -0.0000    0.0000    0.0009    0.4478
                0.2076   4.4005e-003  -5.9271e-004   1.2711e-002   8.4438e+007  -4.0311e+005   5.0208e+007    0.2506   -0.0000    0.0000    0.0012    0.4366

================================================================================
sec        =  23     
zSec       =  6.5970  (m)
nPanelsTop =  3      
nPanelsBot =  3      
nWebs      =  2      

    Top:  panel  nNode   nLam     xc_St    xc_End         b         t         E_eff         G_eff      nu_eff     density  buckleCrit
            (-)    (-)    (-)       (-)       (-)       (m)       (m)          (Pa)          (Pa)         (-)    (kg/m^3)         (-)
              1     18      3    0.0000    0.2348    0.2717    0.0065   1.8679e+010   3.8442e+009      0.1301   1629.6152      0.2651
              2      9      5    0.2348    0.4652    0.2278    0.0089   4.8861e+010   4.1472e+009      0.1562   1605.0754      0.4879
              3     28      3    0.4652    1.0000    0.5439    0.0077   1.5838e+010   3.2676e+009      0.1305   1409.5839      0.8978

            panel:  1     
           lam_num    nPlies        tPly      fibAng     matID  matName
               (-)       (-)         (m)       (deg)       (-)  (-)
                 1         1    0.003168      0.0000         2  (blade-shell)
                 2         1    0.000179      0.0000         5  (LEP-core)
                 3         1    0.003168      0.0000         2  (blade-shell)

               lamina:  1     
              matName:  (blade-shell)
                     s           e11           e22           e12           s11           s22           s12   s11_fcT   s11_fcC   s22_fcT   s22_fcC   s12_fcS
                   (m)         (m/m)         (m/m)         (rad)          (Pa)          (Pa)          (Pa)       (-)       (-)       (-)       (-)       (-)
                0.0000   3.6445e-004  -4.7403e-005   6.1150e-003   6.9973e+006  -4.9001e+002   2.4154e+007    0.0208   -0.0000    0.0000    0.0000    0.2100
                0.0031   2.3647e-004  -3.0758e-005   6.1184e-003   4.5402e+006  -3.1968e+002   2.4168e+007    0.0135   -0.0000    0.0000    0.0000    0.2102
                0.0123  -2.9244e-004   3.8026e-005   6.1185e-003  -5.6148e+006   1.8100e+002   2.4168e+007    0.0000    0.0113    0.0000   -0.0000    0.2102
                0.0238  -8.0771e-004   1.0504e-004   6.0989e-003  -1.5508e+007   7.7859e+002   2.4091e+007    0.0000    0.0312    0.0000   -0.0000    0.2095
                0.0335  -1.1739e-003   1.5267e-004   6.0664e-003  -2.2538e+007   1.1959e+003   2.3962e+007    0.0000    0.0453    0.0000   -0.0000    0.2084
                0.0465  -1.6135e-003   2.0985e-004   6.0037e-003  -3.0979e+007   1.7494e+003   2.3715e+007    0.0000    0.0623    0.0000   -0.0000    0.2062
                0.0598  -2.0050e-003   2.6076e-004   5.9173e-003  -3.8495e+007   2.2312e+003   2.3373e+007    0.0000    0.0775    0.0000   -0.0000    0.2032
                0.0750  -2.3928e-003   3.1120e-004   5.7956e-003  -4.5941e+007   2.7348e+003   2.2893e+007    0.0000    0.0924    0.0000   -0.0000    0.1991
                0.0920  -2.8254e-003   3.6747e-004   5.6311e-003  -5.4248e+007   3.2857e+003   2.2243e+007    0.0000    0.1092    0.0000   -0.0000    0.1934
                0.1094  -3.1635e-003   4.1144e-004   5.4356e-003  -6.0738e+007   3.7164e+003   2.1471e+007    0.0000    0.1222    0.0000   -0.0000    0.1867
                0.1288  -3.5296e-003   4.5907e-004   5.1900e-003  -6.7768e+007   4.1969e+003   2.0501e+007    0.0000    0.1364    0.0000   -0.0000    0.1783
                0.1493  -3.8727e-003   5.0368e-004   4.9009e-003  -7.4354e+007   4.6407e+003   1.9359e+007    0.0000    0.1496    0.0000   -0.0000    0.1683
                0.1710  -4.1711e-003   5.4250e-004   4.5671e-003  -8.0084e+007   5.0321e+003   1.8040e+007    0.0000    0.1611    0.0000   -0.0000    0.1569
                0.1941  -4.4907e-003   5.8407e-004   4.1813e-003  -8.6221e+007   5.4502e+003   1.6516e+007    0.0000    0.1735    0.0000   -0.0000    0.1436
                0.2179  -4.7297e-003   6.1515e-004   3.7563e-003  -9.0809e+007   5.7611e+003   1.4837e+007    0.0000    0.1827    0.0000   -0.0000    0.1290
                0.2431  -4.9595e-003   6.4505e-004   3.2842e-003  -9.5222e+007   6.0649e+003   1.2972e+007    0.0000    0.1916    0.0000   -0.0000    0.1128
                0.2693  -5.1752e-003   6.7310e-004   2.7681e-003  -9.9363e+007   6.3501e+003   1.0934e+007    0.0000    0.1999    0.0000   -0.0000    0.0951
                0.2717  -5.1908e-003   6.7513e-004   2.7193e-003  -9.9662e+007   6.3650e+003   1.0741e+007    0.0000    0.2005    0.0000   -0.0000    0.0934

               lamina:  2     
              matName:  (LEP-core)
                     s           e11           e22           e12           s11           s22           s12   s11_fcT   s11_fcC   s22_fcT   s22_fcC   s12_fcS
                   (m)         (m/m)         (m/m)         (rad)          (Pa)          (Pa)          (Pa)       (-)       (-)       (-)       (-)       (-)
                0.0000   3.7187e-004  -4.8368e-005   6.1150e-003   8.3875e+004   1.7521e+004   5.9927e+005    0.0196   -0.0000    0.0041   -0.0000    0.2031
                0.0031   2.4389e-004  -3.1723e-005   6.1184e-003   5.5010e+004   1.1492e+004   5.9960e+005    0.0128   -0.0000    0.0027   -0.0000    0.2033
                0.0123  -1.4017e-004   1.8232e-005   6.1185e-003  -3.1616e+004  -6.6046e+003   5.9961e+005    0.0000    0.0074    0.0000    0.0015    0.2033
                0.0238  -5.9093e-004   7.6861e-005   6.0989e-003  -1.3328e+005  -2.7843e+004   5.9769e+005    0.0000    0.0311    0.0000    0.0065    0.2026
                0.0335  -9.0585e-004   1.1782e-004   6.0664e-003  -2.0431e+005  -4.2681e+004   5.9451e+005    0.0000    0.0476    0.0000    0.0099    0.2015
                0.0465  -1.3224e-003   1.7200e-004   6.0037e-003  -2.9826e+005  -6.2305e+004   5.8837e+005    0.0000    0.0695    0.0000    0.0145    0.1994
                0.0598  -1.6851e-003   2.1918e-004   5.9173e-003  -3.8008e+005  -7.9399e+004   5.7990e+005    0.0000    0.0886    0.0000    0.0185    0.1966
                0.0750  -2.0638e-003   2.6843e-004   5.7956e-003  -4.6548e+005  -9.7239e+004   5.6797e+005    0.0000    0.1085    0.0000    0.0227    0.1925
                0.0920  -2.4782e-003   3.2233e-004   5.6311e-003  -5.5895e+005  -1.1676e+005   5.5185e+005    0.0000    0.1303    0.0000    0.0272    0.1871
                0.1094  -2.8022e-003   3.6447e-004   5.4356e-003  -6.3203e+005  -1.3203e+005   5.3269e+005    0.0000    0.1473    0.0000    0.0308    0.1806
                0.1288  -3.1633e-003   4.1145e-004   5.1900e-003  -7.1348e+005  -1.4904e+005   5.0862e+005    0.0000    0.1663    0.0000    0.0347    0.1724
                0.1493  -3.4970e-003   4.5485e-004   4.9009e-003  -7.8874e+005  -1.6477e+005   4.8029e+005    0.0000    0.1839    0.0000    0.0384    0.1628
                0.1710  -3.7912e-003   4.9311e-004   4.5671e-003  -8.5509e+005  -1.7863e+005   4.4757e+005    0.0000    0.1993    0.0000    0.0416    0.1517
                0.1941  -4.1054e-003   5.3398e-004   4.1813e-003  -9.2597e+005  -1.9343e+005   4.0977e+005    0.0000    0.2158    0.0000    0.0451    0.1389
                0.2179  -4.3392e-003   5.6438e-004   3.7563e-003  -9.7869e+005  -2.0445e+005   3.6812e+005    0.0000    0.2281    0.0000    0.0477    0.1248
                0.2431  -4.5674e-003   5.9408e-004   3.2842e-003  -1.0302e+006  -2.1520e+005   3.2185e+005    0.0000    0.2401    0.0000    0.0502    0.1091
                0.2693  -4.7818e-003   6.2196e-004   2.7681e-003  -1.0785e+006  -2.2530e+005   2.7127e+005    0.0000    0.2514    0.0000    0.0525    0.0920
                0.2717  -4.7931e-003   6.2343e-004   2.7193e-003  -1.0811e+006  -2.2584e+005   2.6649e+005    0.0000    0.2520    0.0000    0.0526    0.0903

               lamina:  3     
              matName:  (blade-shell)
                     s           e11           e22           e12           s11           s22           s12   s11_fcT   s11_fcC   s22_fcT   s22_fcC   s12_fcS
                   (m)         (m/m)         (m/m)         (rad)          (Pa)          (Pa)          (Pa)       (-)       (-)       (-)       (-)       (-)
                0.0000   5.0323e-004  -6.5445e-005   6.1150e-003   9.6619e+006  -4.9015e+002   2.4154e+007    0.0287   -0.0000    0.0000    0.0000    0.2100
                0.0031   3.7525e-004  -4.8799e-005   6.1184e-003   7.2048e+006  -3.1981e+002   2.4168e+007    0.0214   -0.0000    0.0000    0.0000    0.2102
                0.0123  -1.3157e-004   1.7114e-005   6.1185e-003  -2.5262e+006   1.8084e+002   2.4168e+007    0.0000    0.0051    0.0000   -0.0000    0.2102
                0.0238  -5.7868e-004   7.5269e-005   6.0989e-003  -1.1111e+007   7.7836e+002   2.4091e+007    0.0000    0.0224    0.0000   -0.0000    0.2095
                0.0335  -8.9071e-004   1.1585e-004   6.0664e-003  -1.7101e+007   1.1956e+003   2.3962e+007    0.0000    0.0344    0.0000   -0.0000    0.2084
                0.0465  -1.3059e-003   1.6986e-004   6.0037e-003  -2.5073e+007   1.7491e+003   2.3715e+007    0.0000    0.0504    0.0000   -0.0000    0.2062
                0.0598  -1.6671e-003   2.1683e-004   5.9173e-003  -3.2008e+007   2.2309e+003   2.3373e+007    0.0000    0.0644    0.0000   -0.0000    0.2032
                0.0750  -2.0452e-003   2.6602e-004   5.7956e-003  -3.9267e+007   2.7345e+003   2.2893e+007    0.0000    0.0790    0.0000   -0.0000    0.1991
                0.0920  -2.4586e-003   3.1978e-004   5.6311e-003  -4.7204e+007   3.2854e+003   2.2243e+007    0.0000    0.0950    0.0000   -0.0000    0.1934
                0.1094  -2.7818e-003   3.6182e-004   5.4356e-003  -5.3409e+007   3.7161e+003   2.1471e+007    0.0000    0.1075    0.0000   -0.0000    0.1867
                0.1288  -3.1426e-003   4.0875e-004   5.1900e-003  -6.0338e+007   4.1965e+003   2.0501e+007    0.0000    0.1214    0.0000   -0.0000    0.1783
                0.1493  -3.4758e-003   4.5209e-004   4.9009e-003  -6.6734e+007   4.6403e+003   1.9359e+007    0.0000    0.1343    0.0000   -0.0000    0.1683
                0.1710  -3.7697e-003   4.9032e-004   4.5671e-003  -7.2378e+007   5.0317e+003   1.8040e+007    0.0000    0.1456    0.0000   -0.0000    0.1569
                0.1941  -4.0837e-003   5.3116e-004   4.1813e-003  -7.8406e+007   5.4498e+003   1.6516e+007    0.0000    0.1578    0.0000   -0.0000    0.1436
                0.2179  -4.3171e-003   5.6152e-004   3.7563e-003  -8.2887e+007   5.7607e+003   1.4837e+007    0.0000    0.1668    0.0000   -0.0000    0.1290
                0.2431  -4.5453e-003   5.9120e-004   3.2842e-003  -8.7269e+007   6.0644e+003   1.2972e+007    0.0000    0.1756    0.0000   -0.0000    0.1128
                0.2693  -4.7595e-003   6.1907e-004   2.7681e-003  -9.1382e+007   6.3497e+003   1.0934e+007    0.0000    0.1839    0.0000   -0.0000    0.0951
                0.2717  -4.7706e-003   6.2051e-004   2.7193e-003  -9.1596e+007   6.3646e+003   1.0741e+007    0.0000    0.1843    0.0000   -0.0000    0.0934

            panel:  2     
           lam_num    nPlies        tPly      fibAng     matID  matName
               (-)       (-)         (m)       (deg)       (-)  (-)
                 1         1    0.003168      0.0000         2  (blade-shell)
                 2         1    0.001279      0.0000         3  (spar-uni)
                 3         1    0.000047      0.0000         4  (spar-core)
                 4         1    0.001279      0.0000         3  (spar-uni)
                 5         1    0.003168      0.0000         2  (blade-shell)

               lamina:  1     
              matName:  (blade-shell)
                     s           e11           e22           e12           s11           s22           s12   s11_fcT   s11_fcC   s22_fcT   s22_fcC   s12_fcS
                   (m)         (m/m)         (m/m)         (rad)          (Pa)          (Pa)          (Pa)       (-)       (-)       (-)       (-)       (-)
                0.0000  -6.0241e-003   9.0973e-004   6.5649e-003  -1.1534e+008   2.4725e+006   2.5931e+007    0.0000    0.2321    0.0073   -0.0000    0.2255
                0.0243  -6.1404e-003   9.2790e-004   5.3741e-003  -1.1757e+008   2.5321e+006   2.1228e+007    0.0000    0.2366    0.0075   -0.0000    0.1846
                0.0521  -6.2772e-003   9.4918e-004   3.9793e-003  -1.2018e+008   2.6003e+006   1.5718e+007    0.0000    0.2418    0.0077   -0.0000    0.1367
                0.0804  -6.3394e-003   9.5882e-004   2.5295e-003  -1.2138e+008   2.6305e+006   9.9917e+006    0.0000    0.2442    0.0078   -0.0000    0.0869
                0.1095  -6.3427e-003   9.5932e-004   1.0305e-003  -1.2144e+008   2.6320e+006   4.0703e+006    0.0000    0.2443    0.0078   -0.0000    0.0354
                0.1392  -6.3444e-003   9.5962e-004   4.9331e-004  -1.2147e+008   2.6336e+006   1.9486e+006    0.0000    0.2444    0.0078   -0.0000    0.0169
                0.1693  -6.2142e-003   9.3939e-004   2.0263e-003  -1.1898e+008   2.5691e+006   8.0039e+006    0.0000    0.2394    0.0076   -0.0000    0.0696
                0.2001  -6.0776e-003   9.1810e-004   3.5452e-003  -1.1636e+008   2.5001e+006   1.4003e+007    0.0000    0.2341    0.0074   -0.0000    0.1218
                0.2278  -5.9239e-003   8.9413e-004   4.8738e-003  -1.1342e+008   2.4223e+006   1.9252e+007    0.0000    0.2282    0.0072   -0.0000    0.1674

               lamina:  2     
              matName:  (spar-uni)
                     s           e11           e22           e12           s11           s22           s12   s11_fcT   s11_fcC   s22_fcT   s22_fcC   s12_fcS
                   (m)         (m/m)         (m/m)         (rad)          (Pa)          (Pa)          (Pa)       (-)       (-)       (-)       (-)       (-)
                0.0000  -5.1068e-003   7.8873e-004   6.5649e-003  -6.3017e+008  -6.5559e+006   3.0921e+007    0.0000    0.6302    0.0000    0.1094    0.3002
                0.0243  -5.2231e-003   8.0690e-004   5.3741e-003  -6.4452e+008  -6.7034e+006   2.5312e+007    0.0000    0.6445    0.0000    0.1119    0.2457
                0.0521  -5.3571e-003   8.2782e-004   3.9793e-003  -6.6106e+008  -6.8738e+006   1.8743e+007    0.0000    0.6611    0.0000    0.1148    0.1820
                0.0804  -5.4168e-003   8.3711e-004   2.5295e-003  -6.6841e+008  -6.9496e+006   1.1914e+007    0.0000    0.6684    0.0000    0.1160    0.1157
                0.1095  -5.4197e-003   8.3757e-004   1.0305e-003  -6.6878e+008  -6.9534e+006   4.8535e+006    0.0000    0.6688    0.0000    0.1161    0.0471
                0.1392  -5.4225e-003   8.3801e-004   4.9331e-004  -6.6913e+008  -6.9569e+006   2.3235e+006    0.0000    0.6691    0.0000    0.1161    0.0226
                0.1693  -5.2957e-003   8.1823e-004   2.0263e-003  -6.5348e+008  -6.7957e+006   9.5439e+006    0.0000    0.6535    0.0000    0.1135    0.0927
                0.2001  -5.1605e-003   7.9713e-004   3.5452e-003  -6.3680e+008  -6.6241e+006   1.6698e+007    0.0000    0.6368    0.0000    0.1106    0.1621
                0.2278  -5.0083e-003   7.7336e-004   4.8738e-003  -6.1802e+008  -6.4308e+006   2.2956e+007    0.0000    0.6180    0.0000    0.1074    0.2229

               lamina:  3     
              matName:  (spar-core)
                     s           e11           e22           e12           s11           s22           s12   s11_fcT   s11_fcC   s22_fcT   s22_fcC   s12_fcS
                   (m)         (m/m)         (m/m)         (rad)          (Pa)          (Pa)          (Pa)       (-)       (-)       (-)       (-)       (-)
                0.0000  -4.7365e-003   7.3989e-004   6.5649e-003  -1.0587e+006  -1.9399e+005   6.4336e+005    0.0000    0.2468    0.0000    0.0452    0.2181
                0.0243  -4.8528e-003   7.5805e-004   5.3741e-003  -1.0847e+006  -1.9875e+005   5.2666e+005    0.0000    0.2528    0.0000    0.0463    0.1785
                0.0521  -4.9857e-003   7.7882e-004   3.9793e-003  -1.1144e+006  -2.0419e+005   3.8997e+005    0.0000    0.2598    0.0000    0.0476    0.1322
                0.0804  -5.0443e-003   7.8797e-004   2.5295e-003  -1.1275e+006  -2.0659e+005   2.4789e+005    0.0000    0.2628    0.0000    0.0482    0.0840
                0.1095  -5.0471e-003   7.8842e-004   1.0305e-003  -1.1281e+006  -2.0671e+005   1.0098e+005    0.0000    0.2630    0.0000    0.0482    0.0342
                0.1392  -5.0503e-003   7.8892e-004   4.9331e-004  -1.1288e+006  -2.0684e+005   4.8344e+004    0.0000    0.2631    0.0000    0.0482    0.0164
                0.1693  -4.9249e-003   7.6932e-004   2.0263e-003  -1.1008e+006  -2.0170e+005   1.9858e+005    0.0000    0.2566    0.0000    0.0470    0.0673
                0.2001  -4.7903e-003   7.4830e-004   3.5452e-003  -1.0707e+006  -1.9619e+005   3.4742e+005    0.0000    0.2496    0.0000    0.0457    0.1178
                0.2278  -4.6387e-003   7.2461e-004   4.8738e-003  -1.0368e+006  -1.8998e+005   4.7764e+005    0.0000    0.2417    0.0000    0.0443    0.1619

               lamina:  4     
              matName:  (spar-uni)
                     s           e11           e22           e12           s11           s22           s12   s11_fcT   s11_fcC   s22_fcT   s22_fcC   s12_fcS
                   (m)         (m/m)         (m/m)         (rad)          (Pa)          (Pa)          (Pa)       (-)       (-)       (-)       (-)       (-)
                0.0000  -4.7229e-003   7.3810e-004   6.5649e-003  -5.8278e+008  -5.9917e+006   3.0921e+007    0.0000    0.5828    0.0000    0.1000    0.3002
                0.0243  -4.8392e-003   7.5626e-004   5.3741e-003  -5.9712e+008  -6.1392e+006   2.5312e+007    0.0000    0.5971    0.0000    0.1025    0.2457
                0.0521  -4.9721e-003   7.7703e-004   3.9793e-003  -6.1352e+008  -6.3078e+006   1.8743e+007    0.0000    0.6135    0.0000    0.1053    0.1820
                0.0804  -5.0306e-003   7.8617e-004   2.5295e-003  -6.2074e+008  -6.3821e+006   1.1914e+007    0.0000    0.6207    0.0000    0.1065    0.1157
                0.1095  -5.0335e-003   7.8662e-004   1.0305e-003  -6.2110e+008  -6.3857e+006   4.8535e+006    0.0000    0.6211    0.0000    0.1066    0.0471
                0.1392  -5.0367e-003   7.8712e-004   4.9331e-004  -6.2149e+008  -6.3898e+006   2.3235e+006    0.0000    0.6215    0.0000    0.1067    0.0226
                0.1693  -4.9113e-003   7.6753e-004   2.0263e-003  -6.0602e+008  -6.2307e+006   9.5439e+006    0.0000    0.6060    0.0000    0.1040    0.0927
                0.2001  -4.7768e-003   7.4651e-004   3.5452e-003  -5.8942e+008  -6.0600e+006   1.6698e+007    0.0000    0.5894    0.0000    0.1012    0.1621
                0.2278  -4.6252e-003   7.2282e-004   4.8738e-003  -5.7071e+008  -5.8676e+006   2.2956e+007    0.0000    0.5707    0.0000    0.0980    0.2229

               lamina:  5     
              matName:  (blade-shell)
                     s           e11           e22           e12           s11           s22           s12   s11_fcT   s11_fcC   s22_fcT   s22_fcC   s12_fcS
                   (m)         (m/m)         (m/m)         (rad)          (Pa)          (Pa)          (Pa)       (-)       (-)       (-)       (-)       (-)
                0.0000  -4.3526e-003   6.8925e-004   6.5649e-003  -8.3257e+007   2.4102e+006   2.5931e+007    0.0000    0.1675    0.0072   -0.0000    0.2255
                0.0243  -4.4689e-003   7.0741e-004   5.3741e-003  -8.5481e+007   2.4698e+006   2.1228e+007    0.0000    0.1720    0.0073   -0.0000    0.1846
                0.0521  -4.6006e-003   7.2803e-004   3.9793e-003  -8.8002e+007   2.5379e+006   1.5718e+007    0.0000    0.1771    0.0075   -0.0000    0.1367
                0.0804  -4.6581e-003   7.3704e-004   2.5295e-003  -8.9102e+007   2.5678e+006   9.9917e+006    0.0000    0.1793    0.0076   -0.0000    0.0869
                0.1095  -4.6609e-003   7.3747e-004   1.0305e-003  -8.9155e+007   2.5693e+006   4.0703e+006    0.0000    0.1794    0.0076   -0.0000    0.0354
                0.1392  -4.6645e-003   7.3803e-004   4.9331e-004  -8.9224e+007   2.5710e+006   1.9486e+006    0.0000    0.1795    0.0076   -0.0000    0.0169
                0.1693  -4.5405e-003   7.1862e-004   2.0263e-003  -8.6852e+007   2.5067e+006   8.0039e+006    0.0000    0.1748    0.0074   -0.0000    0.0696
                0.2001  -4.4066e-003   6.9768e-004   3.5452e-003  -8.4289e+007   2.4378e+006   1.4003e+007    0.0000    0.1696    0.0072   -0.0000    0.1218
                0.2278  -4.2556e-003   6.7407e-004   4.8738e-003  -8.1400e+007   2.3601e+006   1.9252e+007    0.0000    0.1638    0.0070   -0.0000    0.1674

            panel:  3     
           lam_num    nPlies        tPly      fibAng     matID  matName
               (-)       (-)         (m)       (deg)       (-)  (-)
                 1         1    0.003168      0.0000         2  (blade-shell)
                 2         1    0.001364      0.0000         6  (TEP-core)
                 3         1    0.003168      0.0000         2  (blade-shell)

               lamina:  1     
              matName:  (blade-shell)
                     s           e11           e22           e12           s11           s22           s12   s11_fcT   s11_fcC   s22_fcT   s22_fcC   s12_fcS
                   (m)         (m/m)         (m/m)         (rad)          (Pa)          (Pa)          (Pa)       (-)       (-)       (-)       (-)       (-)
                0.0000  -5.0698e-003   6.6150e-004   7.2139e-004  -9.7334e+007   4.7258e+004   2.8495e+006    0.0000    0.1958    0.0001   -0.0000    0.0248
                0.0031  -5.0497e-003   6.5887e-004   6.6006e-004  -9.6948e+007   4.7085e+004   2.6072e+006    0.0000    0.1951    0.0001   -0.0000    0.0227
                0.0346  -4.8043e-003   6.2684e-004   6.5171e-005  -9.2237e+007   4.4605e+004   2.5742e+005    0.0000    0.1856    0.0001   -0.0000    0.0022
                0.0660  -4.5582e-003   5.9472e-004   4.9598e-004  -8.7511e+007   4.2129e+004   1.9591e+006    0.0000    0.1761    0.0001   -0.0000    0.0170
                0.0975  -4.2578e-003   5.5552e-004   1.0222e-003  -8.1745e+007   3.9114e+004   4.0376e+006    0.0000    0.1645    0.0001   -0.0000    0.0351
                0.1289  -3.9357e-003   5.1348e-004   1.5062e-003  -7.5561e+007   3.5864e+004   5.9496e+006    0.0000    0.1520    0.0001   -0.0000    0.0517
                0.1599  -3.6141e-003   4.7151e-004   1.9421e-003  -6.9387e+007   3.2628e+004   7.6713e+006    0.0000    0.1396    0.0001   -0.0000    0.0667
                0.1907  -3.2494e-003   4.2390e-004   2.3303e-003  -6.2384e+007   2.8955e+004   9.2047e+006    0.0000    0.1255    0.0001   -0.0000    0.0800
                0.2209  -2.8929e-003   3.7737e-004   2.6654e-003  -5.5540e+007   2.5351e+004   1.0528e+007    0.0000    0.1118    0.0001   -0.0000    0.0915
                0.2504  -2.5357e-003   3.3075e-004   2.9481e-003  -4.8682e+007   2.1745e+004   1.1645e+007    0.0000    0.0980    0.0001   -0.0000    0.1013
                0.2791  -2.1767e-003   2.8390e-004   3.1801e-003  -4.1791e+007   1.8117e+004   1.2561e+007    0.0000    0.0841    0.0001   -0.0000    0.1092
                0.3069  -1.8303e-003   2.3869e-004   3.3629e-003  -3.5141e+007   1.4611e+004   1.3283e+007    0.0000    0.0707    0.0000   -0.0000    0.1155
                0.3336  -1.4991e-003   1.9546e-004   3.5003e-003  -2.8781e+007   1.1257e+004   1.3826e+007    0.0000    0.0579    0.0000   -0.0000    0.1202
                0.3591  -1.1831e-003   1.5421e-004   3.5966e-003  -2.2714e+007   8.0574e+003   1.4207e+007    0.0000    0.0457    0.0000   -0.0000    0.1235
                0.3833  -8.8593e-004   1.1543e-004   3.6566e-003  -1.7009e+007   5.0417e+003   1.4444e+007    0.0000    0.0342    0.0000   -0.0000    0.1256
                0.4061  -6.1848e-004   8.0521e-005   3.6858e-003  -1.1874e+007   2.3276e+003   1.4559e+007    0.0000    0.0239    0.0000   -0.0000    0.1266
                0.4273  -3.6829e-004   4.7868e-005   3.6897e-003  -7.0713e+006  -2.9704e+002   1.4574e+007    0.0000    0.0142    0.0000    0.0000    0.1267
                0.4470   1.8306e-004  -2.3929e-005   3.6736e-003   3.5145e+006  -2.5525e+003   1.4511e+007    0.0104   -0.0000    0.0000    0.0000    0.1262
                0.4650   3.7868e-004  -4.9461e-005   3.6430e-003   7.2702e+006  -4.5334e+003   1.4390e+007    0.0216   -0.0000    0.0000    0.0000    0.1251
                0.4813   5.5595e-004  -7.2598e-005   3.6023e-003   1.0673e+007  -6.3293e+003   1.4229e+007    0.0317   -0.0000    0.0000    0.0000    0.1237
                0.4958   7.0075e-004  -9.1496e-005   3.5563e-003   1.3453e+007  -7.7969e+003   1.4047e+007    0.0399   -0.0000    0.0000    0.0000    0.1222
                0.5084   8.2578e-004  -1.0782e-004   3.5090e-003   1.5854e+007  -9.0628e+003   1.3860e+007    0.0470   -0.0000    0.0000    0.0000    0.1205
                0.5192   9.3079e-004  -1.2152e-004   3.4633e-003   1.7870e+007  -1.0127e+004   1.3680e+007    0.0530   -0.0000    0.0000    0.0000    0.1190
                0.5281   1.0129e-003  -1.3224e-004   3.4222e-003   1.9447e+007  -1.0959e+004   1.3518e+007    0.0577   -0.0000    0.0000    0.0000    0.1175
                0.5350   1.0770e-003  -1.4060e-004   3.3881e-003   2.0677e+007  -1.1607e+004   1.3383e+007    0.0614   -0.0000    0.0000    0.0000    0.1164
                0.5399   1.1248e-003  -1.4685e-004   3.3625e-003   2.1595e+007  -1.2090e+004   1.3282e+007    0.0641   -0.0000    0.0000    0.0000    0.1155
                0.5429   1.1545e-003  -1.5072e-004   3.3466e-003   2.2164e+007  -1.2389e+004   1.3219e+007    0.0658   -0.0000    0.0000    0.0000    0.1149
                0.5439   1.1644e-003  -1.5201e-004   3.3412e-003   2.2355e+007  -1.2490e+004   1.3198e+007    0.0663   -0.0000    0.0000    0.0000    0.1148

               lamina:  2     
              matName:  (TEP-core)
                     s           e11           e22           e12           s11           s22           s12   s11_fcT   s11_fcC   s22_fcT   s22_fcC   s12_fcS
                   (m)         (m/m)         (m/m)         (rad)          (Pa)          (Pa)          (Pa)       (-)       (-)       (-)       (-)       (-)
                0.0000  -4.7314e-003   6.1750e-004   7.2139e-004  -1.0670e+006  -2.2244e+005   7.0696e+004    0.0000    0.2487    0.0000    0.0518    0.0240
                0.0031  -4.7138e-003   6.1521e-004   6.6006e-004  -1.0630e+006  -2.2161e+005   6.4686e+004    0.0000    0.2478    0.0000    0.0517    0.0219
                0.0346  -4.4687e-003   5.8322e-004   6.5171e-005  -1.0078e+006  -2.1009e+005   6.3867e+003    0.0000    0.2349    0.0000    0.0490    0.0022
                0.0660  -4.2239e-003   5.5126e-004   4.9598e-004  -9.5255e+005  -1.9858e+005   4.8606e+004    0.0000    0.2220    0.0000    0.0463    0.0165
                0.0975  -3.9256e-003   5.1233e-004   1.0222e-003  -8.8529e+005  -1.8456e+005   1.0017e+005    0.0000    0.2064    0.0000    0.0430    0.0340
                0.1289  -3.6043e-003   4.7039e-004   1.5062e-003  -8.1282e+005  -1.6945e+005   1.4761e+005    0.0000    0.1895    0.0000    0.0395    0.0500
                0.1599  -3.2843e-003   4.2863e-004   1.9421e-003  -7.4066e+005  -1.5441e+005   1.9033e+005    0.0000    0.1726    0.0000    0.0360    0.0645
                0.1907  -2.9211e-003   3.8123e-004   2.3303e-003  -6.5876e+005  -1.3733e+005   2.2837e+005    0.0000    0.1536    0.0000    0.0320    0.0774
                0.2209  -2.5650e-003   3.3474e-004   2.6654e-003  -5.7844e+005  -1.2059e+005   2.6121e+005    0.0000    0.1348    0.0000    0.0281    0.0885
                0.2504  -2.2085e-003   2.8822e-004   2.9481e-003  -4.9806e+005  -1.0383e+005   2.8892e+005    0.0000    0.1161    0.0000    0.0242    0.0979
                0.2791  -1.8501e-003   2.4143e-004   3.1801e-003  -4.1722e+005  -8.6981e+004   3.1165e+005    0.0000    0.0973    0.0000    0.0203    0.1056
                0.3069  -1.5036e-003   1.9621e-004   3.3629e-003  -3.3909e+005  -7.0695e+004   3.2956e+005    0.0000    0.0790    0.0000    0.0165    0.1117
                0.3336  -1.1723e-003   1.5297e-004   3.5003e-003  -2.6437e+005  -5.5118e+004   3.4303e+005    0.0000    0.0616    0.0000    0.0128    0.1163
                0.3591  -8.5614e-004   1.1171e-004   3.5966e-003  -1.9307e+005  -4.0256e+004   3.5247e+005    0.0000    0.0450    0.0000    0.0094    0.1195
                0.3833  -5.5831e-004   7.2834e-005   3.6566e-003  -1.2591e+005  -2.6255e+004   3.5835e+005    0.0000    0.0293    0.0000    0.0061    0.1215
                0.4061  -2.9026e-004   3.7848e-005   3.6858e-003  -6.5459e+004  -1.3654e+004   3.6121e+005    0.0000    0.0153    0.0000    0.0032    0.1224
                0.4273   1.0196e-004  -1.3272e-005   3.6897e-003   2.2997e+004   4.8017e+003   3.6159e+005    0.0054   -0.0000    0.0011   -0.0000    0.1226
                0.4470   3.2502e-004  -4.2385e-005   3.6736e-003   7.3299e+004   1.5288e+004   3.6002e+005    0.0171   -0.0000    0.0036   -0.0000    0.1220
                0.4650   5.2085e-004  -6.7944e-005   3.6430e-003   1.1746e+005   2.4494e+004   3.5701e+005    0.0274   -0.0000    0.0057   -0.0000    0.1210
                0.4813   6.9847e-004  -9.1127e-005   3.6023e-003   1.5752e+005   3.2844e+004   3.5303e+005    0.0367   -0.0000    0.0077   -0.0000    0.1197
                0.4958   8.4369e-004  -1.1008e-004   3.5563e-003   1.9027e+005   3.9671e+004   3.4852e+005    0.0444   -0.0000    0.0092   -0.0000    0.1181
                0.5084   9.6882e-004  -1.2641e-004   3.5090e-003   2.1849e+005   4.5554e+004   3.4388e+005    0.0509   -0.0000    0.0106   -0.0000    0.1166
                0.5192   1.0741e-003  -1.4015e-004   3.4633e-003   2.4222e+005   5.0501e+004   3.3940e+005    0.0565   -0.0000    0.0118   -0.0000    0.1151
                0.5281   1.1564e-003  -1.5090e-004   3.4222e-003   2.6079e+005   5.4372e+004   3.3537e+005    0.0608   -0.0000    0.0127   -0.0000    0.1137
                0.5350   1.2203e-003  -1.5924e-004   3.3881e-003   2.7521e+005   5.7377e+004   3.3203e+005    0.0642   -0.0000    0.0134   -0.0000    0.1126
                0.5399   1.2679e-003  -1.6545e-004   3.3625e-003   2.8594e+005   5.9614e+004   3.2953e+005    0.0667   -0.0000    0.0139   -0.0000    0.1117
                0.5429   1.2974e-003  -1.6930e-004   3.3466e-003   2.9259e+005   6.1002e+004   3.2797e+005    0.0682   -0.0000    0.0142   -0.0000    0.1112
                0.5439   1.3074e-003  -1.7060e-004   3.3412e-003   2.9483e+005   6.1468e+004   3.2744e+005    0.0687   -0.0000    0.0143   -0.0000    0.1110

               lamina:  3     
              matName:  (blade-shell)
                     s           e11           e22           e12           s11           s22           s12   s11_fcT   s11_fcC   s22_fcT   s22_fcC   s12_fcS
                   (m)         (m/m)         (m/m)         (rad)          (Pa)          (Pa)          (Pa)       (-)       (-)       (-)       (-)       (-)
                0.0000  -4.5857e-003   5.9856e-004   7.2139e-004  -8.8040e+007   4.7131e+004   2.8495e+006    0.0000    0.1771    0.0001   -0.0000    0.0248
                0.0031  -4.5692e-003   5.9640e-004   6.6006e-004  -8.7723e+007   4.6958e+004   2.6072e+006    0.0000    0.1765    0.0001   -0.0000    0.0227
                0.0346  -4.3243e-003   5.6443e-004   6.5171e-005  -8.3020e+007   4.4478e+004   2.5742e+005    0.0000    0.1670    0.0001   -0.0000    0.0022
                0.0660  -4.0800e-003   5.3255e-004   4.9598e-004  -7.8330e+007   4.2003e+004   1.9591e+006    0.0000    0.1576    0.0001   -0.0000    0.0170
                0.0975  -3.7826e-003   4.9373e-004   1.0222e-003  -7.2621e+007   3.8989e+004   4.0376e+006    0.0000    0.1461    0.0001   -0.0000    0.0351
                0.1289  -3.4616e-003   4.5184e-004   1.5062e-003  -6.6458e+007   3.5739e+004   5.9496e+006    0.0000    0.1337    0.0001   -0.0000    0.0517
                0.1599  -3.1423e-003   4.1016e-004   1.9421e-003  -6.0328e+007   3.2503e+004   7.6713e+006    0.0000    0.1214    0.0001   -0.0000    0.0667
                0.1907  -2.7798e-003   3.6285e-004   2.3303e-003  -5.3368e+007   2.8831e+004   9.2047e+006    0.0000    0.1074    0.0001   -0.0000    0.0800
                0.2209  -2.4238e-003   3.1638e-004   2.6654e-003  -4.6533e+007   2.5227e+004   1.0528e+007    0.0000    0.0936    0.0001   -0.0000    0.0915
                0.2504  -2.0677e-003   2.6991e-004   2.9481e-003  -3.9697e+007   2.1621e+004   1.1645e+007    0.0000    0.0799    0.0001   -0.0000    0.1013
                0.2791  -1.7094e-003   2.2314e-004   3.1801e-003  -3.2818e+007   1.7994e+004   1.2561e+007    0.0000    0.0660    0.0001   -0.0000    0.1092
                0.3069  -1.3629e-003   1.7792e-004   3.3629e-003  -2.6167e+007   1.4488e+004   1.3283e+007    0.0000    0.0526    0.0000   -0.0000    0.1155
                0.3336  -1.0316e-003   1.3467e-004   3.5003e-003  -1.9805e+007   1.1134e+004   1.3826e+007    0.0000    0.0398    0.0000   -0.0000    0.1202
                0.3591  -7.1537e-004   9.3404e-005   3.5966e-003  -1.3734e+007   7.9342e+003   1.4207e+007    0.0000    0.0276    0.0000   -0.0000    0.1235
                0.3833  -4.1724e-004   5.4493e-005   3.6566e-003  -8.0104e+006   4.9183e+003   1.4444e+007    0.0000    0.0161    0.0000   -0.0000    0.1256
                0.4061   1.7929e-004  -2.3200e-005   3.6858e-003   3.4427e+006   2.2039e+003   1.4559e+007    0.0102   -0.0000    0.0000   -0.0000    0.1266
                0.4273   4.3068e-004  -5.6010e-005   3.6897e-003   8.2689e+006  -4.2095e+002   1.4574e+007    0.0245   -0.0000    0.0000    0.0000    0.1267
                0.4470   6.5471e-004  -8.5249e-005   3.6736e-003   1.2570e+007  -2.6767e+003   1.4511e+007    0.0373   -0.0000    0.0000    0.0000    0.1262
                0.4650   8.5101e-004  -1.1087e-004   3.6430e-003   1.6339e+007  -4.6579e+003   1.4390e+007    0.0485   -0.0000    0.0000    0.0000    0.1251
                0.4813   1.0295e-003  -1.3416e-004   3.6023e-003   1.9765e+007  -6.4541e+003   1.4229e+007    0.0586   -0.0000    0.0000    0.0000    0.1237
                0.4958   1.1757e-003  -1.5324e-004   3.5563e-003   2.2572e+007  -7.9220e+003   1.4047e+007    0.0670   -0.0000    0.0000    0.0000    0.1222
                0.5084   1.3010e-003  -1.6960e-004   3.5090e-003   2.4979e+007  -9.1881e+003   1.3860e+007    0.0741   -0.0000    0.0000    0.0000    0.1205
                0.5192   1.4068e-003  -1.8341e-004   3.4633e-003   2.7009e+007  -1.0252e+004   1.3680e+007    0.0801   -0.0000    0.0000    0.0000    0.1190
                0.5281   1.4896e-003  -1.9422e-004   3.4222e-003   2.8599e+007  -1.1085e+004   1.3518e+007    0.0849   -0.0000    0.0000    0.0000    0.1175
                0.5350   1.5532e-003  -2.0252e-004   3.3881e-003   2.9821e+007  -1.1732e+004   1.3383e+007    0.0885   -0.0000    0.0000    0.0000    0.1164
                0.5399   1.6002e-003  -2.0866e-004   3.3625e-003   3.0723e+007  -1.2215e+004   1.3282e+007    0.0912   -0.0000    0.0000    0.0000    0.1155
                0.5429   1.6294e-003  -2.1247e-004   3.3466e-003   3.1284e+007  -1.2514e+004   1.3219e+007    0.0928   -0.0000    0.0000    0.0000    0.1149
                0.5439   1.6394e-003  -2.1376e-004   3.3412e-003   3.1474e+007  -1.2615e+004   1.3198e+007    0.0934   -0.0000    0.0000    0.0000    0.1148

  Bottom:  panel  nNode   nLam     xc_St    xc_End         b         t         E_eff         G_eff      nu_eff     density  buckleCrit
            (-)    (-)    (-)       (-)       (-)       (m)       (m)          (Pa)          (Pa)         (-)    (kg/m^3)         (-)
              1     18      3    0.0000    0.2348    0.2594    0.0065   1.8679e+010   3.8442e+009      0.1301   1629.6152      0.0807
              2      9      5    0.2348    0.4652    0.2278    0.0089   4.8861e+010   4.1472e+009      0.1562   1605.0754      0.0056
              3     28      3    0.4652    1.0000    0.5391    0.0077   1.5838e+010   3.2676e+009      0.1305   1409.5839      0.1942

            panel:  1     
           lam_num    nPlies        tPly      fibAng     matID  matName
               (-)       (-)         (m)       (deg)       (-)  (-)
                 1         1    0.003168      0.0000         2  (blade-shell)
                 2         1    0.000179      0.0000         5  (LEP-core)
                 3         1    0.003168      0.0000         2  (blade-shell)

               lamina:  1     
              matName:  (blade-shell)
                     s           e11           e22           e12           s11           s22           s12   s11_fcT   s11_fcC   s22_fcT   s22_fcC   s12_fcS
                   (m)         (m/m)         (m/m)         (rad)          (Pa)          (Pa)          (Pa)       (-)       (-)       (-)       (-)       (-)
                0.0000   4.1085e-004  -5.3429e-005   6.1150e-003   7.8882e+006  -3.6683e+002   2.4154e+007    0.0234   -0.0000    0.0000    0.0000    0.2100
                0.0028   5.2626e-004  -6.8440e-005   6.1117e-003   1.0104e+007  -5.2044e+002   2.4141e+007    0.0300   -0.0000    0.0000    0.0000    0.2099
                0.0111   8.8780e-004  -1.1546e-004   6.0939e-003   1.7046e+007  -9.6975e+002   2.4071e+007    0.0506   -0.0000    0.0000    0.0000    0.2093
                0.0213   1.3597e-003  -1.7683e-004   6.0562e-003   2.6105e+007  -1.5009e+003   2.3922e+007    0.0775   -0.0000    0.0000    0.0000    0.2080
                0.0302   1.6906e-003  -2.1987e-004   6.0105e-003   3.2459e+007  -1.8673e+003   2.3741e+007    0.0963   -0.0000    0.0000    0.0000    0.2064
                0.0421   2.0843e-003  -2.7107e-004   5.9337e-003   4.0017e+007  -2.3564e+003   2.3438e+007    0.1187   -0.0000    0.0000    0.0000    0.2038
                0.0544   2.4210e-003  -3.1488e-004   5.8368e-003   4.6484e+007  -2.7629e+003   2.3055e+007    0.1379   -0.0000    0.0000    0.0000    0.2005
                0.0685   2.7439e-003  -3.5687e-004   5.7072e-003   5.2683e+007  -3.1803e+003   2.2544e+007    0.1563   -0.0000    0.0000    0.0000    0.1960
                0.0843   3.1029e-003  -4.0356e-004   5.5396e-003   5.9575e+007  -3.6365e+003   2.1882e+007    0.1768   -0.0000    0.0000    0.0000    0.1903
                0.1010   3.3782e-003  -4.3937e-004   5.3423e-003   6.4862e+007  -3.9872e+003   2.1102e+007    0.1925   -0.0000    0.0000    0.0000    0.1835
                0.1195   3.6763e-003  -4.7815e-004   5.1005e-003   7.0585e+007  -4.3785e+003   2.0147e+007    0.2095   -0.0000    0.0000    0.0000    0.1752
                0.1393   3.9531e-003  -5.1415e-004   4.8193e-003   7.5900e+007  -4.7371e+003   1.9036e+007    0.2252   -0.0000    0.0000    0.0000    0.1655
                0.1604   4.1910e-003  -5.4509e-004   4.4970e-003   8.0466e+007  -5.0494e+003   1.7763e+007    0.2388   -0.0000    0.0000    0.0000    0.1545
                0.1829   4.4455e-003  -5.7819e-004   4.1296e-003   8.5353e+007  -5.3830e+003   1.6312e+007    0.2533   -0.0000    0.0000    0.0000    0.1418
                0.2063   4.6343e-003  -6.0275e-004   3.7245e-003   8.8978e+007  -5.6295e+003   1.4712e+007    0.2640   -0.0000    0.0000    0.0000    0.1279
                0.2311   4.8158e-003  -6.2636e-004   3.2777e-003   9.2463e+007  -5.8696e+003   1.2947e+007    0.2744   -0.0000    0.0000    0.0000    0.1126
                0.2570   4.9851e-003  -6.4837e-004   2.7919e-003   9.5713e+007  -6.0936e+003   1.1028e+007    0.2840   -0.0000    0.0000    0.0000    0.0959
                0.2594   4.9965e-003  -6.4986e-004   2.7451e-003   9.5932e+007  -6.1050e+003   1.0843e+007    0.2847   -0.0000    0.0000    0.0000    0.0943

               lamina:  2     
              matName:  (LEP-core)
                     s           e11           e22           e12           s11           s22           s12   s11_fcT   s11_fcC   s22_fcT   s22_fcC   s12_fcS
                   (m)         (m/m)         (m/m)         (rad)          (Pa)          (Pa)          (Pa)       (-)       (-)       (-)       (-)       (-)
                0.0000   2.7922e-004  -3.6318e-005   6.1150e-003   6.2979e+004   1.3156e+004   5.9927e+005    0.0147   -0.0000    0.0031   -0.0000    0.2031
                0.0028   3.9463e-004  -5.1329e-005   6.1117e-003   8.9009e+004   1.8594e+004   5.9894e+005    0.0207   -0.0000    0.0043   -0.0000    0.2030
                0.0111   7.3285e-004  -9.5320e-005   6.0939e-003   1.6529e+005   3.4530e+004   5.9721e+005    0.0385   -0.0000    0.0080   -0.0000    0.2024
                0.0213   1.1339e-003  -1.4748e-004   6.0562e-003   2.5574e+005   5.3424e+004   5.9351e+005    0.0596   -0.0000    0.0125   -0.0000    0.2012
                0.0302   1.4107e-003  -1.8348e-004   6.0105e-003   3.1817e+005   6.6466e+004   5.8903e+005    0.0742   -0.0000    0.0155   -0.0000    0.1997
                0.0421   1.7788e-003  -2.3137e-004   5.9337e-003   4.0121e+005   8.3813e+004   5.8150e+005    0.0935   -0.0000    0.0195   -0.0000    0.1971
                0.0544   2.0851e-003  -2.7120e-004   5.8368e-003   4.7029e+005   9.8243e+004   5.7201e+005    0.1096   -0.0000    0.0229   -0.0000    0.1939
                0.0685   2.3989e-003  -3.1202e-004   5.7072e-003   5.4106e+005   1.1303e+005   5.5931e+005    0.1261   -0.0000    0.0263   -0.0000    0.1896
                0.0843   2.7421e-003  -3.5666e-004   5.5396e-003   6.1849e+005   1.2920e+005   5.4288e+005    0.1442   -0.0000    0.0301   -0.0000    0.1840
                0.1010   3.0059e-003  -3.9097e-004   5.3423e-003   6.7798e+005   1.4163e+005   5.2354e+005    0.1580   -0.0000    0.0330   -0.0000    0.1775
                0.1195   3.3000e-003  -4.2923e-004   5.1005e-003   7.4432e+005   1.5549e+005   4.9985e+005    0.1735   -0.0000    0.0362   -0.0000    0.1694
                0.1393   3.5697e-003  -4.6430e-004   4.8193e-003   8.0513e+005   1.6819e+005   4.7229e+005    0.1877   -0.0000    0.0392   -0.0000    0.1601
                0.1604   3.8043e-003  -4.9482e-004   4.4970e-003   8.5806e+005   1.7925e+005   4.4071e+005    0.2000   -0.0000    0.0418   -0.0000    0.1494
                0.1829   4.0551e-003  -5.2744e-004   4.1296e-003   9.1463e+005   1.9106e+005   4.0470e+005    0.2132   -0.0000    0.0445   -0.0000    0.1372
                0.2063   4.2404e-003  -5.5154e-004   3.7245e-003   9.5641e+005   1.9979e+005   3.6500e+005    0.2229   -0.0000    0.0466   -0.0000    0.1237
                0.2311   4.4208e-003  -5.7500e-004   3.2777e-003   9.9710e+005   2.0829e+005   3.2122e+005    0.2324   -0.0000    0.0486   -0.0000    0.1089
                0.2570   4.5891e-003  -5.9690e-004   2.7919e-003   1.0351e+006   2.1623e+005   2.7360e+005    0.2413   -0.0000    0.0504   -0.0000    0.0927
                0.2594   4.5978e-003  -5.9802e-004   2.7451e-003   1.0370e+006   2.1663e+005   2.6902e+005    0.2417   -0.0000    0.0505   -0.0000    0.0912

               lamina:  3     
              matName:  (blade-shell)
                     s           e11           e22           e12           s11           s22           s12   s11_fcT   s11_fcC   s22_fcT   s22_fcC   s12_fcS
                   (m)         (m/m)         (m/m)         (rad)          (Pa)          (Pa)          (Pa)       (-)       (-)       (-)       (-)       (-)
                0.0000   2.7179e-004  -3.5351e-005   6.1150e-003   5.2183e+006  -3.6669e+002   2.4154e+007    0.0155   -0.0000    0.0000    0.0000    0.2100
                0.0028   3.8720e-004  -5.0362e-005   6.1117e-003   7.4341e+006  -5.2030e+002   2.4141e+007    0.0221   -0.0000    0.0000    0.0000    0.2099
                0.0111   7.2410e-004  -9.4182e-005   6.0939e-003   1.3903e+007  -9.6959e+002   2.4071e+007    0.0413   -0.0000    0.0000    0.0000    0.2093
                0.0213   1.1211e-003  -1.4582e-004   6.0562e-003   2.1525e+007  -1.5007e+003   2.3922e+007    0.0639   -0.0000    0.0000    0.0000    0.2080
                0.0302   1.3949e-003  -1.8143e-004   6.0105e-003   2.6781e+007  -1.8671e+003   2.3741e+007    0.0795   -0.0000    0.0000    0.0000    0.2064
                0.0421   1.7616e-003  -2.2913e-004   5.9337e-003   3.3822e+007  -2.3561e+003   2.3438e+007    0.1004   -0.0000    0.0000    0.0000    0.2038
                0.0544   2.0661e-003  -2.6874e-004   5.8368e-003   3.9669e+007  -2.7626e+003   2.3055e+007    0.1177   -0.0000    0.0000    0.0000    0.2005
                0.0685   2.3794e-003  -3.0948e-004   5.7072e-003   4.5684e+007  -3.1799e+003   2.2544e+007    0.1356   -0.0000    0.0000    0.0000    0.1960
                0.0843   2.7218e-003  -3.5401e-004   5.5396e-003   5.2257e+007  -3.6362e+003   2.1882e+007    0.1551   -0.0000    0.0000    0.0000    0.1903
                0.1010   2.9849e-003  -3.8824e-004   5.3423e-003   5.7309e+007  -3.9868e+003   2.1102e+007    0.1701   -0.0000    0.0000    0.0000    0.1835
                0.1195   3.2788e-003  -4.2646e-004   5.1005e-003   6.2952e+007  -4.3781e+003   2.0147e+007    0.1868   -0.0000    0.0000    0.0000    0.1752
                0.1393   3.5480e-003  -4.6148e-004   4.8193e-003   6.8121e+007  -4.7367e+003   1.9036e+007    0.2021   -0.0000    0.0000    0.0000    0.1655
                0.1604   3.7825e-003  -4.9198e-004   4.4970e-003   7.2623e+007  -5.0490e+003   1.7763e+007    0.2155   -0.0000    0.0000    0.0000    0.1545
                0.1829   4.0331e-003  -5.2458e-004   4.1296e-003   7.7434e+007  -5.3826e+003   1.6312e+007    0.2298   -0.0000    0.0000    0.0000    0.1418
                0.2063   4.2181e-003  -5.4864e-004   3.7245e-003   8.0987e+007  -5.6290e+003   1.4712e+007    0.2403   -0.0000    0.0000    0.0000    0.1279
                0.2311   4.3985e-003  -5.7210e-004   3.2777e-003   8.4450e+007  -5.8692e+003   1.2947e+007    0.2506   -0.0000    0.0000    0.0000    0.1126
                0.2570   4.5668e-003  -5.9399e-004   2.7919e-003   8.7681e+007  -6.0932e+003   1.1028e+007    0.2602   -0.0000    0.0000    0.0000    0.0959
                0.2594   4.5752e-003  -5.9509e-004   2.7451e-003   8.7844e+007  -6.1046e+003   1.0843e+007    0.2607   -0.0000    0.0000    0.0000    0.0943

            panel:  2     
           lam_num    nPlies        tPly      fibAng     matID  matName
               (-)       (-)         (m)       (deg)       (-)  (-)
                 1         1    0.003168      0.0000         2  (blade-shell)
                 2         1    0.001279      0.0000         3  (spar-uni)
                 3         1    0.000047      0.0000         4  (spar-core)
                 4         1    0.001279      0.0000         3  (spar-uni)
                 5         1    0.003168      0.0000         2  (blade-shell)

               lamina:  1     
              matName:  (blade-shell)
                     s           e11           e22           e12           s11           s22           s12   s11_fcT   s11_fcC   s22_fcT   s22_fcC   s12_fcS
                   (m)         (m/m)         (m/m)         (rad)          (Pa)          (Pa)          (Pa)       (-)       (-)       (-)       (-)       (-)
                0.0000   5.8320e-003  -8.7964e-004   6.6293e-003   1.1167e+008  -2.3724e+006   2.6186e+007    0.3314   -0.0000    0.0000    0.0070    0.2277
                0.0242   5.9193e-003  -8.9327e-004   5.5079e-003   1.1334e+008  -2.4171e+006   2.1756e+007    0.3363   -0.0000    0.0000    0.0072    0.1892
                0.0518   6.0215e-003  -9.0919e-004   4.1987e-003   1.1529e+008  -2.4684e+006   1.6585e+007    0.3421   -0.0000    0.0000    0.0073    0.1442
                0.0801   6.0611e-003  -9.1533e-004   2.8360e-003   1.1605e+008  -2.4877e+006   1.1202e+007    0.3444   -0.0000    0.0000    0.0074    0.0974
                0.1092   6.0520e-003  -9.1390e-004   1.4275e-003   1.1588e+008  -2.4830e+006   5.6385e+006    0.3438   -0.0000    0.0000    0.0074    0.0490
                0.1389   6.0413e-003  -9.1226e-004   3.2646e-006   1.1567e+008  -2.4782e+006   1.2895e+004    0.3432   -0.0000    0.0000    0.0074    0.0001
                0.1692   5.9168e-003  -8.9292e-004   1.4465e-003   1.1329e+008  -2.4164e+006   5.7139e+006    0.3362   -0.0000    0.0000    0.0072    0.0497
                0.2000   5.7869e-003  -8.7266e-004   2.8770e-003   1.1080e+008  -2.3506e+006   1.1364e+007    0.3288   -0.0000    0.0000    0.0070    0.0988
                0.2278   5.6453e-003  -8.5057e-004   4.1304e-003   1.0809e+008  -2.2787e+006   1.6315e+007    0.3208   -0.0000    0.0000    0.0068    0.1419

               lamina:  2     
              matName:  (spar-uni)
                     s           e11           e22           e12           s11           s22           s12   s11_fcT   s11_fcC   s22_fcT   s22_fcC   s12_fcS
                   (m)         (m/m)         (m/m)         (rad)          (Pa)          (Pa)          (Pa)       (-)       (-)       (-)       (-)       (-)
                0.0000   4.9123e-003  -7.5832e-004   6.6293e-003   6.0617e+008   6.3093e+006   3.1224e+007    0.3063   -0.0000    0.1053   -0.0000    0.3031
                0.0242   4.9995e-003  -7.7195e-004   5.5079e-003   6.1693e+008   6.4200e+006   2.5942e+007    0.3117   -0.0000    0.1072   -0.0000    0.2519
                0.0518   5.1001e-003  -7.8764e-004   4.1987e-003   6.2934e+008   6.5477e+006   1.9776e+007    0.3180   -0.0000    0.1093   -0.0000    0.1920
                0.0801   5.1382e-003  -7.9359e-004   2.8360e-003   6.3405e+008   6.5962e+006   1.3358e+007    0.3204   -0.0000    0.1101   -0.0000    0.1297
                0.1092   5.1290e-003  -7.9215e-004   1.4275e-003   6.3291e+008   6.5846e+006   6.7234e+006    0.3198   -0.0000    0.1099   -0.0000    0.0653
                0.1389   5.1194e-003  -7.9066e-004   3.2646e-006   6.3173e+008   6.5723e+006   1.5376e+004    0.3192   -0.0000    0.1097   -0.0000    0.0001
                0.1692   4.9979e-003  -7.7171e-004   1.4465e-003   6.1674e+008   6.4179e+006   6.8132e+006    0.3116   -0.0000    0.1071   -0.0000    0.0661
                0.2000   4.8691e-003  -7.5159e-004   2.8770e-003   6.0084e+008   6.2543e+006   1.3551e+007    0.3036   -0.0000    0.1044   -0.0000    0.1316
                0.2278   4.7286e-003  -7.2965e-004   4.1304e-003   5.8350e+008   6.0760e+006   1.9454e+007    0.2948   -0.0000    0.1014   -0.0000    0.1889

               lamina:  3     
              matName:  (spar-core)
                     s           e11           e22           e12           s11           s22           s12   s11_fcT   s11_fcC   s22_fcT   s22_fcC   s12_fcS
                   (m)         (m/m)         (m/m)         (rad)          (Pa)          (Pa)          (Pa)       (-)       (-)       (-)       (-)       (-)
                0.0000   4.5410e-003  -7.0934e-004   6.6293e-003   1.0150e+006   1.8598e+005   6.4967e+005    0.2366   -0.0000    0.0434   -0.0000    0.2202
                0.0242   4.6282e-003  -7.2297e-004   5.5079e-003   1.0345e+006   1.8956e+005   5.3978e+005    0.2411   -0.0000    0.0442   -0.0000    0.1830
                0.0518   4.7281e-003  -7.3857e-004   4.1987e-003   1.0568e+006   1.9364e+005   4.1147e+005    0.2463   -0.0000    0.0451   -0.0000    0.1395
                0.0801   4.7657e-003  -7.4444e-004   2.8360e-003   1.0652e+006   1.9518e+005   2.7793e+005    0.2483   -0.0000    0.0455   -0.0000    0.0942
                0.1092   4.7565e-003  -7.4301e-004   1.4275e-003   1.0631e+006   1.9481e+005   1.3989e+005    0.2478   -0.0000    0.0454   -0.0000    0.0474
                0.1389   4.7473e-003  -7.4158e-004   3.2646e-006   1.0611e+006   1.9443e+005   3.1993e+002    0.2473   -0.0000    0.0453   -0.0000    0.0001
                0.1692   4.6270e-003  -7.2278e-004   1.4465e-003   1.0342e+006   1.8950e+005   1.4176e+005    0.2411   -0.0000    0.0442   -0.0000    0.0481
                0.2000   4.4986e-003  -7.0272e-004   2.8770e-003   1.0055e+006   1.8425e+005   2.8195e+005    0.2344   -0.0000    0.0429   -0.0000    0.0956
                0.2278   4.3586e-003  -6.8084e-004   4.1304e-003   9.7421e+005   1.7851e+005   4.0478e+005    0.2271   -0.0000    0.0416   -0.0000    0.1372

               lamina:  4     
              matName:  (spar-uni)
                     s           e11           e22           e12           s11           s22           s12   s11_fcT   s11_fcC   s22_fcT   s22_fcC   s12_fcS
                   (m)         (m/m)         (m/m)         (rad)          (Pa)          (Pa)          (Pa)       (-)       (-)       (-)       (-)       (-)
                0.0000   4.5274e-003  -7.0755e-004   6.6293e-003   5.5865e+008   5.7436e+006   3.1224e+007    0.2823   -0.0000    0.0959   -0.0000    0.3031
                0.0242   4.6146e-003  -7.2118e-004   5.5079e-003   5.6942e+008   5.8543e+006   2.5942e+007    0.2877   -0.0000    0.0977   -0.0000    0.2519
                0.0518   4.7144e-003  -7.3677e-004   4.1987e-003   5.8173e+008   5.9809e+006   1.9776e+007    0.2940   -0.0000    0.0998   -0.0000    0.1920
                0.0801   4.7520e-003  -7.4264e-004   2.8360e-003   5.8637e+008   6.0286e+006   1.3358e+007    0.2963   -0.0000    0.1006   -0.0000    0.1297
                0.1092   4.7428e-003  -7.4120e-004   1.4275e-003   5.8523e+008   6.0169e+006   6.7234e+006    0.2957   -0.0000    0.1004   -0.0000    0.0653
                0.1389   4.7337e-003  -7.3978e-004   3.2646e-006   5.8410e+008   6.0053e+006   1.5376e+004    0.2952   -0.0000    0.1003   -0.0000    0.0001
                0.1692   4.6134e-003  -7.2098e-004   1.4465e-003   5.6926e+008   5.8527e+006   6.8132e+006    0.2877   -0.0000    0.0977   -0.0000    0.0661
                0.2000   4.4850e-003  -7.0093e-004   2.8770e-003   5.5342e+008   5.6898e+006   1.3551e+007    0.2796   -0.0000    0.0950   -0.0000    0.1316
                0.2278   4.3450e-003  -6.7905e-004   4.1304e-003   5.3614e+008   5.5121e+006   1.9454e+007    0.2709   -0.0000    0.0920   -0.0000    0.1889

               lamina:  5     
              matName:  (blade-shell)
                     s           e11           e22           e12           s11           s22           s12   s11_fcT   s11_fcC   s22_fcT   s22_fcC   s12_fcS
                   (m)         (m/m)         (m/m)         (rad)          (Pa)          (Pa)          (Pa)       (-)       (-)       (-)       (-)       (-)
                0.0000   4.1561e-003  -6.5857e-004   6.6293e-003   7.9497e+007  -2.3100e+006   2.6186e+007    0.2359   -0.0000    0.0000    0.0069    0.2277
                0.0242   4.2433e-003  -6.7220e-004   5.5079e-003   8.1166e+007  -2.3547e+006   2.1756e+007    0.2408   -0.0000    0.0000    0.0070    0.1892
                0.0518   4.3424e-003  -6.8770e-004   4.1987e-003   8.3062e+007  -2.4058e+006   1.6585e+007    0.2465   -0.0000    0.0000    0.0071    0.1442
                0.0801   4.3794e-003  -6.9350e-004   2.8360e-003   8.3770e+007  -2.4250e+006   1.1202e+007    0.2486   -0.0000    0.0000    0.0072    0.0974
                0.1092   4.3702e-003  -6.9206e-004   1.4275e-003   8.3594e+007  -2.4203e+006   5.6385e+006    0.2481   -0.0000    0.0000    0.0072    0.0490
                0.1389   4.3615e-003  -6.9069e-004   3.2646e-006   8.3428e+007  -2.4157e+006   1.2895e+004    0.2476   -0.0000    0.0000    0.0072    0.0001
                0.1692   4.2424e-003  -6.7205e-004   1.4465e-003   8.1149e+007  -2.3540e+006   5.7139e+006    0.2408   -0.0000    0.0000    0.0070    0.0497
                0.2000   4.1145e-003  -6.5206e-004   2.8770e-003   7.8702e+007  -2.2883e+006   1.1364e+007    0.2335   -0.0000    0.0000    0.0068    0.0988
                0.2278   3.9749e-003  -6.3023e-004   4.1304e-003   7.6031e+007  -2.2165e+006   1.6315e+007    0.2256   -0.0000    0.0000    0.0066    0.1419

            panel:  3     
           lam_num    nPlies        tPly      fibAng     matID  matName
               (-)       (-)         (m)       (deg)       (-)  (-)
                 1         1    0.003168      0.0000         2  (blade-shell)
                 2         1    0.001364      0.0000         6  (TEP-core)
                 3         1    0.003168      0.0000         2  (blade-shell)

               lamina:  1     
              matName:  (blade-shell)
                     s           e11           e22           e12           s11           s22           s12   s11_fcT   s11_fcC   s22_fcT   s22_fcC   s12_fcS
                   (m)         (m/m)         (m/m)         (rad)          (Pa)          (Pa)          (Pa)       (-)       (-)       (-)       (-)       (-)
                0.0000   4.7902e-003  -6.2500e-004   1.8913e-003   9.1966e+007  -4.4423e+004   7.4705e+006    0.2729   -0.0000    0.0000    0.0001    0.0650
                0.0032   4.7720e-003  -6.2263e-004   1.8326e-003   9.1617e+007  -4.4261e+004   7.2389e+006    0.2719   -0.0000    0.0000    0.0001    0.0629
                0.0347   4.5544e-003  -5.9422e-004   1.2698e-003   8.7439e+007  -4.2061e+004   5.0157e+006    0.2595   -0.0000    0.0000    0.0001    0.0436
                0.0662   4.3364e-003  -5.6577e-004   7.3576e-004   8.3253e+007  -3.9863e+004   2.9063e+006    0.2470   -0.0000    0.0000    0.0001    0.0253
                0.0977   4.0827e-003  -5.3266e-004   2.3206e-004   7.8382e+007  -3.7310e+004   9.1664e+005    0.2326   -0.0000    0.0000    0.0001    0.0080
                0.1291   3.8149e-003  -4.9771e-004   2.3600e-004   7.3241e+007  -3.4604e+004   9.3221e+005    0.2173   -0.0000    0.0000    0.0001    0.0081
                0.1601   3.5491e-003  -4.6302e-004   6.6435e-004   6.8139e+007  -3.1921e+004   2.6242e+006    0.2022   -0.0000    0.0000    0.0001    0.0228
                0.1907   3.2680e-003  -4.2634e-004   1.0527e-003   6.2743e+007  -2.9082e+004   4.1581e+006    0.1862   -0.0000    0.0000    0.0001    0.0362
                0.2208   2.9931e-003  -3.9045e-004   1.3991e-003   5.7464e+007  -2.6298e+004   5.5263e+006    0.1705   -0.0000    0.0000    0.0001    0.0481
                0.2501   2.7292e-003  -3.5601e-004   1.7041e-003   5.2398e+007  -2.3624e+004   6.7312e+006    0.1555   -0.0000    0.0000    0.0001    0.0585
                0.2784   2.4786e-003  -3.2329e-004   1.9696e-003   4.7586e+007  -2.1085e+004   7.7800e+006    0.1412   -0.0000    0.0000    0.0001    0.0677
                0.3059   2.2369e-003  -2.9175e-004   2.1984e-003   4.2946e+007  -1.8630e+004   8.6837e+006    0.1274   -0.0000    0.0000    0.0001    0.0755
                0.3322   2.0309e-003  -2.6486e-004   2.3929e-003   3.8991e+007  -1.6534e+004   9.4519e+006    0.1157   -0.0000    0.0000    0.0000    0.0822
                0.3572   1.8406e-003  -2.4002e-004   2.5577e-003   3.5337e+007  -1.4604e+004   1.0103e+007    0.1049   -0.0000    0.0000    0.0000    0.0879
                0.3810   1.6675e-003  -2.1744e-004   2.6963e-003   3.2015e+007  -1.2838e+004   1.0651e+007    0.0950   -0.0000    0.0000    0.0000    0.0926
                0.4033   1.5408e-003  -2.0089e-004   2.8123e-003   2.9581e+007  -1.1543e+004   1.1109e+007    0.0878   -0.0000    0.0000    0.0000    0.0966
                0.4242   1.4220e-003  -1.8539e-004   2.9101e-003   2.7301e+007  -1.0334e+004   1.1495e+007    0.0810   -0.0000    0.0000    0.0000    0.1000
                0.4434   1.3368e-003  -1.7427e-004   2.9926e-003   2.5666e+007  -9.4600e+003   1.1821e+007    0.0762   -0.0000    0.0000    0.0000    0.1028
                0.4610   1.2795e-003  -1.6678e-004   3.0626e-003   2.4565e+007  -8.8747e+003   1.2097e+007    0.0729   -0.0000    0.0000    0.0000    0.1052
                0.4770   1.2277e-003  -1.6003e-004   3.1227e-003   2.3571e+007  -8.3435e+003   1.2335e+007    0.0699   -0.0000    0.0000    0.0000    0.1073
                0.4913   1.2183e-003  -1.5880e-004   3.1744e-003   2.3390e+007  -8.2440e+003   1.2539e+007    0.0694   -0.0000    0.0000    0.0000    0.1090
                0.5037   1.2139e-003  -1.5822e-004   3.2192e-003   2.3305e+007  -8.1991e+003   1.2716e+007    0.0692   -0.0000    0.0000    0.0000    0.1106
                0.5143   1.2187e-003  -1.5885e-004   3.2578e-003   2.3397e+007  -8.2505e+003   1.2868e+007    0.0694   -0.0000    0.0000    0.0000    0.1119
                0.5231   1.2444e-003  -1.6221e-004   3.2902e-003   2.3891e+007  -8.5180e+003   1.2996e+007    0.0709   -0.0000    0.0000    0.0000    0.1130
                0.5300   1.2644e-003  -1.6481e-004   3.3163e-003   2.4274e+007  -8.7282e+003   1.3099e+007    0.0720   -0.0000    0.0000    0.0000    0.1139
                0.5351   1.2901e-003  -1.6817e-004   3.3361e-003   2.4769e+007  -9.0133e+003   1.3178e+007    0.0735   -0.0000    0.0000    0.0000    0.1146
                0.5382   1.3108e-003  -1.7088e-004   3.3483e-003   2.5167e+007  -9.2397e+003   1.3226e+007    0.0747   -0.0000    0.0000    0.0000    0.1150
                0.5391   1.3181e-003  -1.7183e-004   3.3524e-003   2.5306e+007  -9.3131e+003   1.3242e+007    0.0751   -0.0000    0.0000    0.0000    0.1151

               lamina:  2     
              matName:  (TEP-core)
                     s           e11           e22           e12           s11           s22           s12   s11_fcT   s11_fcC   s22_fcT   s22_fcC   s12_fcS
                   (m)         (m/m)         (m/m)         (rad)          (Pa)          (Pa)          (Pa)       (-)       (-)       (-)       (-)       (-)
                0.0000   4.4514e-003  -5.8095e-004   1.8913e-003   1.0038e+006   2.0927e+005   1.8534e+005    0.2340   -0.0000    0.0488   -0.0000    0.0628
                0.0032   4.4350e-003  -5.7881e-004   1.8326e-003   1.0002e+006   2.0850e+005   1.7960e+005    0.2331   -0.0000    0.0486   -0.0000    0.0609
                0.0347   4.2176e-003  -5.5044e-004   1.2698e-003   9.5113e+005   1.9828e+005   1.2444e+005    0.2217   -0.0000    0.0462   -0.0000    0.0422
                0.0662   4.0003e-003  -5.2208e-004   7.3576e-004   9.0213e+005   1.8807e+005   7.2105e+004    0.2103   -0.0000    0.0438   -0.0000    0.0244
                0.0977   3.7478e-003  -4.8912e-004   2.3206e-004   8.4519e+005   1.7620e+005   2.2742e+004    0.1970   -0.0000    0.0411   -0.0000    0.0077
                0.1291   3.4804e-003  -4.5423e-004   2.3600e-004   7.8489e+005   1.6363e+005   2.3128e+004    0.1830   -0.0000    0.0381   -0.0000    0.0078
                0.1601   3.2152e-003  -4.1961e-004   6.6435e-004   7.2507e+005   1.5116e+005   6.5107e+004    0.1690   -0.0000    0.0352   -0.0000    0.0221
                0.1907   2.9346e-003  -3.8299e-004   1.0527e-003   6.6181e+005   1.3797e+005   1.0316e+005    0.1543   -0.0000    0.0322   -0.0000    0.0350
                0.2208   2.6596e-003  -3.4709e-004   1.3991e-003   5.9978e+005   1.2504e+005   1.3711e+005    0.1398   -0.0000    0.0291   -0.0000    0.0465
                0.2501   2.3954e-003  -3.1261e-004   1.7041e-003   5.4020e+005   1.1262e+005   1.6700e+005    0.1259   -0.0000    0.0263   -0.0000    0.0566
                0.2784   2.1446e-003  -2.7988e-004   1.9696e-003   4.8365e+005   1.0083e+005   1.9302e+005    0.1127   -0.0000    0.0235   -0.0000    0.0654
                0.3059   1.9022e-003  -2.4823e-004   2.1984e-003   4.2897e+005   8.9432e+004   2.1544e+005    0.1000   -0.0000    0.0208   -0.0000    0.0730
                0.3322   1.6953e-003  -2.2123e-004   2.3929e-003   3.8232e+005   7.9706e+004   2.3450e+005    0.0891   -0.0000    0.0186   -0.0000    0.0795
                0.3572   1.5046e-003  -1.9634e-004   2.5577e-003   3.3931e+005   7.0740e+004   2.5065e+005    0.0791   -0.0000    0.0165   -0.0000    0.0850
                0.3810   1.3304e-003  -1.7360e-004   2.6963e-003   3.0002e+005   6.2550e+004   2.6424e+005    0.0699   -0.0000    0.0146   -0.0000    0.0896
                0.4033   1.2026e-003  -1.5693e-004   2.8123e-003   2.7121e+005   5.6545e+004   2.7561e+005    0.0632   -0.0000    0.0132   -0.0000    0.0934
                0.4242   1.0833e-003  -1.4135e-004   2.9101e-003   2.4429e+005   5.0933e+004   2.8519e+005    0.0569   -0.0000    0.0119   -0.0000    0.0967
                0.4434   9.9708e-004  -1.3010e-004   2.9926e-003   2.2486e+005   4.6882e+004   2.9327e+005    0.0524   -0.0000    0.0109   -0.0000    0.0994
                0.4610   9.3932e-004  -1.2256e-004   3.0626e-003   2.1183e+005   4.4167e+004   3.0013e+005    0.0494   -0.0000    0.0103   -0.0000    0.1017
                0.4770   8.8695e-004  -1.1573e-004   3.1227e-003   2.0002e+005   4.1705e+004   3.0602e+005    0.0466   -0.0000    0.0097   -0.0000    0.1037
                0.4913   8.7718e-004  -1.1445e-004   3.1744e-003   1.9782e+005   4.1246e+004   3.1110e+005    0.0461   -0.0000    0.0096   -0.0000    0.1055
                0.5037   8.7275e-004  -1.1387e-004   3.2192e-003   1.9682e+005   4.1037e+004   3.1548e+005    0.0459   -0.0000    0.0096   -0.0000    0.1069
                0.5143   8.7778e-004  -1.1453e-004   3.2578e-003   1.9795e+005   4.1274e+004   3.1926e+005    0.0461   -0.0000    0.0096   -0.0000    0.1082
                0.5231   9.0410e-004  -1.1797e-004   3.2902e-003   2.0389e+005   4.2511e+004   3.2244e+005    0.0475   -0.0000    0.0099   -0.0000    0.1093
                0.5300   9.2475e-004  -1.2066e-004   3.3163e-003   2.0855e+005   4.3482e+004   3.2500e+005    0.0486   -0.0000    0.0101   -0.0000    0.1102
                0.5351   9.5254e-004  -1.2429e-004   3.3361e-003   2.1481e+005   4.4788e+004   3.2694e+005    0.0501   -0.0000    0.0104   -0.0000    0.1108
                0.5382   9.7465e-004  -1.2717e-004   3.3483e-003   2.1980e+005   4.5828e+004   3.2814e+005    0.0512   -0.0000    0.0107   -0.0000    0.1112
                0.5391   9.8191e-004  -1.2812e-004   3.3524e-003   2.2144e+005   4.6169e+004   3.2853e+005    0.0516   -0.0000    0.0108   -0.0000    0.1114

               lamina:  3     
              matName:  (blade-shell)
                     s           e11           e22           e12           s11           s22           s12   s11_fcT   s11_fcC   s22_fcT   s22_fcC   s12_fcS
                   (m)         (m/m)         (m/m)         (rad)          (Pa)          (Pa)          (Pa)       (-)       (-)       (-)       (-)       (-)
                0.0000   4.3055e-003  -5.6198e-004   1.8913e-003   8.2660e+007  -4.4295e+004   7.4705e+006    0.2453   -0.0000    0.0000    0.0001    0.0650
                0.0032   4.2899e-003  -5.5995e-004   1.8326e-003   8.2361e+007  -4.4134e+004   7.2389e+006    0.2444   -0.0000    0.0000    0.0001    0.0629
                0.0347   4.0726e-003  -5.3158e-004   1.2698e-003   7.8188e+007  -4.1934e+004   5.0157e+006    0.2320   -0.0000    0.0000    0.0001    0.0436
                0.0662   3.8556e-003  -5.0327e-004   7.3576e-004   7.4023e+007  -3.9737e+004   2.9063e+006    0.2197   -0.0000    0.0000    0.0001    0.0253
                0.0977   3.6036e-003  -4.7038e-004   2.3206e-004   6.9185e+007  -3.7183e+004   9.1664e+005    0.2053   -0.0000    0.0000    0.0001    0.0080
                0.1291   3.3364e-003  -4.3550e-004   2.3600e-004   6.4055e+007  -3.4478e+004   9.3221e+005    0.1901   -0.0000    0.0000    0.0001    0.0081
                0.1601   3.0714e-003  -4.0091e-004   6.6435e-004   5.8967e+007  -3.1795e+004   2.6242e+006    0.1750   -0.0000    0.0000    0.0001    0.0228
                0.1907   2.7911e-003  -3.6432e-004   1.0527e-003   5.3585e+007  -2.8956e+004   4.1581e+006    0.1590   -0.0000    0.0000    0.0001    0.0362
                0.2208   2.5160e-003  -3.2842e-004   1.3991e-003   4.8304e+007  -2.6172e+004   5.5263e+006    0.1433   -0.0000    0.0000    0.0001    0.0481
                0.2501   2.2517e-003  -2.9393e-004   1.7041e-003   4.3230e+007  -2.3498e+004   6.7312e+006    0.1283   -0.0000    0.0000    0.0001    0.0585
                0.2784   2.0008e-003  -2.6118e-004   1.9696e-003   3.8413e+007  -2.0959e+004   7.7800e+006    0.1140   -0.0000    0.0000    0.0001    0.0677
                0.3059   1.7581e-003  -2.2950e-004   2.1984e-003   3.3753e+007  -1.8504e+004   8.6837e+006    0.1002   -0.0000    0.0000    0.0001    0.0755
                0.3322   1.5508e-003  -2.0244e-004   2.3929e-003   2.9773e+007  -1.6408e+004   9.4519e+006    0.0883   -0.0000    0.0000    0.0000    0.0822
                0.3572   1.3599e-003  -1.7753e-004   2.5577e-003   2.6108e+007  -1.4477e+004   1.0103e+007    0.0775   -0.0000    0.0000    0.0000    0.0879
                0.3810   1.1852e-003  -1.5472e-004   2.6963e-003   2.2754e+007  -1.2711e+004   1.0651e+007    0.0675   -0.0000    0.0000    0.0000    0.0926
                0.4033   1.0570e-003  -1.3800e-004   2.8123e-003   2.0294e+007  -1.1416e+004   1.1109e+007    0.0602   -0.0000    0.0000    0.0000    0.0966
                0.4242   9.3741e-004  -1.2239e-004   2.9101e-003   1.7997e+007  -1.0206e+004   1.1495e+007    0.0534   -0.0000    0.0000    0.0000    0.1000
                0.4434   8.5079e-004  -1.1108e-004   2.9926e-003   1.6334e+007  -9.3320e+003   1.1821e+007    0.0485   -0.0000    0.0000    0.0000    0.1028
                0.4610   7.9286e-004  -1.0352e-004   3.0626e-003   1.5222e+007  -8.7465e+003   1.2097e+007    0.0452   -0.0000    0.0000    0.0000    0.1052
                0.4770   7.4023e-004  -9.6651e-005   3.1227e-003   1.4211e+007  -8.2151e+003   1.2335e+007    0.0422   -0.0000    0.0000    0.0000    0.1073
                0.4913   7.3031e-004  -9.5355e-005   3.1744e-003   1.4021e+007  -8.1154e+003   1.2539e+007    0.0416   -0.0000    0.0000    0.0000    0.1090
                0.5037   7.2586e-004  -9.4775e-005   3.2192e-003   1.3935e+007  -8.0705e+003   1.2716e+007    0.0414   -0.0000    0.0000    0.0000    0.1106
                0.5143   7.3100e-004  -9.5446e-005   3.2578e-003   1.4034e+007  -8.1220e+003   1.2868e+007    0.0416   -0.0000    0.0000    0.0000    0.1119
                0.5231   7.5757e-004  -9.8914e-005   3.2902e-003   1.4544e+007  -8.3897e+003   1.2996e+007    0.0432   -0.0000    0.0000    0.0000    0.1130
                0.5300   7.7852e-004  -1.0165e-004   3.3163e-003   1.4946e+007  -8.6002e+003   1.3099e+007    0.0444   -0.0000    0.0000    0.0000    0.1139
                0.5351   8.0719e-004  -1.0539e-004   3.3361e-003   1.5497e+007  -8.8860e+003   1.3178e+007    0.0460   -0.0000    0.0000    0.0000    0.1146
                0.5382   8.2990e-004  -1.0835e-004   3.3483e-003   1.5933e+007  -9.1130e+003   1.3226e+007    0.0473   -0.0000    0.0000    0.0000    0.1150
                0.5391   8.3716e-004  -1.0930e-004   3.3524e-003   1.6072e+007  -9.1864e+003   1.3242e+007    0.0477   -0.0000    0.0000    0.0000    0.1151

     Web:  panel  nNode   nLam     xc_St    xc_End         b         t         E_eff         G_eff      nu_eff     density  buckleCrit
            (-)    (-)    (-)       (-)       (-)       (m)       (m)          (Pa)          (Pa)         (-)    (kg/m^3)         (-)
              1     10      3    0.2348    0.2348    0.2101    0.0121   6.5707e+009   1.3870e+009      0.1347    691.8994      0.0290
              2     10      3    0.4652    0.4652    0.1988    0.0121   6.5707e+009   1.3870e+009      0.1347    691.8994      0.0281

            panel:  1     
           lam_num    nPlies        tPly      fibAng     matID  matName
               (-)       (-)         (m)       (deg)       (-)  (-)
                 1         1    0.002023      0.0000         7  (web-shell)
                 2         1    0.008047      0.0000         8  (web-core)
                 3         1    0.002023      0.0000         7  (web-shell)

               lamina:  1     
              matName:  (web-shell)
                     s           e11           e22           e12           s11           s22           s12   s11_fcT   s11_fcC   s22_fcT   s22_fcC   s12_fcS
                   (m)         (m/m)         (m/m)         (rad)          (Pa)          (Pa)          (Pa)       (-)       (-)       (-)       (-)       (-)
                0.0000  -4.6369e-003   6.2454e-004   1.0452e-002  -8.8972e+007   4.2474e+005   4.1286e+007    0.0000    0.1790    0.0013   -0.0000    0.3590
                0.0233  -3.6271e-003   4.8854e-004   1.0850e-002  -6.9597e+007   3.3232e+005   4.2857e+007    0.0000    0.1400    0.0010   -0.0000    0.3727
                0.0467  -2.6173e-003   3.5254e-004   1.1151e-002  -5.0222e+007   2.3990e+005   4.4046e+007    0.0000    0.1011    0.0007   -0.0000    0.3830
                0.0700  -1.6076e-003   2.1654e-004   1.1356e-002  -3.0847e+007   1.4749e+005   4.4855e+007    0.0000    0.0621    0.0004   -0.0000    0.3900
                0.0934  -5.9783e-004   8.0538e-005   1.1464e-002  -1.1471e+007   5.5070e+004   4.5281e+007    0.0000    0.0231    0.0002   -0.0000    0.3938
                0.1167   4.1439e-004  -5.5786e-005   1.1475e-002   7.9515e+006  -3.7395e+004   4.5327e+007    0.0236   -0.0000    0.0000    0.0001    0.3941
                0.1400   1.4241e-003  -1.9179e-004   1.1390e-002   2.7327e+007  -1.2981e+005   4.4991e+007    0.0811   -0.0000    0.0000    0.0004    0.3912
                0.1634   2.4339e-003  -3.2779e-004   1.1209e-002   4.6702e+007  -2.2223e+005   4.4274e+007    0.1386   -0.0000    0.0000    0.0007    0.3850
                0.1867   3.4437e-003  -4.6379e-004   1.0931e-002   6.6077e+007  -3.1464e+005   4.3176e+007    0.1961   -0.0000    0.0000    0.0009    0.3754
                0.2101   4.4534e-003  -5.9979e-004   1.0556e-002   8.5453e+007  -4.0706e+005   4.1696e+007    0.2536   -0.0000    0.0000    0.0012    0.3626

               lamina:  2     
              matName:  (web-core)
                     s           e11           e22           e12           s11           s22           s12   s11_fcT   s11_fcC   s22_fcT   s22_fcC   s12_fcS
                   (m)         (m/m)         (m/m)         (rad)          (Pa)          (Pa)          (Pa)       (-)       (-)       (-)       (-)       (-)
                0.0000  -4.6467e-003   6.2583e-004   1.0452e-002  -1.0464e+006  -2.1388e+005   1.0243e+006    0.0000    0.2439    0.0000    0.0499    0.3472
                0.0233  -3.6369e-003   4.8983e-004   1.0850e-002  -8.1900e+005  -1.6741e+005   1.0633e+006    0.0000    0.1909    0.0000    0.0390    0.3604
                0.0467  -2.6272e-003   3.5383e-004   1.1151e-002  -5.9161e+005  -1.2093e+005   1.0928e+006    0.0000    0.1379    0.0000    0.0282    0.3704
                0.0700  -1.6174e-003   2.1783e-004   1.1356e-002  -3.6423e+005  -7.4452e+004   1.1128e+006    0.0000    0.0849    0.0000    0.0174    0.3772
                0.0934  -6.0767e-004   8.1826e-005   1.1464e-002  -1.3684e+005  -2.7974e+004   1.1234e+006    0.0000    0.0319    0.0000    0.0065    0.3808
                0.1167   4.1192e-004  -5.5462e-005   1.1475e-002   9.2762e+004   1.8964e+004   1.1246e+006    0.0216   -0.0000    0.0044   -0.0000    0.3812
                0.1400   1.4217e-003  -1.9146e-004   1.1390e-002   3.2015e+005   6.5442e+004   1.1162e+006    0.0746   -0.0000    0.0153   -0.0000    0.3784
                0.1634   2.4314e-003  -3.2746e-004   1.1209e-002   5.4753e+005   1.1192e+005   1.0984e+006    0.1276   -0.0000    0.0261   -0.0000    0.3724
                0.1867   3.4412e-003  -4.6346e-004   1.0931e-002   7.7492e+005   1.5840e+005   1.0712e+006    0.1806   -0.0000    0.0369   -0.0000    0.3631
                0.2101   4.4509e-003  -5.9946e-004   1.0556e-002   1.0023e+006   2.0487e+005   1.0345e+006    0.2336   -0.0000    0.0478   -0.0000    0.3507

               lamina:  3     
              matName:  (web-shell)
                     s           e11           e22           e12           s11           s22           s12   s11_fcT   s11_fcC   s22_fcT   s22_fcC   s12_fcS
                   (m)         (m/m)         (m/m)         (rad)          (Pa)          (Pa)          (Pa)       (-)       (-)       (-)       (-)       (-)
                0.0000  -4.6492e-003   6.2615e-004   1.0452e-002  -8.9209e+007   4.2498e+005   4.1286e+007    0.0000    0.1795    0.0013   -0.0000    0.3590
                0.0233  -3.6394e-003   4.9015e-004   1.0850e-002  -6.9833e+007   3.3256e+005   4.2857e+007    0.0000    0.1405    0.0010   -0.0000    0.3727
                0.0467  -2.6297e-003   3.5415e-004   1.1151e-002  -5.0458e+007   2.4014e+005   4.4046e+007    0.0000    0.1015    0.0007   -0.0000    0.3830
                0.0700  -1.6199e-003   2.1815e-004   1.1356e-002  -3.1083e+007   1.4773e+005   4.4855e+007    0.0000    0.0625    0.0004   -0.0000    0.3900
                0.0934  -6.1014e-004   8.2150e-005   1.1464e-002  -1.1707e+007   5.5311e+004   4.5281e+007    0.0000    0.0236    0.0002   -0.0000    0.3938
                0.1167   4.0209e-004  -5.4174e-005   1.1475e-002   7.7153e+006  -3.7154e+004   4.5327e+007    0.0229   -0.0000    0.0000    0.0001    0.3941
                0.1400   1.4118e-003  -1.9017e-004   1.1390e-002   2.7091e+007  -1.2957e+005   4.4991e+007    0.0804   -0.0000    0.0000    0.0004    0.3912
                0.1634   2.4216e-003  -3.2617e-004   1.1209e-002   4.6466e+007  -2.2199e+005   4.4274e+007    0.1379   -0.0000    0.0000    0.0007    0.3850
                0.1867   3.4314e-003  -4.6218e-004   1.0931e-002   6.5841e+007  -3.1440e+005   4.3176e+007    0.1954   -0.0000    0.0000    0.0009    0.3754
                0.2101   4.4411e-003  -5.9818e-004   1.0556e-002   8.5217e+007  -4.0682e+005   4.1696e+007    0.2529   -0.0000    0.0000    0.0012    0.3626

            panel:  2     
           lam_num    nPlies        tPly      fibAng     matID  matName
               (-)       (-)         (m)       (deg)       (-)  (-)
                 1         1    0.002023      0.0000         7  (web-shell)
                 2         1    0.008047      0.0000         8  (web-core)
                 3         1    0.002023      0.0000         7  (web-shell)

               lamina:  1     
              matName:  (web-shell)
                     s           e11           e22           e12           s11           s22           s12   s11_fcT   s11_fcC   s22_fcT   s22_fcC   s12_fcS
                   (m)         (m/m)         (m/m)         (rad)          (Pa)          (Pa)          (Pa)       (-)       (-)       (-)       (-)       (-)
                0.0000  -4.4353e-003   5.9740e-004   1.1856e-002  -8.5105e+007   4.0628e+005   4.6832e+007    0.0000    0.1712    0.0012   -0.0000    0.4072
                0.0221  -3.4798e-003   4.6870e-004   1.2214e-002  -6.6771e+007   3.1882e+005   4.8247e+007    0.0000    0.1343    0.0009   -0.0000    0.4195
                0.0442  -2.5243e-003   3.4000e-004   1.2486e-002  -4.8436e+007   2.3137e+005   4.9320e+007    0.0000    0.0975    0.0007   -0.0000    0.4289
                0.0663  -1.5688e-003   2.1131e-004   1.2671e-002  -3.0102e+007   1.4392e+005   5.0052e+007    0.0000    0.0606    0.0004   -0.0000    0.4352
                0.0883  -6.1325e-004   8.2613e-005   1.2770e-002  -1.1767e+007   5.6465e+004   5.0443e+007    0.0000    0.0237    0.0002   -0.0000    0.4386
                0.1104   3.4464e-004  -4.6393e-005   1.2783e-002   6.6131e+006  -3.1033e+004   5.0491e+007    0.0196   -0.0000    0.0000    0.0001    0.4391
                0.1325   1.3002e-003  -1.7509e-004   1.2709e-002   2.4948e+007  -1.1849e+005   5.0199e+007    0.0740   -0.0000    0.0000    0.0004    0.4365
                0.1546   2.2557e-003  -3.0378e-004   1.2548e-002   4.3282e+007  -2.0594e+005   4.9565e+007    0.1284   -0.0000    0.0000    0.0006    0.4310
                0.1767   3.2112e-003  -4.3248e-004   1.2301e-002   6.1617e+007  -2.9339e+005   4.8589e+007    0.1828   -0.0000    0.0000    0.0009    0.4225
                0.1988   4.1667e-003  -5.6117e-004   1.1968e-002   7.9952e+007  -3.8084e+005   4.7272e+007    0.2372   -0.0000    0.0000    0.0011    0.4111

               lamina:  2     
              matName:  (web-core)
                     s           e11           e22           e12           s11           s22           s12   s11_fcT   s11_fcC   s22_fcT   s22_fcC   s12_fcS
                   (m)         (m/m)         (m/m)         (rad)          (Pa)          (Pa)          (Pa)       (-)       (-)       (-)       (-)       (-)
                0.0000  -4.4448e-003   5.9863e-004   1.1856e-002  -1.0009e+006  -2.0459e+005   1.1619e+006    0.0000    0.2333    0.0000    0.0477    0.3939
                0.0221  -3.4892e-003   4.6993e-004   1.2214e-002  -7.8574e+005  -1.6061e+005   1.1970e+006    0.0000    0.1832    0.0000    0.0374    0.4058
                0.0442  -2.5337e-003   3.4124e-004   1.2486e-002  -5.7057e+005  -1.1663e+005   1.2236e+006    0.0000    0.1330    0.0000    0.0272    0.4148
                0.0663  -1.5782e-003   2.1254e-004   1.2671e-002  -3.5539e+005  -7.2646e+004   1.2418e+006    0.0000    0.0828    0.0000    0.0169    0.4209
                0.0883  -6.2267e-004   8.3848e-005   1.2770e-002  -1.4022e+005  -2.8665e+004   1.2515e+006    0.0000    0.0327    0.0000    0.0067    0.4242
                0.1104   3.4227e-004  -4.6082e-005   1.2783e-002   7.7078e+004   1.5758e+004   1.2527e+006    0.0180   -0.0000    0.0037   -0.0000    0.4246
                0.1325   1.2978e-003  -1.7478e-004   1.2709e-002   2.9225e+005   5.9739e+004   1.2454e+006    0.0681   -0.0000    0.0139   -0.0000    0.4222
                0.1546   2.2533e-003  -3.0347e-004   1.2548e-002   5.0742e+005   1.0372e+005   1.2297e+006    0.1183   -0.0000    0.0242   -0.0000    0.4169
                0.1767   3.2088e-003  -4.3217e-004   1.2301e-002   7.2260e+005   1.4770e+005   1.2055e+006    0.1684   -0.0000    0.0344   -0.0000    0.4086
                0.1988   4.1644e-003  -5.6086e-004   1.1968e-002   9.3777e+005   1.9168e+005   1.1728e+006    0.2186   -0.0000    0.0447   -0.0000    0.3976

               lamina:  3     
              matName:  (web-shell)
                     s           e11           e22           e12           s11           s22           s12   s11_fcT   s11_fcC   s22_fcT   s22_fcC   s12_fcS
                   (m)         (m/m)         (m/m)         (rad)          (Pa)          (Pa)          (Pa)       (-)       (-)       (-)       (-)       (-)
                0.0000  -4.4471e-003   5.9894e-004   1.1856e-002  -8.5332e+007   4.0651e+005   4.6832e+007    0.0000    0.1717    0.0012   -0.0000    0.4072
                0.0221  -3.4916e-003   4.7024e-004   1.2214e-002  -6.6997e+007   3.1905e+005   4.8247e+007    0.0000    0.1348    0.0009   -0.0000    0.4195
                0.0442  -2.5361e-003   3.4155e-004   1.2486e-002  -4.8663e+007   2.3160e+005   4.9320e+007    0.0000    0.0979    0.0007   -0.0000    0.4289
                0.0663  -1.5806e-003   2.1285e-004   1.2671e-002  -3.0328e+007   1.4415e+005   5.0052e+007    0.0000    0.0610    0.0004   -0.0000    0.4352
                0.0883  -6.2504e-004   8.4158e-005   1.2770e-002  -1.1993e+007   5.6696e+004   5.0443e+007    0.0000    0.0241    0.0002   -0.0000    0.4386
                0.1104   3.3285e-004  -4.4848e-005   1.2783e-002   6.3867e+006  -3.0803e+004   5.0491e+007    0.0190   -0.0000    0.0000    0.0001    0.4391
                0.1325   1.2884e-003  -1.7354e-004   1.2709e-002   2.4721e+007  -1.1826e+005   5.0199e+007    0.0734   -0.0000    0.0000    0.0004    0.4365
                0.1546   2.2439e-003  -3.0224e-004   1.2548e-002   4.3056e+007  -2.0571e+005   4.9565e+007    0.1278   -0.0000    0.0000    0.0006    0.4310
                0.1767   3.1994e-003  -4.3093e-004   1.2301e-002   6.1391e+007  -2.9316e+005   4.8589e+007    0.1822   -0.0000    0.0000    0.0009    0.4225
                0.1988   4.1549e-003  -5.5963e-004   1.1968e-002   7.9725e+007  -3.8061e+005   4.7272e+007    0.2366   -0.0000    0.0000    0.0011    0.4111

================================================================================
sec        =  24     
zSec       =  6.9030  (m)
nPanelsTop =  3      
nPanelsBot =  3      
nWebs      =  2      

    Top:  panel  nNode   nLam     xc_St    xc_End         b         t         E_eff         G_eff      nu_eff     density  buckleCrit
            (-)    (-)    (-)       (-)       (-)       (m)       (m)          (Pa)          (Pa)         (-)    (kg/m^3)         (-)
              1     18      3    0.0000    0.2340    0.2584    0.0061   1.8666e+010   3.8417e+009      0.1301   1628.6777      0.2453
              2      9      5    0.2340    0.4660    0.2187    0.0082   4.6623e+010   4.1290e+009      0.1539   1608.6387      0.4808
              3     28      3    0.4660    1.0000    0.5178    0.0071   1.6082e+010   3.3172e+009      0.1305   1428.5206      0.8826

            panel:  1     
           lam_num    nPlies        tPly      fibAng     matID  matName
               (-)       (-)         (m)       (deg)       (-)  (-)
                 1         1    0.002981      0.0000         2  (blade-shell)
                 2         1    0.000172      0.0000         5  (LEP-core)
                 3         1    0.002981      0.0000         2  (blade-shell)

               lamina:  1     
              matName:  (blade-shell)
                     s           e11           e22           e12           s11           s22           s12   s11_fcT   s11_fcC   s22_fcT   s22_fcC   s12_fcS
                   (m)         (m/m)         (m/m)         (rad)          (Pa)          (Pa)          (Pa)       (-)       (-)       (-)       (-)       (-)
                0.0000   3.4360e-004  -4.4692e-005   5.7667e-003   6.5970e+006  -4.7293e+002   2.2778e+007    0.0196   -0.0000    0.0000    0.0000    0.1981
                0.0030   2.2574e-004  -2.9362e-005   5.7702e-003   4.3341e+006  -3.1231e+002   2.2792e+007    0.0129   -0.0000    0.0000    0.0000    0.1982
                0.0118  -2.5928e-004   3.3714e-005   5.7709e-003  -4.9781e+006   1.5992e+002   2.2795e+007    0.0000    0.0100    0.0000   -0.0000    0.1982
                0.0227  -7.3333e-004   9.5370e-005   5.7516e-003  -1.4080e+007   7.2382e+002   2.2719e+007    0.0000    0.0283    0.0000   -0.0000    0.1976
                0.0320  -1.0703e-003   1.3919e-004   5.7192e-003  -2.0549e+007   1.1177e+003   2.2591e+007    0.0000    0.0413    0.0000   -0.0000    0.1964
                0.0443  -1.4751e-003   1.9185e-004   5.6564e-003  -2.8322e+007   1.6400e+003   2.2343e+007    0.0000    0.0570    0.0000   -0.0000    0.1943
                0.0571  -1.8356e-003   2.3874e-004   5.5696e-003  -3.5244e+007   2.0948e+003   2.2000e+007    0.0000    0.0709    0.0000   -0.0000    0.1913
                0.0715  -2.1930e-003   2.8522e-004   5.4471e-003  -4.2105e+007   2.5701e+003   2.1516e+007    0.0000    0.0847    0.0000   -0.0000    0.1871
                0.0877  -2.5916e-003   3.3707e-004   5.2813e-003  -4.9759e+007   3.0901e+003   2.0861e+007    0.0000    0.1001    0.0000   -0.0000    0.1814
                0.1043  -2.9032e-003   3.7759e-004   5.0840e-003  -5.5741e+007   3.4968e+003   2.0082e+007    0.0000    0.1122    0.0000   -0.0000    0.1746
                0.1228  -3.2408e-003   4.2151e-004   4.8361e-003  -6.2223e+007   3.9505e+003   1.9103e+007    0.0000    0.1252    0.0000   -0.0000    0.1661
                0.1424  -3.5571e-003   4.6265e-004   4.5442e-003  -6.8297e+007   4.3697e+003   1.7950e+007    0.0000    0.1374    0.0000   -0.0000    0.1561
                0.1630  -3.8325e-003   4.9846e-004   4.2069e-003  -7.3583e+007   4.7394e+003   1.6617e+007    0.0000    0.1481    0.0000   -0.0000    0.1445
                0.1851  -4.1274e-003   5.3682e-004   3.8170e-003  -7.9245e+007   5.1345e+003   1.5077e+007    0.0000    0.1594    0.0000   -0.0000    0.1311
                0.2078  -4.3480e-003   5.6552e-004   3.3872e-003  -8.3481e+007   5.4285e+003   1.3380e+007    0.0000    0.1680    0.0000   -0.0000    0.1163
                0.2318  -4.5604e-003   5.9314e-004   2.9098e-003  -8.7558e+007   5.7158e+003   1.1494e+007    0.0000    0.1762    0.0000   -0.0000    0.0999
                0.2568  -4.7596e-003   6.1905e-004   2.3876e-003  -9.1383e+007   5.9858e+003   9.4310e+006    0.0000    0.1839    0.0000   -0.0000    0.0820
                0.2584  -4.7706e-003   6.2048e-004   2.3542e-003  -9.1594e+007   5.9952e+003   9.2991e+006    0.0000    0.1843    0.0000   -0.0000    0.0809

               lamina:  2     
              matName:  (LEP-core)
                     s           e11           e22           e12           s11           s22           s12   s11_fcT   s11_fcC   s22_fcT   s22_fcC   s12_fcS
                   (m)         (m/m)         (m/m)         (rad)          (Pa)          (Pa)          (Pa)       (-)       (-)       (-)       (-)       (-)
                0.0000   3.5048e-004  -4.5587e-005   5.7667e-003   7.9051e+004   1.6514e+004   5.6513e+005    0.0184   -0.0000    0.0038   -0.0000    0.1916
                0.0030   2.3262e-004  -3.0257e-005   5.7702e-003   5.2468e+004   1.0960e+004   5.6548e+005    0.0122   -0.0000    0.0026   -0.0000    0.1917
                0.0118  -1.2123e-004   1.5768e-005   5.7709e-003  -2.7344e+004  -5.7121e+003   5.6554e+005    0.0000    0.0064    0.0000    0.0013    0.1917
                0.0227  -5.3667e-004   6.9805e-005   5.7516e-003  -1.2105e+005  -2.5286e+004   5.6366e+005    0.0000    0.0282    0.0000    0.0059    0.1911
                0.0320  -8.2704e-004   1.0757e-004   5.7192e-003  -1.8654e+005  -3.8967e+004   5.6048e+005    0.0000    0.0435    0.0000    0.0091    0.1900
                0.0443  -1.2109e-003   1.5750e-004   5.6564e-003  -2.7311e+005  -5.7052e+004   5.5433e+005    0.0000    0.0637    0.0000    0.0133    0.1879
                0.0571  -1.5453e-003   2.0100e-004   5.5696e-003  -3.4855e+005  -7.2811e+004   5.4582e+005    0.0000    0.0812    0.0000    0.0170    0.1850
                0.0715  -1.8944e-003   2.4640e-004   5.4471e-003  -4.2727e+005  -8.9255e+004   5.3381e+005    0.0000    0.0996    0.0000    0.0208    0.1810
                0.0877  -2.2764e-003   2.9609e-004   5.2813e-003  -5.1344e+005  -1.0726e+005   5.1756e+005    0.0000    0.1197    0.0000    0.0250    0.1754
                0.1043  -2.5752e-003   3.3496e-004   5.0840e-003  -5.8083e+005  -1.2133e+005   4.9823e+005    0.0000    0.1354    0.0000    0.0283    0.1689
                0.1228  -2.9082e-003   3.7827e-004   4.8361e-003  -6.5595e+005  -1.3703e+005   4.7394e+005    0.0000    0.1529    0.0000    0.0319    0.1607
                0.1424  -3.2161e-003   4.1831e-004   4.5442e-003  -7.2538e+005  -1.5153e+005   4.4533e+005    0.0000    0.1691    0.0000    0.0353    0.1510
                0.1630  -3.4875e-003   4.5362e-004   4.2069e-003  -7.8660e+005  -1.6432e+005   4.1227e+005    0.0000    0.1834    0.0000    0.0383    0.1398
                0.1851  -3.7775e-003   4.9134e-004   3.8170e-003  -8.5201e+005  -1.7798e+005   3.7407e+005    0.0000    0.1986    0.0000    0.0415    0.1268
                0.2078  -3.9934e-003   5.1942e-004   3.3872e-003  -9.0071e+005  -1.8815e+005   3.3195e+005    0.0000    0.2100    0.0000    0.0439    0.1125
                0.2318  -4.2043e-003   5.4685e-004   2.9098e-003  -9.4828e+005  -1.9809e+005   2.8516e+005    0.0000    0.2210    0.0000    0.0462    0.0967
                0.2568  -4.4024e-003   5.7262e-004   2.3876e-003  -9.9296e+005  -2.0743e+005   2.3398e+005    0.0000    0.2315    0.0000    0.0484    0.0793
                0.2584  -4.4095e-003   5.7354e-004   2.3542e-003  -9.9455e+005  -2.0776e+005   2.3071e+005    0.0000    0.2318    0.0000    0.0484    0.0782

               lamina:  3     
              matName:  (blade-shell)
                     s           e11           e22           e12           s11           s22           s12   s11_fcT   s11_fcC   s22_fcT   s22_fcC   s12_fcS
                   (m)         (m/m)         (m/m)         (rad)          (Pa)          (Pa)          (Pa)       (-)       (-)       (-)       (-)       (-)
                0.0000   4.6954e-004  -6.1064e-005   5.7667e-003   9.0150e+006  -4.7306e+002   2.2778e+007    0.0268   -0.0000    0.0000    0.0000    0.1981
                0.0030   3.5168e-004  -4.5734e-005   5.7702e-003   6.7521e+006  -3.1245e+002   2.2792e+007    0.0200   -0.0000    0.0000    0.0000    0.1982
                0.0118  -1.1325e-004   1.4730e-005   5.7709e-003  -2.1743e+006   1.5977e+002   2.2795e+007    0.0000    0.0044    0.0000   -0.0000    0.1982
                0.0227  -5.2530e-004   6.8326e-005   5.7516e-003  -1.0086e+007   7.2360e+002   2.2719e+007    0.0000    0.0203    0.0000   -0.0000    0.1976
                0.0320  -8.1297e-004   1.0574e-004   5.7192e-003  -1.5609e+007   1.1175e+003   2.2591e+007    0.0000    0.0314    0.0000   -0.0000    0.1964
                0.0443  -1.1956e-003   1.5551e-004   5.6564e-003  -2.2955e+007   1.6397e+003   2.2343e+007    0.0000    0.0462    0.0000   -0.0000    0.1943
                0.0571  -1.5285e-003   1.9882e-004   5.5696e-003  -2.9348e+007   2.0945e+003   2.2000e+007    0.0000    0.0590    0.0000   -0.0000    0.1913
                0.0715  -1.8771e-003   2.4415e-004   5.4471e-003  -3.6040e+007   2.5698e+003   2.1516e+007    0.0000    0.0725    0.0000   -0.0000    0.1871
                0.0877  -2.2582e-003   2.9372e-004   5.2813e-003  -4.3356e+007   3.0898e+003   2.0861e+007    0.0000    0.0872    0.0000   -0.0000    0.1814
                0.1043  -2.5562e-003   3.3249e-004   5.0840e-003  -4.9079e+007   3.4965e+003   2.0082e+007    0.0000    0.0988    0.0000   -0.0000    0.1746
                0.1228  -2.8890e-003   3.7577e-004   4.8361e-003  -5.5468e+007   3.9501e+003   1.9103e+007    0.0000    0.1116    0.0000   -0.0000    0.1661
                0.1424  -3.1963e-003   4.1575e-004   4.5442e-003  -6.1369e+007   4.3693e+003   1.7950e+007    0.0000    0.1235    0.0000   -0.0000    0.1561
                0.1630  -3.4676e-003   4.5103e-004   4.2069e-003  -6.6577e+007   4.7391e+003   1.6617e+007    0.0000    0.1340    0.0000   -0.0000    0.1445
                0.1851  -3.7573e-003   4.8871e-004   3.8170e-003  -7.2139e+007   5.1341e+003   1.5077e+007    0.0000    0.1451    0.0000   -0.0000    0.1311
                0.2078  -3.9729e-003   5.1675e-004   3.3872e-003  -7.6279e+007   5.4281e+003   1.3380e+007    0.0000    0.1535    0.0000   -0.0000    0.1163
                0.2318  -4.1837e-003   5.4418e-004   2.9098e-003  -8.0327e+007   5.7155e+003   1.1494e+007    0.0000    0.1616    0.0000   -0.0000    0.0999
                0.2568  -4.3818e-003   5.6994e-004   2.3876e-003  -8.4129e+007   5.9854e+003   9.4310e+006    0.0000    0.1693    0.0000   -0.0000    0.0820
                0.2584  -4.3886e-003   5.7082e-004   2.3542e-003  -8.4260e+007   5.9948e+003   9.2991e+006    0.0000    0.1695    0.0000   -0.0000    0.0809

            panel:  2     
           lam_num    nPlies        tPly      fibAng     matID  matName
               (-)       (-)         (m)       (deg)       (-)  (-)
                 1         1    0.002981      0.0000         2  (blade-shell)
                 2         1    0.001081      0.0000         3  (spar-uni)
                 3         1    0.000047      0.0000         4  (spar-core)
                 4         1    0.001081      0.0000         3  (spar-uni)
                 5         1    0.002981      0.0000         2  (blade-shell)

               lamina:  1     
              matName:  (blade-shell)
                     s           e11           e22           e12           s11           s22           s12   s11_fcT   s11_fcC   s22_fcT   s22_fcC   s12_fcS
                   (m)         (m/m)         (m/m)         (rad)          (Pa)          (Pa)          (Pa)       (-)       (-)       (-)       (-)       (-)
                0.0000  -5.4733e-003   8.1751e-004   6.4093e-003  -1.0482e+008   2.0699e+006   2.5317e+007    0.0000    0.2109    0.0061   -0.0000    0.2201
                0.0239  -5.5845e-003   8.3463e-004   5.2164e-003  -1.0695e+008   2.1219e+006   2.0605e+007    0.0000    0.2152    0.0063   -0.0000    0.1792
                0.0504  -5.7111e-003   8.5404e-004   3.8615e-003  -1.0937e+008   2.1796e+006   1.5253e+007    0.0000    0.2201    0.0065   -0.0000    0.1326
                0.0774  -5.7690e-003   8.6289e-004   2.4527e-003  -1.1048e+008   2.2053e+006   9.6881e+006    0.0000    0.2223    0.0065   -0.0000    0.0842
                0.1052  -5.7729e-003   8.6347e-004   9.9593e-004  -1.1055e+008   2.2069e+006   3.9339e+006    0.0000    0.2224    0.0065   -0.0000    0.0342
                0.1335  -5.7754e-003   8.6390e-004   4.8542e-004  -1.1060e+008   2.2086e+006   1.9174e+006    0.0000    0.2225    0.0066   -0.0000    0.0167
                0.1622  -5.6566e-003   8.4570e-004   1.9762e-003  -1.0833e+008   2.1549e+006   7.8058e+006    0.0000    0.2180    0.0064   -0.0000    0.0679
                0.1915  -5.5319e-003   8.2653e-004   3.4532e-003  -1.0594e+008   2.0974e+006   1.3640e+007    0.0000    0.2132    0.0062   -0.0000    0.1186
                0.2187  -5.3873e-003   8.0433e-004   4.7816e-003  -1.0317e+008   2.0306e+006   1.8887e+007    0.0000    0.2076    0.0060   -0.0000    0.1642

               lamina:  2     
              matName:  (spar-uni)
                     s           e11           e22           e12           s11           s22           s12   s11_fcT   s11_fcC   s22_fcT   s22_fcC   s12_fcS
                   (m)         (m/m)         (m/m)         (rad)          (Pa)          (Pa)          (Pa)       (-)       (-)       (-)       (-)       (-)
                0.0000  -4.6586e-003   7.1037e-004   6.4093e-003  -5.7489e+008  -6.0560e+006   3.0188e+007    0.0000    0.5749    0.0000    0.1011    0.2931
                0.0239  -4.7698e-003   7.2748e-004   5.2164e-003  -5.8861e+008  -6.1992e+006   2.4569e+007    0.0000    0.5886    0.0000    0.1035    0.2385
                0.0504  -4.8939e-003   7.4657e-004   3.8615e-003  -6.0392e+008  -6.3592e+006   1.8188e+007    0.0000    0.6039    0.0000    0.1062    0.1766
                0.0774  -4.9495e-003   7.5511e-004   2.4527e-003  -6.1079e+008  -6.4310e+006   1.1552e+007    0.0000    0.6108    0.0000    0.1074    0.1122
                0.1052  -4.9531e-003   7.5566e-004   9.9593e-004  -6.1123e+008  -6.4356e+006   4.6908e+006    0.0000    0.6112    0.0000    0.1074    0.0455
                0.1335  -4.9566e-003   7.5620e-004   4.8542e-004  -6.1165e+008  -6.4400e+006   2.2863e+006    0.0000    0.6117    0.0000    0.1075    0.0222
                0.1622  -4.8408e-003   7.3840e-004   1.9762e-003  -5.9737e+008  -6.2907e+006   9.3077e+006    0.0000    0.5974    0.0000    0.1050    0.0904
                0.1915  -4.7173e-003   7.1940e-004   3.4532e-003  -5.8213e+008  -6.1316e+006   1.6265e+007    0.0000    0.5821    0.0000    0.1024    0.1579
                0.2187  -4.5741e-003   6.9737e-004   4.7816e-003  -5.6446e+008  -5.9470e+006   2.2521e+007    0.0000    0.5645    0.0000    0.0993    0.2187

               lamina:  3     
              matName:  (spar-core)
                     s           e11           e22           e12           s11           s22           s12   s11_fcT   s11_fcC   s22_fcT   s22_fcC   s12_fcS
                   (m)         (m/m)         (m/m)         (rad)          (Pa)          (Pa)          (Pa)       (-)       (-)       (-)       (-)       (-)
                0.0000  -4.3631e-003   6.7150e-004   6.4093e-003  -9.7601e+005  -1.8107e+005   6.2811e+005    0.0000    0.2275    0.0000    0.0422    0.2129
                0.0239  -4.4743e-003   6.8862e-004   5.2164e-003  -1.0009e+006  -1.8568e+005   5.1120e+005    0.0000    0.2333    0.0000    0.0433    0.1733
                0.0504  -4.5975e-003   7.0759e-004   3.8615e-003  -1.0284e+006  -1.9079e+005   3.7842e+005    0.0000    0.2397    0.0000    0.0445    0.1283
                0.0774  -4.6523e-003   7.1602e-004   2.4527e-003  -1.0407e+006  -1.9306e+005   2.4036e+005    0.0000    0.2426    0.0000    0.0450    0.0815
                0.1052  -4.6558e-003   7.1655e-004   9.9593e-004  -1.0415e+006  -1.9321e+005   9.7601e+004    0.0000    0.2428    0.0000    0.0450    0.0331
                0.1335  -4.6595e-003   7.1713e-004   4.8542e-004  -1.0423e+006  -1.9337e+005   4.7571e+004    0.0000    0.2430    0.0000    0.0451    0.0161
                0.1622  -4.5449e-003   6.9948e-004   1.9762e-003  -1.0167e+006  -1.8861e+005   1.9366e+005    0.0000    0.2370    0.0000    0.0440    0.0656
                0.1915  -4.4219e-003   6.8054e-004   3.4532e-003  -9.8915e+005  -1.8350e+005   3.3842e+005    0.0000    0.2306    0.0000    0.0428    0.1147
                0.2187  -4.2791e-003   6.5857e-004   4.7816e-003  -9.5721e+005  -1.7758e+005   4.6860e+005    0.0000    0.2231    0.0000    0.0414    0.1588

               lamina:  4     
              matName:  (spar-uni)
                     s           e11           e22           e12           s11           s22           s12   s11_fcT   s11_fcC   s22_fcT   s22_fcC   s12_fcS
                   (m)         (m/m)         (m/m)         (rad)          (Pa)          (Pa)          (Pa)       (-)       (-)       (-)       (-)       (-)
                0.0000  -4.3503e-003   6.6982e-004   6.4093e-003  -5.3682e+008  -5.6019e+006   3.0188e+007    0.0000    0.5368    0.0000    0.0935    0.2931
                0.0239  -4.4615e-003   6.8693e-004   5.2164e-003  -5.5055e+008  -5.7451e+006   2.4569e+007    0.0000    0.5505    0.0000    0.0959    0.2385
                0.0504  -4.5847e-003   7.0590e-004   3.8615e-003  -5.6575e+008  -5.9037e+006   1.8188e+007    0.0000    0.5657    0.0000    0.0986    0.1766
                0.0774  -4.6394e-003   7.1432e-004   2.4527e-003  -5.7250e+008  -5.9742e+006   1.1552e+007    0.0000    0.5725    0.0000    0.0997    0.1122
                0.1052  -4.6429e-003   7.1486e-004   9.9593e-004  -5.7293e+008  -5.9787e+006   4.6908e+006    0.0000    0.5729    0.0000    0.0998    0.0455
                0.1335  -4.6467e-003   7.1544e-004   4.8542e-004  -5.7339e+008  -5.9836e+006   2.2863e+006    0.0000    0.5734    0.0000    0.0999    0.0222
                0.1622  -4.5321e-003   6.9780e-004   1.9762e-003  -5.5925e+008  -5.8360e+006   9.3077e+006    0.0000    0.5593    0.0000    0.0974    0.0904
                0.1915  -4.4090e-003   6.7886e-004   3.4532e-003  -5.4407e+008  -5.6775e+006   1.6265e+007    0.0000    0.5441    0.0000    0.0948    0.1579
                0.2187  -4.2663e-003   6.5689e-004   4.7816e-003  -5.2646e+008  -5.4937e+006   2.2521e+007    0.0000    0.5265    0.0000    0.0917    0.2187

               lamina:  5     
              matName:  (blade-shell)
                     s           e11           e22           e12           s11           s22           s12   s11_fcT   s11_fcC   s22_fcT   s22_fcC   s12_fcS
                   (m)         (m/m)         (m/m)         (rad)          (Pa)          (Pa)          (Pa)       (-)       (-)       (-)       (-)       (-)
                0.0000  -4.0548e-003   6.3095e-004   6.4093e-003  -7.7589e+007   2.0278e+006   2.5317e+007    0.0000    0.1561    0.0060   -0.0000    0.2201
                0.0239  -4.1660e-003   6.4807e-004   5.2164e-003  -7.9717e+007   2.0798e+006   2.0605e+007    0.0000    0.1604    0.0062   -0.0000    0.1792
                0.0504  -4.2883e-003   6.6691e-004   3.8615e-003  -8.2057e+007   2.1373e+006   1.5253e+007    0.0000    0.1651    0.0063   -0.0000    0.1326
                0.0774  -4.3422e-003   6.7523e-004   2.4527e-003  -8.3088e+007   2.1629e+006   9.6881e+006    0.0000    0.1672    0.0064   -0.0000    0.0842
                0.1052  -4.3455e-003   6.7575e-004   9.9593e-004  -8.3153e+007   2.1645e+006   3.9339e+006    0.0000    0.1673    0.0064   -0.0000    0.0342
                0.1335  -4.3496e-003   6.7637e-004   4.8542e-004  -8.3232e+007   2.1663e+006   1.9174e+006    0.0000    0.1675    0.0064   -0.0000    0.0167
                0.1622  -4.2361e-003   6.5888e-004   1.9762e-003  -8.1059e+007   2.1127e+006   7.8058e+006    0.0000    0.1631    0.0063   -0.0000    0.0679
                0.1915  -4.1136e-003   6.4000e-004   3.4532e-003  -7.8714e+007   2.0552e+006   1.3640e+007    0.0000    0.1584    0.0061   -0.0000    0.1186
                0.2187  -3.9713e-003   6.1809e-004   4.7816e-003  -7.5991e+007   1.9885e+006   1.8887e+007    0.0000    0.1529    0.0059   -0.0000    0.1642

            panel:  3     
           lam_num    nPlies        tPly      fibAng     matID  matName
               (-)       (-)         (m)       (deg)       (-)  (-)
                 1         1    0.002981      0.0000         2  (blade-shell)
                 2         1    0.001172      0.0000         6  (TEP-core)
                 3         1    0.002981      0.0000         2  (blade-shell)

               lamina:  1     
              matName:  (blade-shell)
                     s           e11           e22           e12           s11           s22           s12   s11_fcT   s11_fcC   s22_fcT   s22_fcC   s12_fcS
                   (m)         (m/m)         (m/m)         (rad)          (Pa)          (Pa)          (Pa)       (-)       (-)       (-)       (-)       (-)
                0.0000  -4.6675e-003   6.0881e-004   9.2686e-004  -8.9611e+007   3.9768e+004   3.6611e+006    0.0000    0.1803    0.0001   -0.0000    0.0318
                0.0023  -4.6530e-003   6.0691e-004   8.8002e-004  -8.9331e+007   3.9659e+004   3.4761e+006    0.0000    0.1797    0.0001   -0.0000    0.0302
                0.0323  -4.4279e-003   5.7755e-004   2.7615e-004  -8.5011e+007   3.7582e+004   1.0908e+006    0.0000    0.1710    0.0001   -0.0000    0.0095
                0.0622  -4.2022e-003   5.4810e-004   2.9368e-004  -8.0677e+007   3.5508e+004   1.1600e+006    0.0000    0.1623    0.0001   -0.0000    0.0101
                0.0922  -3.9265e-003   5.1214e-004   8.2830e-004  -7.5385e+007   3.2981e+004   3.2718e+006    0.0000    0.1517    0.0001   -0.0000    0.0285
                0.1221  -3.6308e-003   4.7356e-004   1.3204e-003  -6.9708e+007   3.0256e+004   5.2155e+006    0.0000    0.1403    0.0001   -0.0000    0.0454
                0.1517  -3.3356e-003   4.3504e-004   1.7639e-003  -6.4040e+007   2.7543e+004   6.9672e+006    0.0000    0.1289    0.0001   -0.0000    0.0606
                0.1811  -3.0006e-003   3.9133e-004   2.1592e-003  -5.7609e+007   2.4463e+004   8.5288e+006    0.0000    0.1159    0.0001   -0.0000    0.0742
                0.2099  -2.6732e-003   3.4862e-004   2.5008e-003  -5.1323e+007   2.1440e+004   9.8782e+006    0.0000    0.1033    0.0001   -0.0000    0.0859
                0.2380  -2.3451e-003   3.0581e-004   2.7896e-003  -4.5024e+007   1.8415e+004   1.1019e+007    0.0000    0.0906    0.0001   -0.0000    0.0958
                0.2654  -2.0154e-003   2.6279e-004   3.0270e-003  -3.8694e+007   1.5373e+004   1.1957e+007    0.0000    0.0779    0.0000   -0.0000    0.1040
                0.2919  -1.6973e-003   2.2128e-004   3.2147e-003  -3.2586e+007   1.2431e+004   1.2698e+007    0.0000    0.0656    0.0000   -0.0000    0.1104
                0.3174  -1.3930e-003   1.8158e-004   3.3564e-003  -2.6744e+007   9.6183e+003   1.3258e+007    0.0000    0.0538    0.0000   -0.0000    0.1153
                0.3417  -1.1027e-003   1.4371e-004   3.4566e-003  -2.1171e+007   6.9342e+003   1.3654e+007    0.0000    0.0426    0.0000   -0.0000    0.1187
                0.3648  -8.2979e-004   1.0810e-004   3.5200e-003  -1.5931e+007   4.4048e+003   1.3904e+007    0.0000    0.0321    0.0000   -0.0000    0.1209
                0.3864  -5.8416e-004   7.6050e-005   3.5520e-003  -1.1216e+007   2.1285e+003   1.4031e+007    0.0000    0.0226    0.0000   -0.0000    0.1220
                0.4067  -3.5439e-004   4.6070e-005   3.5585e-003  -6.8042e+006  -6.3672e+001   1.4056e+007    0.0000    0.0137    0.0000    0.0000    0.1222
                0.4255   1.5313e-004  -2.0007e-005   3.5445e-003   2.9398e+006  -1.9550e+003   1.4001e+007    0.0087   -0.0000    0.0000    0.0000    0.1217
                0.4426   3.3275e-004  -4.3443e-005   3.5157e-003   6.3883e+006  -3.6159e+003   1.3887e+007    0.0190   -0.0000    0.0000    0.0000    0.1208
                0.4582   4.9552e-004  -6.4680e-005   3.4766e-003   9.5134e+006  -5.1217e+003   1.3733e+007    0.0282   -0.0000    0.0000    0.0000    0.1194
                0.4720   6.2844e-004  -8.2023e-005   3.4319e-003   1.2065e+007  -6.3518e+003   1.3556e+007    0.0358   -0.0000    0.0000    0.0000    0.1179
                0.4840   7.4321e-004  -9.6997e-005   3.3856e-003   1.4269e+007  -7.4130e+003   1.3373e+007    0.0423   -0.0000    0.0000    0.0000    0.1163
                0.4943   8.3960e-004  -1.0957e-004   3.3407e-003   1.6119e+007  -8.3047e+003   1.3196e+007    0.0478   -0.0000    0.0000    0.0000    0.1147
                0.5028   9.1499e-004  -1.1941e-004   3.3003e-003   1.7567e+007  -9.0022e+003   1.3036e+007    0.0521   -0.0000    0.0000    0.0000    0.1134
                0.5093   9.7378e-004  -1.2708e-004   3.2667e-003   1.8695e+007  -9.5451e+003   1.2904e+007    0.0555   -0.0000    0.0000    0.0000    0.1122
                0.5141   1.0177e-003  -1.3281e-004   3.2415e-003   1.9538e+007  -9.9499e+003   1.2804e+007    0.0580   -0.0000    0.0000    0.0000    0.1113
                0.5169   1.0449e-003  -1.3636e-004   3.2258e-003   2.0061e+007  -1.0201e+004   1.2742e+007    0.0595   -0.0000    0.0000    0.0000    0.1108
                0.5178   1.0540e-003  -1.3755e-004   3.2205e-003   2.0236e+007  -1.0285e+004   1.2721e+007    0.0600   -0.0000    0.0000    0.0000    0.1106

               lamina:  2     
              matName:  (TEP-core)
                     s           e11           e22           e12           s11           s22           s12   s11_fcT   s11_fcC   s22_fcT   s22_fcC   s12_fcS
                   (m)         (m/m)         (m/m)         (rad)          (Pa)          (Pa)          (Pa)       (-)       (-)       (-)       (-)       (-)
                0.0000  -4.3555e-003   5.6825e-004   9.2686e-004  -9.8225e+005  -2.0481e+005   9.0832e+004    0.0000    0.2290    0.0000    0.0477    0.0308
                0.0023  -4.3434e-003   5.6667e-004   8.8002e-004  -9.7951e+005  -2.0424e+005   8.6242e+004    0.0000    0.2283    0.0000    0.0476    0.0292
                0.0323  -4.1186e-003   5.3734e-004   2.7615e-004  -9.2881e+005  -1.9367e+005   2.7063e+004    0.0000    0.2165    0.0000    0.0451    0.0092
                0.0622  -3.8940e-003   5.0804e-004   2.9368e-004  -8.7817e+005  -1.8311e+005   2.8780e+004    0.0000    0.2047    0.0000    0.0427    0.0098
                0.0922  -3.6203e-003   4.7232e-004   8.2830e-004  -8.1644e+005  -1.7024e+005   8.1174e+004    0.0000    0.1903    0.0000    0.0397    0.0275
                0.1221  -3.3253e-003   4.3384e-004   1.3204e-003  -7.4991e+005  -1.5637e+005   1.2940e+005    0.0000    0.1748    0.0000    0.0364    0.0439
                0.1517  -3.0315e-003   3.9551e-004   1.7639e-003  -6.8367e+005  -1.4255e+005   1.7286e+005    0.0000    0.1594    0.0000    0.0332    0.0586
                0.1811  -2.6980e-003   3.5199e-004   2.1592e-003  -6.0845e+005  -1.2687e+005   2.1160e+005    0.0000    0.1418    0.0000    0.0296    0.0717
                0.2099  -2.3709e-003   3.0931e-004   2.5008e-003  -5.3468e+005  -1.1149e+005   2.4508e+005    0.0000    0.1246    0.0000    0.0260    0.0831
                0.2380  -2.0435e-003   2.6660e-004   2.7896e-003  -4.6085e+005  -9.6096e+004   2.7338e+005    0.0000    0.1074    0.0000    0.0224    0.0927
                0.2654  -1.7143e-003   2.2364e-004   3.0270e-003  -3.8660e+005  -8.0613e+004   2.9665e+005    0.0000    0.0901    0.0000    0.0188    0.1006
                0.2919  -1.3960e-003   1.8212e-004   3.2147e-003  -3.1483e+005  -6.5650e+004   3.1504e+005    0.0000    0.0734    0.0000    0.0153    0.1068
                0.3174  -1.0917e-003   1.4241e-004   3.3564e-003  -2.4620e+005  -5.1339e+004   3.2893e+005    0.0000    0.0574    0.0000    0.0120    0.1115
                0.3417  -8.0130e-004   1.0452e-004   3.4566e-003  -1.8071e+005  -3.7685e+004   3.3875e+005    0.0000    0.0421    0.0000    0.0088    0.1148
                0.3648  -5.2774e-004   6.8828e-005   3.5200e-003  -1.1902e+005  -2.4821e+004   3.4496e+005    0.0000    0.0277    0.0000    0.0058    0.1169
                0.3864  -2.8155e-004   3.6708e-005   3.5520e-003  -6.3497e+004  -1.3245e+004   3.4810e+005    0.0000    0.0148    0.0000    0.0031    0.1180
                0.4067   6.7811e-005  -8.8200e-006   3.5585e-003   1.5295e+004   3.1951e+003   3.4873e+005    0.0036   -0.0000    0.0007   -0.0000    0.1182
                0.4255   2.7262e-004  -3.5542e-005   3.5445e-003   6.1482e+004   1.2825e+004   3.4736e+005    0.0143   -0.0000    0.0030   -0.0000    0.1178
                0.4426   4.5241e-004  -5.9000e-005   3.5157e-003   1.0203e+005   2.1280e+004   3.4454e+005    0.0238   -0.0000    0.0050   -0.0000    0.1168
                0.4582   6.1548e-004  -8.0276e-005   3.4766e-003   1.3880e+005   2.8947e+004   3.4071e+005    0.0324   -0.0000    0.0067   -0.0000    0.1155
                0.4720   7.4876e-004  -9.7665e-005   3.4319e-003   1.6886e+005   3.5214e+004   3.3632e+005    0.0394   -0.0000    0.0082   -0.0000    0.1140
                0.4840   8.6361e-004  -1.1265e-004   3.3856e-003   1.9476e+005   4.0615e+004   3.3178e+005    0.0454   -0.0000    0.0095   -0.0000    0.1125
                0.4943   9.6020e-004  -1.2525e-004   3.3407e-003   2.1654e+005   4.5156e+004   3.2739e+005    0.0505   -0.0000    0.0105   -0.0000    0.1110
                0.5028   1.0357e-003  -1.3511e-004   3.3003e-003   2.3358e+005   4.8709e+004   3.2343e+005    0.0544   -0.0000    0.0114   -0.0000    0.1096
                0.5093   1.0944e-003  -1.4277e-004   3.2667e-003   2.4682e+005   5.1468e+004   3.2014e+005    0.0575   -0.0000    0.0120   -0.0000    0.1085
                0.5141   1.1381e-003  -1.4847e-004   3.2415e-003   2.5667e+005   5.3523e+004   3.1767e+005    0.0598   -0.0000    0.0125   -0.0000    0.1077
                0.5169   1.1652e-003  -1.5200e-004   3.2258e-003   2.6278e+005   5.4797e+004   3.1613e+005    0.0613   -0.0000    0.0128   -0.0000    0.1072
                0.5178   1.1743e-003  -1.5319e-004   3.2205e-003   2.6483e+005   5.5225e+004   3.1560e+005    0.0617   -0.0000    0.0129   -0.0000    0.1070

               lamina:  3     
              matName:  (blade-shell)
                     s           e11           e22           e12           s11           s22           s12   s11_fcT   s11_fcC   s22_fcT   s22_fcC   s12_fcS
                   (m)         (m/m)         (m/m)         (rad)          (Pa)          (Pa)          (Pa)       (-)       (-)       (-)       (-)       (-)
                0.0000  -4.2329e-003   5.5231e-004   9.2686e-004  -8.1267e+007   3.9677e+004   3.6611e+006    0.0000    0.1635    0.0001   -0.0000    0.0318
                0.0023  -4.2217e-003   5.5084e-004   8.8002e-004  -8.1051e+007   3.9569e+004   3.4761e+006    0.0000    0.1631    0.0001   -0.0000    0.0302
                0.0323  -3.9970e-003   5.2152e-004   2.7615e-004  -7.6737e+007   3.7491e+004   1.0908e+006    0.0000    0.1544    0.0001   -0.0000    0.0095
                0.0622  -3.7729e-003   4.9229e-004   2.9368e-004  -7.2435e+007   3.5418e+004   1.1600e+006    0.0000    0.1457    0.0001   -0.0000    0.0101
                0.0922  -3.4999e-003   4.5667e-004   8.2830e-004  -6.7194e+007   3.2892e+004   3.2718e+006    0.0000    0.1352    0.0001   -0.0000    0.0285
                0.1221  -3.2052e-003   4.1822e-004   1.3204e-003  -6.1536e+007   3.0167e+004   5.2155e+006    0.0000    0.1238    0.0001   -0.0000    0.0454
                0.1517  -2.9120e-003   3.7997e-004   1.7639e-003  -5.5907e+007   2.7454e+004   6.9672e+006    0.0000    0.1125    0.0001   -0.0000    0.0606
                0.1811  -2.5790e-003   3.3652e-004   2.1592e-003  -4.9514e+007   2.4374e+004   8.5288e+006    0.0000    0.0996    0.0001   -0.0000    0.0742
                0.2099  -2.2520e-003   2.9386e-004   2.5008e-003  -4.3236e+007   2.1351e+004   9.8782e+006    0.0000    0.0870    0.0001   -0.0000    0.0859
                0.2380  -1.9250e-003   2.5118e-004   2.7896e-003  -3.6957e+007   1.8327e+004   1.1019e+007    0.0000    0.0744    0.0001   -0.0000    0.0958
                0.2654  -1.5959e-003   2.0824e-004   3.0270e-003  -3.0639e+007   1.5285e+004   1.1957e+007    0.0000    0.0616    0.0000   -0.0000    0.1040
                0.2919  -1.2776e-003   1.6672e-004   3.2147e-003  -2.4529e+007   1.2343e+004   1.2698e+007    0.0000    0.0494    0.0000   -0.0000    0.1104
                0.3174  -9.7325e-004   1.2701e-004   3.3564e-003  -1.8685e+007   9.5302e+003   1.3258e+007    0.0000    0.0376    0.0000   -0.0000    0.1153
                0.3417  -6.8281e-004   8.9116e-005   3.4566e-003  -1.3109e+007   6.8461e+003   1.3654e+007    0.0000    0.0264    0.0000   -0.0000    0.1187
                0.3648  -4.0900e-004   5.3391e-005   3.5200e-003  -7.8522e+006   4.3165e+003   1.3904e+007    0.0000    0.0158    0.0000   -0.0000    0.1209
                0.3864  -1.6259e-004   2.1241e-005   3.5520e-003  -3.1215e+006   2.0400e+003   1.4031e+007    0.0000    0.0063    0.0000   -0.0000    0.1220
                0.4067   3.7087e-004  -4.8221e-005   3.5585e-003   7.1207e+006  -1.5227e+002   1.4056e+007    0.0211   -0.0000    0.0000    0.0000    0.1222
                0.4255   5.7657e-004  -7.5059e-005   3.5445e-003   1.1070e+007  -2.0438e+003   1.4001e+007    0.0328   -0.0000    0.0000    0.0000    0.1217
                0.4426   7.5680e-004  -9.8574e-005   3.5157e-003   1.4530e+007  -3.7049e+003   1.3887e+007    0.0431   -0.0000    0.0000    0.0000    0.1208
                0.4582   9.2063e-004  -1.1995e-004   3.4766e-003   1.7675e+007  -5.2109e+003   1.3733e+007    0.0524   -0.0000    0.0000    0.0000    0.1194
                0.4720   1.0548e-003  -1.3746e-004   3.4319e-003   2.0252e+007  -6.4413e+003   1.3556e+007    0.0601   -0.0000    0.0000    0.0000    0.1179
                0.4840   1.1699e-003  -1.5247e-004   3.3856e-003   2.2461e+007  -7.5025e+003   1.3373e+007    0.0666   -0.0000    0.0000    0.0000    0.1163
                0.4943   1.2670e-003  -1.6513e-004   3.3407e-003   2.4324e+007  -8.3944e+003   1.3196e+007    0.0722   -0.0000    0.0000    0.0000    0.1147
                0.5028   1.3429e-003  -1.7505e-004   3.3003e-003   2.5783e+007  -9.0920e+003   1.3036e+007    0.0765   -0.0000    0.0000    0.0000    0.1134
                0.5093   1.4013e-003  -1.8267e-004   3.2667e-003   2.6905e+007  -9.6348e+003   1.2904e+007    0.0798   -0.0000    0.0000    0.0000    0.1122
                0.5141   1.4445e-003  -1.8830e-004   3.2415e-003   2.7733e+007  -1.0040e+004   1.2804e+007    0.0823   -0.0000    0.0000    0.0000    0.1113
                0.5169   1.4713e-003  -1.9180e-004   3.2258e-003   2.8248e+007  -1.0290e+004   1.2742e+007    0.0838   -0.0000    0.0000    0.0000    0.1108
                0.5178   1.4804e-003  -1.9299e-004   3.2205e-003   2.8423e+007  -1.0375e+004   1.2721e+007    0.0843   -0.0000    0.0000    0.0000    0.1106

  Bottom:  panel  nNode   nLam     xc_St    xc_End         b         t         E_eff         G_eff      nu_eff     density  buckleCrit
            (-)    (-)    (-)       (-)       (-)       (m)       (m)          (Pa)          (Pa)         (-)    (kg/m^3)         (-)
              1     18      3    0.0000    0.2340    0.2467    0.0061   1.8666e+010   3.8417e+009      0.1301   1628.6777      0.0737
              2      9      5    0.2340    0.4660    0.2188    0.0082   4.6623e+010   4.1290e+009      0.1539   1608.6387      0.0065
              3     28      3    0.4660    1.0000    0.5133    0.0071   1.6082e+010   3.3172e+009      0.1305   1428.5206      0.1986

            panel:  1     
           lam_num    nPlies        tPly      fibAng     matID  matName
               (-)       (-)         (m)       (deg)       (-)  (-)
                 1         1    0.002981      0.0000         2  (blade-shell)
                 2         1    0.000172      0.0000         5  (LEP-core)
                 3         1    0.002981      0.0000         2  (blade-shell)

               lamina:  1     
              matName:  (blade-shell)
                     s           e11           e22           e12           s11           s22           s12   s11_fcT   s11_fcC   s22_fcT   s22_fcC   s12_fcS
                   (m)         (m/m)         (m/m)         (rad)          (Pa)          (Pa)          (Pa)       (-)       (-)       (-)       (-)       (-)
                0.0000   3.8603e-004  -5.0203e-005   5.7667e-003   7.4118e+006  -3.5824e+002   2.2778e+007    0.0220   -0.0000    0.0000    0.0000    0.1981
                0.0027   4.9227e-004  -6.4021e-005   5.7631e-003   9.4515e+006  -5.0302e+002   2.2764e+007    0.0280   -0.0000    0.0000    0.0000    0.1979
                0.0106   8.2488e-004  -1.0728e-004   5.7446e-003   1.5838e+007  -9.2662e+002   2.2691e+007    0.0470   -0.0000    0.0000    0.0000    0.1973
                0.0203   1.2586e-003  -1.6369e-004   5.7058e-003   2.4165e+007  -1.4276e+003   2.2538e+007    0.0717   -0.0000    0.0000    0.0000    0.1960
                0.0288   1.5626e-003  -2.0323e-004   5.6589e-003   3.0002e+007  -1.7731e+003   2.2353e+007    0.0890   -0.0000    0.0000    0.0000    0.1944
                0.0402   1.9246e-003  -2.5032e-004   5.5804e-003   3.6953e+007  -2.2340e+003   2.2043e+007    0.1097   -0.0000    0.0000    0.0000    0.1917
                0.0519   2.2342e-003  -2.9057e-004   5.4815e-003   4.2896e+007  -2.6170e+003   2.1652e+007    0.1273   -0.0000    0.0000    0.0000    0.1883
                0.0653   2.5310e-003  -3.2919e-004   5.3496e-003   4.8595e+007  -3.0100e+003   2.1131e+007    0.1442   -0.0000    0.0000    0.0000    0.1837
                0.0804   2.8610e-003  -3.7211e-004   5.1790e-003   5.4931e+007  -3.4397e+003   2.0457e+007    0.1630   -0.0000    0.0000    0.0000    0.1779
                0.0963   3.1140e-003  -4.0501e-004   4.9783e-003   5.9788e+007  -3.7697e+003   1.9664e+007    0.1774   -0.0000    0.0000    0.0000    0.1710
                0.1140   3.3879e-003  -4.4064e-004   4.7326e-003   6.5047e+007  -4.1380e+003   1.8694e+007    0.1930   -0.0000    0.0000    0.0000    0.1626
                0.1329   3.6421e-003  -4.7371e-004   4.4470e-003   6.9929e+007  -4.4753e+003   1.7566e+007    0.2075   -0.0000    0.0000    0.0000    0.1527
                0.1529   3.8605e-003  -5.0211e-004   4.1198e-003   7.4121e+007  -4.7689e+003   1.6273e+007    0.2199   -0.0000    0.0000    0.0000    0.1415
                0.1744   4.0942e-003  -5.3251e-004   3.7470e-003   7.8609e+007  -5.0827e+003   1.4800e+007    0.2333   -0.0000    0.0000    0.0000    0.1287
                0.1968   4.2673e-003  -5.5503e-004   3.3360e-003   8.1932e+007  -5.3141e+003   1.3177e+007    0.2431   -0.0000    0.0000    0.0000    0.1146
                0.2204   4.4338e-003  -5.7667e-004   2.8829e-003   8.5128e+007  -5.5395e+003   1.1388e+007    0.2526   -0.0000    0.0000    0.0000    0.0990
                0.2451   4.5888e-003  -5.9684e-004   2.3903e-003   8.8104e+007  -5.7497e+003   9.4416e+006    0.2614   -0.0000    0.0000    0.0000    0.0821
                0.2467   4.5967e-003  -5.9787e-004   2.3580e-003   8.8256e+007  -5.7568e+003   9.3142e+006    0.2619   -0.0000    0.0000    0.0000    0.0810

               lamina:  2     
              matName:  (LEP-core)
                     s           e11           e22           e12           s11           s22           s12   s11_fcT   s11_fcC   s22_fcT   s22_fcC   s12_fcS
                   (m)         (m/m)         (m/m)         (rad)          (Pa)          (Pa)          (Pa)       (-)       (-)       (-)       (-)       (-)
                0.0000   2.6625e-004  -3.4631e-005   5.7667e-003   6.0052e+004   1.2545e+004   5.6513e+005    0.0140   -0.0000    0.0029   -0.0000    0.1916
                0.0027   3.7249e-004  -4.8449e-005   5.7631e-003   8.4014e+004   1.7550e+004   5.6478e+005    0.0196   -0.0000    0.0041   -0.0000    0.1915
                0.0106   6.8392e-004  -8.8957e-005   5.7446e-003   1.5426e+005   3.2224e+004   5.6297e+005    0.0360   -0.0000    0.0075   -0.0000    0.1908
                0.0203   1.0533e-003  -1.3701e-004   5.7058e-003   2.3758e+005   4.9629e+004   5.5917e+005    0.0554   -0.0000    0.0116   -0.0000    0.1895
                0.0288   1.3082e-003  -1.7016e-004   5.6589e-003   2.9507e+005   6.1639e+004   5.5457e+005    0.0688   -0.0000    0.0144   -0.0000    0.1880
                0.0402   1.6471e-003  -2.1424e-004   5.5804e-003   3.7150e+005   7.7605e+004   5.4688e+005    0.0866   -0.0000    0.0181   -0.0000    0.1854
                0.0519   1.9289e-003  -2.5089e-004   5.4815e-003   4.3506e+005   9.0884e+004   5.3719e+005    0.1014   -0.0000    0.0212   -0.0000    0.1821
                0.0653   2.2175e-003  -2.8843e-004   5.3496e-003   5.0016e+005   1.0448e+005   5.2426e+005    0.1166   -0.0000    0.0244   -0.0000    0.1777
                0.0804   2.5333e-003  -3.2950e-004   5.1790e-003   5.7137e+005   1.1936e+005   5.0754e+005    0.1332   -0.0000    0.0278   -0.0000    0.1720
                0.0963   2.7757e-003  -3.6104e-004   4.9783e-003   6.2606e+005   1.3078e+005   4.8787e+005    0.1459   -0.0000    0.0305   -0.0000    0.1654
                0.1140   3.0461e-003  -3.9620e-004   4.7326e-003   6.8703e+005   1.4352e+005   4.6379e+005    0.1601   -0.0000    0.0335   -0.0000    0.1572
                0.1329   3.2938e-003  -4.2842e-004   4.4470e-003   7.4291e+005   1.5519e+005   4.3580e+005    0.1732   -0.0000    0.0362   -0.0000    0.1477
                0.1529   3.5093e-003  -4.5645e-004   4.1198e-003   7.9152e+005   1.6535e+005   4.0374e+005    0.1845   -0.0000    0.0385   -0.0000    0.1369
                0.1744   3.7396e-003  -4.8641e-004   3.7470e-003   8.4347e+005   1.7620e+005   3.6720e+005    0.1966   -0.0000    0.0411   -0.0000    0.1245
                0.1968   3.9095e-003  -5.0851e-004   3.3360e-003   8.8179e+005   1.8420e+005   3.2693e+005    0.2055   -0.0000    0.0429   -0.0000    0.1108
                0.2204   4.0750e-003  -5.3003e-004   2.8829e-003   9.1910e+005   1.9200e+005   2.8253e+005    0.2142   -0.0000    0.0448   -0.0000    0.0958
                0.2451   4.2293e-003  -5.5010e-004   2.3903e-003   9.5390e+005   1.9927e+005   2.3425e+005    0.2224   -0.0000    0.0464   -0.0000    0.0794
                0.2467   4.2346e-003  -5.5079e-004   2.3580e-003   9.5510e+005   1.9952e+005   2.3109e+005    0.2226   -0.0000    0.0465   -0.0000    0.0783

               lamina:  3     
              matName:  (blade-shell)
                     s           e11           e22           e12           s11           s22           s12   s11_fcT   s11_fcC   s22_fcT   s22_fcC   s12_fcS
                   (m)         (m/m)         (m/m)         (rad)          (Pa)          (Pa)          (Pa)       (-)       (-)       (-)       (-)       (-)
                0.0000   2.5932e-004  -3.3730e-005   5.7667e-003   4.9789e+006  -3.5811e+002   2.2778e+007    0.0148   -0.0000    0.0000    0.0000    0.1981
                0.0027   3.6556e-004  -4.7548e-005   5.7631e-003   7.0186e+006  -5.0289e+002   2.2764e+007    0.0208   -0.0000    0.0000    0.0000    0.1979
                0.0106   6.7576e-004  -8.7897e-005   5.7446e-003   1.2975e+007  -9.2646e+002   2.2691e+007    0.0385   -0.0000    0.0000    0.0000    0.1973
                0.0203   1.0415e-003  -1.3546e-004   5.7058e-003   1.9996e+007  -1.4273e+003   2.2538e+007    0.0593   -0.0000    0.0000    0.0000    0.1960
                0.0288   1.2935e-003  -1.6825e-004   5.6589e-003   2.4835e+007  -1.7728e+003   2.2353e+007    0.0737   -0.0000    0.0000    0.0000    0.1944
                0.0402   1.6310e-003  -2.1215e-004   5.5804e-003   3.1316e+007  -2.2336e+003   2.2043e+007    0.0929   -0.0000    0.0000    0.0000    0.1917
                0.0519   1.9113e-003  -2.4860e-004   5.4815e-003   3.6696e+007  -2.6166e+003   2.1652e+007    0.1089   -0.0000    0.0000    0.0000    0.1883
                0.0653   2.1994e-003  -2.8608e-004   5.3496e-003   4.2228e+007  -3.0096e+003   2.1131e+007    0.1253   -0.0000    0.0000    0.0000    0.1837
                0.0804   2.5143e-003  -3.2703e-004   5.1790e-003   4.8274e+007  -3.4393e+003   2.0457e+007    0.1432   -0.0000    0.0000    0.0000    0.1779
                0.0963   2.7562e-003  -3.5849e-004   4.9783e-003   5.2918e+007  -3.7693e+003   1.9664e+007    0.1570   -0.0000    0.0000    0.0000    0.1710
                0.1140   3.0263e-003  -3.9363e-004   4.7326e-003   5.8104e+007  -4.1376e+003   1.8694e+007    0.1724   -0.0000    0.0000    0.0000    0.1626
                0.1329   3.2737e-003  -4.2581e-004   4.4470e-003   6.2854e+007  -4.4750e+003   1.7566e+007    0.1865   -0.0000    0.0000    0.0000    0.1527
                0.1529   3.4890e-003  -4.5381e-004   4.1198e-003   6.6988e+007  -4.7685e+003   1.6273e+007    0.1988   -0.0000    0.0000    0.0000    0.1415
                0.1744   3.7191e-003  -4.8375e-004   3.7470e-003   7.1406e+007  -5.0823e+003   1.4800e+007    0.2119   -0.0000    0.0000    0.0000    0.1287
                0.1968   3.8888e-003  -5.0582e-004   3.3360e-003   7.4665e+007  -5.3137e+003   1.3177e+007    0.2216   -0.0000    0.0000    0.0000    0.1146
                0.2204   4.0542e-003  -5.2733e-004   2.8829e-003   7.7840e+007  -5.5391e+003   1.1388e+007    0.2310   -0.0000    0.0000    0.0000    0.0990
                0.2451   4.2085e-003  -5.4740e-004   2.3903e-003   8.0802e+007  -5.7493e+003   9.4416e+006    0.2398   -0.0000    0.0000    0.0000    0.0821
                0.2467   4.2136e-003  -5.4807e-004   2.3580e-003   8.0901e+007  -5.7564e+003   9.3142e+006    0.2401   -0.0000    0.0000    0.0000    0.0810

            panel:  2     
           lam_num    nPlies        tPly      fibAng     matID  matName
               (-)       (-)         (m)       (deg)       (-)  (-)
                 1         1    0.002981      0.0000         2  (blade-shell)
                 2         1    0.001081      0.0000         3  (spar-uni)
                 3         1    0.000047      0.0000         4  (spar-core)
                 4         1    0.001081      0.0000         3  (spar-uni)
                 5         1    0.002981      0.0000         2  (blade-shell)

               lamina:  1     
              matName:  (blade-shell)
                     s           e11           e22           e12           s11           s22           s12   s11_fcT   s11_fcC   s22_fcT   s22_fcC   s12_fcS
                   (m)         (m/m)         (m/m)         (rad)          (Pa)          (Pa)          (Pa)       (-)       (-)       (-)       (-)       (-)
                0.0000   5.3014e-003  -7.9098e-004   6.4622e-003   1.0153e+008  -1.9882e+006   2.5526e+007    0.3013   -0.0000    0.0000    0.0059    0.2220
                0.0238   5.3836e-003  -8.0363e-004   5.3369e-003   1.0310e+008  -2.0266e+006   2.1081e+007    0.3059   -0.0000    0.0000    0.0060    0.1833
                0.0501   5.4768e-003  -8.1793e-004   4.0637e-003   1.0489e+008  -2.0693e+006   1.6052e+007    0.3112   -0.0000    0.0000    0.0061    0.1396
                0.0771   5.5123e-003  -8.2336e-004   2.7387e-003   1.0556e+008  -2.0851e+006   1.0818e+007    0.3132   -0.0000    0.0000    0.0062    0.0941
                0.1049   5.5030e-003  -8.2193e-004   1.3697e-003   1.0539e+008  -2.0808e+006   5.4105e+006    0.3127   -0.0000    0.0000    0.0062    0.0470
                0.1332   5.4923e-003  -8.2032e-004   2.0646e-005   1.0518e+008  -2.0764e+006   8.1552e+004    0.3121   -0.0000    0.0000    0.0062    0.0007
                0.1621   5.3771e-003  -8.0266e-004   1.4229e-003   1.0298e+008  -2.0241e+006   5.6203e+006    0.3056   -0.0000    0.0000    0.0060    0.0489
                0.1915   5.2567e-003  -7.8415e-004   2.8120e-003   1.0067e+008  -1.9684e+006   1.1107e+007    0.2987   -0.0000    0.0000    0.0058    0.0966
                0.2188   5.1219e-003  -7.6344e-004   4.0625e-003   9.8093e+007  -1.9060e+006   1.6047e+007    0.2911   -0.0000    0.0000    0.0057    0.1395

               lamina:  2     
              matName:  (spar-uni)
                     s           e11           e22           e12           s11           s22           s12   s11_fcT   s11_fcC   s22_fcT   s22_fcC   s12_fcS
                   (m)         (m/m)         (m/m)         (rad)          (Pa)          (Pa)          (Pa)       (-)       (-)       (-)       (-)       (-)
                0.0000   4.4844e-003  -6.8353e-004   6.4622e-003   5.5339e+008   5.8318e+006   3.0437e+007    0.2796   -0.0000    0.0974   -0.0000    0.2955
                0.0238   4.5666e-003  -6.9619e-004   5.3369e-003   5.6353e+008   5.9377e+006   2.5137e+007    0.2848   -0.0000    0.0991   -0.0000    0.2440
                0.0501   4.6583e-003  -7.1029e-004   4.0637e-003   5.7485e+008   6.0559e+006   1.9140e+007    0.2905   -0.0000    0.1011   -0.0000    0.1858
                0.0771   4.6926e-003  -7.1555e-004   2.7387e-003   5.7908e+008   6.1001e+006   1.2899e+007    0.2926   -0.0000    0.1018   -0.0000    0.1252
                0.1049   4.6833e-003  -7.1412e-004   1.3697e-003   5.7793e+008   6.0881e+006   6.4515e+006    0.2920   -0.0000    0.1016   -0.0000    0.0626
                0.1332   4.6736e-003  -7.1264e-004   2.0646e-005   5.7674e+008   6.0756e+006   9.7243e+004    0.2914   -0.0000    0.1014   -0.0000    0.0009
                0.1621   4.5610e-003  -6.9533e-004   1.4229e-003   5.6284e+008   5.9304e+006   6.7017e+006    0.2844   -0.0000    0.0990   -0.0000    0.0651
                0.1915   4.4416e-003  -6.7695e-004   2.8120e-003   5.4810e+008   5.7765e+006   1.3244e+007    0.2770   -0.0000    0.0964   -0.0000    0.1286
                0.2188   4.3078e-003  -6.5637e-004   4.0625e-003   5.3160e+008   5.6041e+006   1.9134e+007    0.2686   -0.0000    0.0936   -0.0000    0.1858

               lamina:  3     
              matName:  (spar-core)
                     s           e11           e22           e12           s11           s22           s12   s11_fcT   s11_fcC   s22_fcT   s22_fcC   s12_fcS
                   (m)         (m/m)         (m/m)         (rad)          (Pa)          (Pa)          (Pa)       (-)       (-)       (-)       (-)       (-)
                0.0000   4.1881e-003  -6.4456e-004   6.4622e-003   9.3686e+005   1.7380e+005   6.3330e+005    0.2184   -0.0000    0.0405   -0.0000    0.2147
                0.0238   4.2703e-003  -6.5721e-004   5.3369e-003   9.5524e+005   1.7722e+005   5.2302e+005    0.2227   -0.0000    0.0413   -0.0000    0.1773
                0.0501   4.3614e-003  -6.7124e-004   4.0637e-003   9.7563e+005   1.8100e+005   3.9824e+005    0.2274   -0.0000    0.0422   -0.0000    0.1350
                0.0771   4.3953e-003  -6.7645e-004   2.7387e-003   9.8319e+005   1.8240e+005   2.6839e+005    0.2292   -0.0000    0.0425   -0.0000    0.0910
                0.1049   4.3859e-003  -6.7502e-004   1.3697e-003   9.8111e+005   1.8201e+005   1.3423e+005    0.2287   -0.0000    0.0424   -0.0000    0.0455
                0.1332   4.3767e-003  -6.7359e-004   2.0646e-005   9.7904e+005   1.8163e+005   2.0233e+003    0.2282   -0.0000    0.0423   -0.0000    0.0007
                0.1621   4.2650e-003  -6.5640e-004   1.4229e-003   9.5406e+005   1.7700e+005   1.3944e+005    0.2224   -0.0000    0.0413   -0.0000    0.0473
                0.1915   4.1459e-003  -6.3807e-004   2.8120e-003   9.2742e+005   1.7205e+005   2.7557e+005    0.2162   -0.0000    0.0401   -0.0000    0.0934
                0.2188   4.0125e-003  -6.1753e-004   4.0625e-003   8.9758e+005   1.6652e+005   3.9812e+005    0.2092   -0.0000    0.0388   -0.0000    0.1350

               lamina:  4     
              matName:  (spar-uni)
                     s           e11           e22           e12           s11           s22           s12   s11_fcT   s11_fcC   s22_fcT   s22_fcC   s12_fcS
                   (m)         (m/m)         (m/m)         (rad)          (Pa)          (Pa)          (Pa)       (-)       (-)       (-)       (-)       (-)
                0.0000   4.1753e-003  -6.4287e-004   6.4622e-003   5.1522e+008   5.3764e+006   3.0437e+007    0.2603   -0.0000    0.0898   -0.0000    0.2955
                0.0238   4.2574e-003  -6.5552e-004   5.3369e-003   5.2537e+008   5.4823e+006   2.5137e+007    0.2655   -0.0000    0.0915   -0.0000    0.2440
                0.0501   4.3486e-003  -6.6955e-004   4.0637e-003   5.3661e+008   5.5996e+006   1.9140e+007    0.2712   -0.0000    0.0935   -0.0000    0.1858
                0.0771   4.3824e-003  -6.7475e-004   2.7387e-003   5.4078e+008   5.6431e+006   1.2899e+007    0.2733   -0.0000    0.0942   -0.0000    0.1252
                0.1049   4.3731e-003  -6.7332e-004   1.3697e-003   5.3963e+008   5.6312e+006   6.4515e+006    0.2727   -0.0000    0.0940   -0.0000    0.0626
                0.1332   4.3638e-003  -6.7189e-004   2.0646e-005   5.3849e+008   5.6192e+006   9.7243e+004    0.2721   -0.0000    0.0938   -0.0000    0.0009
                0.1621   4.2522e-003  -6.5471e-004   1.4229e-003   5.2471e+008   5.4755e+006   6.7017e+006    0.2651   -0.0000    0.0914   -0.0000    0.0651
                0.1915   4.1331e-003  -6.3638e-004   2.8120e-003   5.1002e+008   5.3221e+006   1.3244e+007    0.2577   -0.0000    0.0888   -0.0000    0.1286
                0.2188   3.9997e-003  -6.1585e-004   4.0625e-003   4.9356e+008   5.1503e+006   1.9134e+007    0.2494   -0.0000    0.0860   -0.0000    0.1858

               lamina:  5     
              matName:  (blade-shell)
                     s           e11           e22           e12           s11           s22           s12   s11_fcT   s11_fcC   s22_fcT   s22_fcC   s12_fcS
                   (m)         (m/m)         (m/m)         (rad)          (Pa)          (Pa)          (Pa)       (-)       (-)       (-)       (-)       (-)
                0.0000   3.8789e-003  -6.0390e-004   6.4622e-003   7.4222e+007  -1.9459e+006   2.5526e+007    0.2202   -0.0000    0.0000    0.0058    0.2220
                0.0238   3.9611e-003  -6.1655e-004   5.3369e-003   7.5796e+007  -1.9843e+006   2.1081e+007    0.2249   -0.0000    0.0000    0.0059    0.1833
                0.0501   4.0517e-003  -6.3050e-004   4.0637e-003   7.7529e+007  -2.0269e+006   1.6052e+007    0.2301   -0.0000    0.0000    0.0060    0.1396
                0.0771   4.0850e-003  -6.3565e-004   2.7387e-003   7.8167e+007  -2.0427e+006   1.0818e+007    0.2320   -0.0000    0.0000    0.0061    0.0941
                0.1049   4.0757e-003  -6.3422e-004   1.3697e-003   7.7989e+007  -2.0384e+006   5.4105e+006    0.2314   -0.0000    0.0000    0.0060    0.0470
                0.1332   4.0668e-003  -6.3284e-004   2.0646e-005   7.7819e+007  -2.0340e+006   8.1552e+004    0.2309   -0.0000    0.0000    0.0060    0.0007
                0.1621   3.9562e-003  -6.1578e-004   1.4229e-003   7.5701e+007  -1.9819e+006   5.6203e+006    0.2246   -0.0000    0.0000    0.0059    0.0489
                0.1915   3.8375e-003  -5.9750e-004   2.8120e-003   7.3429e+007  -1.9262e+006   1.1107e+007    0.2179   -0.0000    0.0000    0.0057    0.0966
                0.2188   3.7044e-003  -5.7701e-004   4.0625e-003   7.0882e+007  -1.8639e+006   1.6047e+007    0.2103   -0.0000    0.0000    0.0055    0.1395

            panel:  3     
           lam_num    nPlies        tPly      fibAng     matID  matName
               (-)       (-)         (m)       (deg)       (-)  (-)
                 1         1    0.002981      0.0000         2  (blade-shell)
                 2         1    0.001172      0.0000         6  (TEP-core)
                 3         1    0.002981      0.0000         2  (blade-shell)

               lamina:  1     
              matName:  (blade-shell)
                     s           e11           e22           e12           s11           s22           s12   s11_fcT   s11_fcC   s22_fcT   s22_fcC   s12_fcS
                   (m)         (m/m)         (m/m)         (rad)          (Pa)          (Pa)          (Pa)       (-)       (-)       (-)       (-)       (-)
                0.0000   4.4013e-003  -5.7408e-004   2.0353e-003   8.4500e+007  -3.7304e+004   8.0396e+006    0.2507   -0.0000    0.0000    0.0001    0.0699
                0.0023   4.3881e-003  -5.7236e-004   1.9905e-003   8.4246e+007  -3.7201e+004   7.8625e+006    0.2500   -0.0000    0.0000    0.0001    0.0684
                0.0324   4.1868e-003  -5.4610e-004   1.4208e-003   8.0383e+007  -3.5342e+004   5.6121e+006    0.2385   -0.0000    0.0000    0.0001    0.0488
                0.0624   3.9852e-003  -5.1979e-004   8.8045e-004   7.6512e+007  -3.3486e+004   3.4778e+006    0.2270   -0.0000    0.0000    0.0001    0.0302
                0.0924   3.7507e-003  -4.8920e-004   3.7099e-004   7.2010e+007  -3.1331e+004   1.4654e+006    0.2137   -0.0000    0.0000    0.0001    0.0127
                0.1224   3.5033e-003  -4.5692e-004   1.0218e-004   6.7260e+007  -2.9048e+004   4.0362e+005    0.1996   -0.0000    0.0000    0.0001    0.0035
                0.1519   3.2577e-003  -4.2488e-004   5.3499e-004   6.2545e+007  -2.6784e+004   2.1132e+006    0.1856   -0.0000    0.0000    0.0001    0.0184
                0.1811   2.9981e-003  -3.9100e-004   9.2712e-004   5.7560e+007  -2.4389e+004   3.6621e+006    0.1708   -0.0000    0.0000    0.0001    0.0318
                0.2098   2.7441e-003  -3.5786e-004   1.2766e-003   5.2684e+007  -2.2040e+004   5.0426e+006    0.1563   -0.0000    0.0000    0.0001    0.0438
                0.2377   2.5003e-003  -3.2605e-004   1.5841e-003   4.8003e+007  -1.9784e+004   6.2573e+006    0.1424   -0.0000    0.0000    0.0001    0.0544
                0.2648   2.2687e-003  -2.9584e-004   1.8515e-003   4.3558e+007  -1.7642e+004   7.3136e+006    0.1293   -0.0000    0.0000    0.0001    0.0636
                0.2909   2.0454e-003  -2.6670e-004   2.0817e-003   3.9270e+007  -1.5571e+004   8.2225e+006    0.1165   -0.0000    0.0000    0.0000    0.0715
                0.3160   1.8551e-003  -2.4186e-004   2.2770e-003   3.5615e+007  -1.3802e+004   8.9941e+006    0.1057   -0.0000    0.0000    0.0000    0.0782
                0.3399   1.6791e-003  -2.1891e-004   2.4422e-003   3.2237e+007  -1.2172e+004   9.6467e+006    0.0957   -0.0000    0.0000    0.0000    0.0839
                0.3626   1.5191e-003  -1.9803e-004   2.5810e-003   2.9166e+007  -1.0682e+004   1.0195e+007    0.0865   -0.0000    0.0000    0.0000    0.0887
                0.3838   1.4017e-003  -1.8272e-004   2.6968e-003   2.6912e+007  -9.5875e+003   1.0652e+007    0.0799   -0.0000    0.0000    0.0000    0.0926
                0.4037   1.2918e-003  -1.6837e-004   2.7942e-003   2.4801e+007  -8.5653e+003   1.1037e+007    0.0736   -0.0000    0.0000    0.0000    0.0960
                0.4221   1.2128e-003  -1.5807e-004   2.8761e-003   2.3286e+007  -7.8253e+003   1.1361e+007    0.0691   -0.0000    0.0000    0.0000    0.0988
                0.4388   1.1595e-003  -1.5112e-004   2.9455e-003   2.2262e+007  -7.3286e+003   1.1635e+007    0.0661   -0.0000    0.0000    0.0000    0.1012
                0.4541   1.1114e-003  -1.4484e-004   3.0050e-003   2.1338e+007  -6.8778e+003   1.1870e+007    0.0633   -0.0000    0.0000    0.0000    0.1032
                0.4677   1.1024e-003  -1.4365e-004   3.0561e-003   2.1164e+007  -6.7904e+003   1.2072e+007    0.0628   -0.0000    0.0000    0.0000    0.1050
                0.4795   1.0980e-003  -1.4308e-004   3.1003e-003   2.1080e+007  -6.7493e+003   1.2246e+007    0.0626   -0.0000    0.0000    0.0000    0.1065
                0.4897   1.1021e-003  -1.4362e-004   3.1383e-003   2.1159e+007  -6.7898e+003   1.2396e+007    0.0628   -0.0000    0.0000    0.0000    0.1078
                0.4980   1.1255e-003  -1.4668e-004   3.1703e-003   2.1609e+007  -7.0123e+003   1.2523e+007    0.0641   -0.0000    0.0000    0.0000    0.1089
                0.5046   1.1437e-003  -1.4905e-004   3.1961e-003   2.1958e+007  -7.1872e+003   1.2624e+007    0.0652   -0.0000    0.0000    0.0000    0.1098
                0.5094   1.1673e-003  -1.5213e-004   3.2156e-003   2.2411e+007  -7.4254e+003   1.2702e+007    0.0665   -0.0000    0.0000    0.0000    0.1104
                0.5124   1.1863e-003  -1.5461e-004   3.2277e-003   2.2776e+007  -7.6149e+003   1.2749e+007    0.0676   -0.0000    0.0000    0.0000    0.1109
                0.5133   1.1930e-003  -1.5548e-004   3.2317e-003   2.2904e+007  -7.6763e+003   1.2765e+007    0.0680   -0.0000    0.0000    0.0000    0.1110

               lamina:  2     
              matName:  (TEP-core)
                     s           e11           e22           e12           s11           s22           s12   s11_fcT   s11_fcC   s22_fcT   s22_fcC   s12_fcS
                   (m)         (m/m)         (m/m)         (rad)          (Pa)          (Pa)          (Pa)       (-)       (-)       (-)       (-)       (-)
                0.0000   4.0890e-003  -5.3348e-004   2.0353e-003   9.2215e+005   1.9228e+005   1.9946e+005    0.2150   -0.0000    0.0448   -0.0000    0.0676
                0.0023   4.0775e-003  -5.3198e-004   1.9905e-003   9.1955e+005   1.9174e+005   1.9507e+005    0.2143   -0.0000    0.0447   -0.0000    0.0661
                0.0324   3.8765e-003  -5.0575e-004   1.4208e-003   8.7421e+005   1.8228e+005   1.3924e+005    0.2038   -0.0000    0.0425   -0.0000    0.0472
                0.0624   3.6755e-003  -4.7953e-004   8.8045e-004   8.2889e+005   1.7283e+005   8.6284e+004    0.1932   -0.0000    0.0403   -0.0000    0.0292
                0.0924   3.4421e-003  -4.4908e-004   3.7099e-004   7.7626e+005   1.6186e+005   3.6357e+004    0.1809   -0.0000    0.0377   -0.0000    0.0123
                0.1224   3.1951e-003  -4.1684e-004   1.0218e-004   7.2055e+005   1.5024e+005   1.0014e+004    0.1680   -0.0000    0.0350   -0.0000    0.0034
                0.1519   2.9500e-003  -3.8487e-004   5.3499e-004   6.6527e+005   1.3872e+005   5.2429e+004    0.1551   -0.0000    0.0323   -0.0000    0.0178
                0.1811   2.6908e-003  -3.5105e-004   9.2712e-004   6.0683e+005   1.2653e+005   9.0858e+004    0.1415   -0.0000    0.0295   -0.0000    0.0308
                0.2098   2.4367e-003  -3.1790e-004   1.2766e-003   5.4953e+005   1.1458e+005   1.2511e+005    0.1281   -0.0000    0.0267   -0.0000    0.0424
                0.2377   2.1927e-003  -2.8606e-004   1.5841e-003   4.9449e+005   1.0311e+005   1.5524e+005    0.1153   -0.0000    0.0240   -0.0000    0.0526
                0.2648   1.9610e-003  -2.5583e-004   1.8515e-003   4.4223e+005   9.2214e+004   1.8145e+005    0.1031   -0.0000    0.0215   -0.0000    0.0615
                0.2909   1.7370e-003  -2.2660e-004   2.0817e-003   3.9172e+005   8.1681e+004   2.0400e+005    0.0913   -0.0000    0.0190   -0.0000    0.0692
                0.3160   1.5457e-003  -2.0165e-004   2.2770e-003   3.4859e+005   7.2689e+004   2.2314e+005    0.0813   -0.0000    0.0169   -0.0000    0.0756
                0.3399   1.3694e-003  -1.7865e-004   2.4422e-003   3.0883e+005   6.4399e+004   2.3934e+005    0.0720   -0.0000    0.0150   -0.0000    0.0811
                0.3626   1.2083e-003  -1.5763e-004   2.5810e-003   2.7251e+005   5.6825e+004   2.5293e+005    0.0635   -0.0000    0.0132   -0.0000    0.0857
                0.3838   1.0901e-003  -1.4220e-004   2.6968e-003   2.4584e+005   5.1265e+004   2.6428e+005    0.0573   -0.0000    0.0119   -0.0000    0.0896
                0.4037   9.7960e-004  -1.2778e-004   2.7942e-003   2.2092e+005   4.6069e+004   2.7383e+005    0.0515   -0.0000    0.0107   -0.0000    0.0928
                0.4221   8.9971e-004  -1.1736e-004   2.8761e-003   2.0290e+005   4.2312e+004   2.8186e+005    0.0473   -0.0000    0.0099   -0.0000    0.0955
                0.4388   8.4602e-004  -1.1036e-004   2.9455e-003   1.9080e+005   3.9788e+004   2.8866e+005    0.0445   -0.0000    0.0093   -0.0000    0.0979
                0.4541   7.9735e-004  -1.0400e-004   3.0050e-003   1.7982e+005   3.7499e+004   2.9449e+005    0.0419   -0.0000    0.0087   -0.0000    0.0998
                0.4677   7.8795e-004  -1.0278e-004   3.0561e-003   1.7770e+005   3.7057e+004   2.9950e+005    0.0414   -0.0000    0.0086   -0.0000    0.1015
                0.4795   7.8351e-004  -1.0220e-004   3.1003e-003   1.7670e+005   3.6848e+004   3.0383e+005    0.0412   -0.0000    0.0086   -0.0000    0.1030
                0.4897   7.8785e-004  -1.0276e-004   3.1383e-003   1.7768e+005   3.7052e+004   3.0755e+005    0.0414   -0.0000    0.0086   -0.0000    0.1043
                0.4980   8.1183e-004  -1.0589e-004   3.1703e-003   1.8308e+005   3.8180e+004   3.1069e+005    0.0427   -0.0000    0.0089   -0.0000    0.1053
                0.5046   8.3065e-004  -1.0835e-004   3.1961e-003   1.8733e+005   3.9065e+004   3.1321e+005    0.0437   -0.0000    0.0091   -0.0000    0.1062
                0.5094   8.5611e-004  -1.1167e-004   3.2156e-003   1.9307e+005   4.0262e+004   3.1513e+005    0.0450   -0.0000    0.0094   -0.0000    0.1068
                0.5124   8.7639e-004  -1.1432e-004   3.2277e-003   1.9764e+005   4.1216e+004   3.1631e+005    0.0461   -0.0000    0.0096   -0.0000    0.1072
                0.5133   8.8304e-004  -1.1519e-004   3.2317e-003   1.9914e+005   4.1528e+004   3.1670e+005    0.0464   -0.0000    0.0097   -0.0000    0.1074

               lamina:  3     
              matName:  (blade-shell)
                     s           e11           e22           e12           s11           s22           s12   s11_fcT   s11_fcC   s22_fcT   s22_fcC   s12_fcS
                   (m)         (m/m)         (m/m)         (rad)          (Pa)          (Pa)          (Pa)       (-)       (-)       (-)       (-)       (-)
                0.0000   3.9663e-003  -5.1752e-004   2.0353e-003   7.6147e+007  -3.7213e+004   8.0396e+006    0.2260   -0.0000    0.0000    0.0001    0.0699
                0.0023   3.9554e-003  -5.1611e-004   1.9905e-003   7.5940e+007  -3.7110e+004   7.8625e+006    0.2253   -0.0000    0.0000    0.0001    0.0684
                0.0324   3.7544e-003  -4.8988e-004   1.4208e-003   7.2080e+007  -3.5252e+004   5.6121e+006    0.2139   -0.0000    0.0000    0.0001    0.0488
                0.0624   3.5538e-003  -4.6370e-004   8.8045e-004   6.8228e+007  -3.3396e+004   3.4778e+006    0.2025   -0.0000    0.0000    0.0001    0.0302
                0.0924   3.3208e-003  -4.3330e-004   3.7099e-004   6.3755e+007  -3.1241e+004   1.4654e+006    0.1892   -0.0000    0.0000    0.0001    0.0127
                0.1224   3.0739e-003  -4.0109e-004   1.0218e-004   5.9015e+007  -2.8958e+004   4.0362e+005    0.1751   -0.0000    0.0000    0.0001    0.0035
                0.1519   2.8290e-003  -3.6914e-004   5.3499e-004   5.4313e+007  -2.6694e+004   2.1132e+006    0.1612   -0.0000    0.0000    0.0001    0.0184
                0.1811   2.5700e-003  -3.3535e-004   9.2712e-004   4.9341e+007  -2.4299e+004   3.6621e+006    0.1464   -0.0000    0.0000    0.0001    0.0318
                0.2098   2.3159e-003  -3.0219e-004   1.2766e-003   4.4462e+007  -2.1951e+004   5.0426e+006    0.1319   -0.0000    0.0000    0.0001    0.0438
                0.2377   2.0718e-003  -2.7034e-004   1.5841e-003   3.9775e+007  -1.9694e+004   6.2573e+006    0.1180   -0.0000    0.0000    0.0001    0.0544
                0.2648   1.8400e-003  -2.4010e-004   1.8515e-003   3.5325e+007  -1.7553e+004   7.3136e+006    0.1048   -0.0000    0.0000    0.0001    0.0636
                0.2909   1.6157e-003  -2.1083e-004   2.0817e-003   3.1020e+007  -1.5481e+004   8.2225e+006    0.0920   -0.0000    0.0000    0.0000    0.0715
                0.3160   1.4241e-003  -1.8584e-004   2.2770e-003   2.7342e+007  -1.3712e+004   8.9941e+006    0.0811   -0.0000    0.0000    0.0000    0.0782
                0.3399   1.2477e-003  -1.6282e-004   2.4422e-003   2.3954e+007  -1.2082e+004   9.6467e+006    0.0711   -0.0000    0.0000    0.0000    0.0839
                0.3626   1.0862e-003  -1.4175e-004   2.5810e-003   2.0853e+007  -1.0591e+004   1.0195e+007    0.0619   -0.0000    0.0000    0.0000    0.0887
                0.3838   9.6760e-004  -1.2627e-004   2.6968e-003   1.8577e+007  -9.4964e+003   1.0652e+007    0.0551   -0.0000    0.0000    0.0000    0.0926
                0.4037   8.5687e-004  -1.1183e-004   2.7942e-003   1.6451e+007  -8.4740e+003   1.1037e+007    0.0488   -0.0000    0.0000    0.0000    0.0960
                0.4221   7.7661e-004  -1.0135e-004   2.8761e-003   1.4910e+007  -7.7338e+003   1.1361e+007    0.0442   -0.0000    0.0000    0.0000    0.0988
                0.4388   7.2277e-004  -9.4331e-005   2.9455e-003   1.3876e+007  -7.2369e+003   1.1635e+007    0.0412   -0.0000    0.0000    0.0000    0.1012
                0.4541   6.7388e-004  -8.7952e-005   3.0050e-003   1.2938e+007  -6.7860e+003   1.1870e+007    0.0384   -0.0000    0.0000    0.0000    0.1032
                0.4677   6.6434e-004  -8.6708e-005   3.0561e-003   1.2755e+007  -6.6985e+003   1.2072e+007    0.0378   -0.0000    0.0000    0.0000    0.1050
                0.4795   6.5990e-004  -8.6128e-005   3.1003e-003   1.2669e+007  -6.6574e+003   1.2246e+007    0.0376   -0.0000    0.0000    0.0000    0.1065
                0.4897   6.6432e-004  -8.6704e-005   3.1383e-003   1.2754e+007  -6.6979e+003   1.2396e+007    0.0378   -0.0000    0.0000    0.0000    0.1078
                0.4980   6.8852e-004  -8.9861e-005   3.1703e-003   1.3219e+007  -6.9206e+003   1.2523e+007    0.0392   -0.0000    0.0000    0.0000    0.1089
                0.5046   7.0758e-004  -9.2349e-005   3.1961e-003   1.3585e+007  -7.0957e+003   1.2624e+007    0.0403   -0.0000    0.0000    0.0000    0.1098
                0.5094   7.3377e-004  -9.5766e-005   3.2156e-003   1.4087e+007  -7.3344e+003   1.2702e+007    0.0418   -0.0000    0.0000    0.0000    0.1104
                0.5124   7.5456e-004  -9.8478e-005   3.2277e-003   1.4486e+007  -7.5243e+003   1.2749e+007    0.0430   -0.0000    0.0000    0.0000    0.1109
                0.5133   7.6121e-004  -9.9345e-005   3.2317e-003   1.4614e+007  -7.5857e+003   1.2765e+007    0.0434   -0.0000    0.0000    0.0000    0.1110

     Web:  panel  nNode   nLam     xc_St    xc_End         b         t         E_eff         G_eff      nu_eff     density  buckleCrit
            (-)    (-)    (-)       (-)       (-)       (m)       (m)          (Pa)          (Pa)         (-)    (kg/m^3)         (-)
              1     10      3    0.2340    0.2340    0.2003    0.0121   6.5707e+009   1.3870e+009      0.1347    691.8994      0.0204
              2     10      3    0.4660    0.4660    0.1900    0.0121   6.5707e+009   1.3870e+009      0.1347    691.8994      0.0201

            panel:  1     
           lam_num    nPlies        tPly      fibAng     matID  matName
               (-)       (-)         (m)       (deg)       (-)  (-)
                 1         1    0.002023      0.0000         7  (web-shell)
                 2         1    0.008047      0.0000         8  (web-core)
                 3         1    0.002023      0.0000         7  (web-shell)

               lamina:  1     
              matName:  (web-shell)
                     s           e11           e22           e12           s11           s22           s12   s11_fcT   s11_fcC   s22_fcT   s22_fcC   s12_fcS
                   (m)         (m/m)         (m/m)         (rad)          (Pa)          (Pa)          (Pa)       (-)       (-)       (-)       (-)       (-)
                0.0000  -4.2671e-003   5.7473e-004   9.5861e-003  -8.1877e+007   3.9086e+005   3.7865e+007    0.0000    0.1647    0.0012   -0.0000    0.3293
                0.0223  -3.3373e-003   4.4950e-004   9.9882e-003  -6.4036e+007   3.0577e+005   3.9453e+007    0.0000    0.1288    0.0009   -0.0000    0.3431
                0.0445  -2.4075e-003   3.2427e-004   1.0293e-002  -4.6195e+007   2.2067e+005   4.0656e+007    0.0000    0.0929    0.0007   -0.0000    0.3535
                0.0668  -1.4777e-003   1.9905e-004   1.0499e-002  -2.8355e+007   1.3558e+005   4.1472e+007    0.0000    0.0571    0.0004   -0.0000    0.3606
                0.0890  -5.4796e-004   7.3819e-005   1.0608e-002  -1.0514e+007   5.0480e+004   4.1903e+007    0.0000    0.0212    0.0001   -0.0000    0.3644
                0.1113   3.8411e-004  -5.1709e-005   1.0620e-002   7.3705e+006  -3.4662e+004   4.1947e+007    0.0219   -0.0000    0.0000    0.0001    0.3648
                0.1335   1.3139e-003  -1.7694e-004   1.0533e-002   2.5211e+007  -1.1976e+005   4.1605e+007    0.0748   -0.0000    0.0000    0.0004    0.3618
                0.1558   2.2437e-003  -3.0217e-004   1.0349e-002   4.3052e+007  -2.0485e+005   4.0878e+007    0.1277   -0.0000    0.0000    0.0006    0.3555
                0.1780   3.1734e-003  -4.2739e-004   1.0067e-002   6.0892e+007  -2.8995e+005   3.9764e+007    0.1807   -0.0000    0.0000    0.0009    0.3458
                0.2003   4.1032e-003  -5.5262e-004   9.6872e-003   7.8733e+007  -3.7505e+005   3.8264e+007    0.2336   -0.0000    0.0000    0.0011    0.3327

               lamina:  2     
              matName:  (web-core)
                     s           e11           e22           e12           s11           s22           s12   s11_fcT   s11_fcC   s22_fcT   s22_fcC   s12_fcS
                   (m)         (m/m)         (m/m)         (rad)          (Pa)          (Pa)          (Pa)       (-)       (-)       (-)       (-)       (-)
                0.0000  -4.2762e-003   5.7593e-004   9.5861e-003  -9.6295e+005  -1.9683e+005   9.3944e+005    0.0000    0.2245    0.0000    0.0459    0.3185
                0.0223  -3.3464e-003   4.5070e-004   9.9882e-003  -7.5358e+005  -1.5403e+005   9.7885e+005    0.0000    0.1757    0.0000    0.0359    0.3318
                0.0445  -2.4166e-003   3.2547e-004   1.0293e-002  -5.4420e+005  -1.1124e+005   1.0087e+006    0.0000    0.1269    0.0000    0.0259    0.3419
                0.0668  -1.4869e-003   2.0024e-004   1.0499e-002  -3.3483e+005  -6.8442e+004   1.0289e+006    0.0000    0.0780    0.0000    0.0160    0.3488
                0.0890  -5.5709e-004   7.5016e-005   1.0608e-002  -1.2545e+005  -2.5646e+004   1.0396e+006    0.0000    0.0292    0.0000    0.0060    0.3524
                0.1113   3.8182e-004  -5.1409e-005   1.0620e-002   8.5982e+004   1.7578e+004   1.0407e+006    0.0200   -0.0000    0.0041   -0.0000    0.3528
                0.1335   1.3116e-003  -1.7664e-004   1.0533e-002   2.9536e+005   6.0374e+004   1.0322e+006    0.0688   -0.0000    0.0141   -0.0000    0.3499
                0.1558   2.2414e-003  -3.0186e-004   1.0349e-002   5.0473e+005   1.0317e+005   1.0142e+006    0.1177   -0.0000    0.0240   -0.0000    0.3438
                0.1780   3.1711e-003  -4.2709e-004   1.0067e-002   7.1411e+005   1.4597e+005   9.8655e+005    0.1665   -0.0000    0.0340   -0.0000    0.3344
                0.2003   4.1009e-003  -5.5232e-004   9.6872e-003   9.2348e+005   1.8876e+005   9.4934e+005    0.2153   -0.0000    0.0440   -0.0000    0.3218

               lamina:  3     
              matName:  (web-shell)
                     s           e11           e22           e12           s11           s22           s12   s11_fcT   s11_fcC   s22_fcT   s22_fcC   s12_fcS
                   (m)         (m/m)         (m/m)         (rad)          (Pa)          (Pa)          (Pa)       (-)       (-)       (-)       (-)       (-)
                0.0000  -4.2785e-003   5.7623e-004   9.5861e-003  -8.2096e+007   3.9109e+005   3.7865e+007    0.0000    0.1652    0.0012   -0.0000    0.3293
                0.0223  -3.3487e-003   4.5100e-004   9.9882e-003  -6.4255e+007   3.0599e+005   3.9453e+007    0.0000    0.1293    0.0009   -0.0000    0.3431
                0.0445  -2.4189e-003   3.2577e-004   1.0293e-002  -4.6415e+007   2.2090e+005   4.0656e+007    0.0000    0.0934    0.0007   -0.0000    0.3535
                0.0668  -1.4892e-003   2.0054e-004   1.0499e-002  -2.8574e+007   1.3580e+005   4.1472e+007    0.0000    0.0575    0.0004   -0.0000    0.3606
                0.0890  -5.5939e-004   7.5316e-005   1.0608e-002  -1.0734e+007   5.0703e+004   4.1903e+007    0.0000    0.0216    0.0002   -0.0000    0.3644
                0.1113   3.7268e-004  -5.0212e-005   1.0620e-002   7.1510e+006  -3.4438e+004   4.1947e+007    0.0212   -0.0000    0.0000    0.0001    0.3648
                0.1335   1.3025e-003  -1.7544e-004   1.0533e-002   2.4992e+007  -1.1953e+005   4.1605e+007    0.0742   -0.0000    0.0000    0.0004    0.3618
                0.1558   2.2322e-003  -3.0067e-004   1.0349e-002   4.2832e+007  -2.0463e+005   4.0878e+007    0.1271   -0.0000    0.0000    0.0006    0.3555
                0.1780   3.1620e-003  -4.2590e-004   1.0067e-002   6.0673e+007  -2.8973e+005   3.9764e+007    0.1800   -0.0000    0.0000    0.0009    0.3458
                0.2003   4.0918e-003  -5.5112e-004   9.6872e-003   7.8513e+007  -3.7482e+005   3.8264e+007    0.2330   -0.0000    0.0000    0.0011    0.3327

            panel:  2     
           lam_num    nPlies        tPly      fibAng     matID  matName
               (-)       (-)         (m)       (deg)       (-)  (-)
                 1         1    0.002023      0.0000         7  (web-shell)
                 2         1    0.008047      0.0000         8  (web-core)
                 3         1    0.002023      0.0000         7  (web-shell)

               lamina:  1     
              matName:  (web-shell)
                     s           e11           e22           e12           s11           s22           s12   s11_fcT   s11_fcC   s22_fcT   s22_fcC   s12_fcS
                   (m)         (m/m)         (m/m)         (rad)          (Pa)          (Pa)          (Pa)       (-)       (-)       (-)       (-)       (-)
                0.0000  -4.0989e-003   5.5209e-004   1.0928e-002  -7.8651e+007   3.7546e+005   4.3164e+007    0.0000    0.1583    0.0011   -0.0000    0.3753
                0.0211  -3.2167e-003   4.3327e-004   1.1292e-002  -6.1723e+007   2.9472e+005   4.4605e+007    0.0000    0.1242    0.0009   -0.0000    0.3879
                0.0422  -2.3345e-003   3.1445e-004   1.1569e-002  -4.4795e+007   2.1398e+005   4.5699e+007    0.0000    0.0901    0.0006   -0.0000    0.3974
                0.0633  -1.4523e-003   1.9563e-004   1.1758e-002  -2.7867e+007   1.3324e+005   4.6446e+007    0.0000    0.0561    0.0004   -0.0000    0.4039
                0.0845  -5.7013e-004   7.6805e-005   1.1860e-002  -1.0940e+007   5.2494e+004   4.6845e+007    0.0000    0.0220    0.0002   -0.0000    0.4073
                0.1056   3.1427e-004  -4.2304e-005   1.1873e-002   6.0303e+006  -2.8291e+004   4.6897e+007    0.0179   -0.0000    0.0000    0.0001    0.4078
                0.1267   1.1965e-003  -1.6112e-004   1.1798e-002   2.2958e+007  -1.0903e+005   4.6601e+007    0.0681   -0.0000    0.0000    0.0003    0.4052
                0.1478   2.0787e-003  -2.7995e-004   1.1635e-002   3.9886e+007  -1.8978e+005   4.5957e+007    0.1184   -0.0000    0.0000    0.0006    0.3996
                0.1689   2.9609e-003  -3.9877e-004   1.1384e-002   5.6814e+007  -2.7052e+005   4.4966e+007    0.1686   -0.0000    0.0000    0.0008    0.3910
                0.1900   3.8431e-003  -5.1759e-004   1.1045e-002   7.3742e+007  -3.5126e+005   4.3627e+007    0.2188   -0.0000    0.0000    0.0010    0.3794

               lamina:  2     
              matName:  (web-core)
                     s           e11           e22           e12           s11           s22           s12   s11_fcT   s11_fcC   s22_fcT   s22_fcC   s12_fcS
                   (m)         (m/m)         (m/m)         (rad)          (Pa)          (Pa)          (Pa)       (-)       (-)       (-)       (-)       (-)
                0.0000  -4.1077e-003   5.5323e-004   1.0928e-002  -9.2501e+005  -1.8907e+005   1.0709e+006    0.0000    0.2156    0.0000    0.0441    0.3630
                0.0211  -3.2255e-003   4.3441e-004   1.1292e-002  -7.2634e+005  -1.4847e+005   1.1067e+006    0.0000    0.1693    0.0000    0.0346    0.3751
                0.0422  -2.3433e-003   3.1559e-004   1.1569e-002  -5.2768e+005  -1.0786e+005   1.1338e+006    0.0000    0.1230    0.0000    0.0251    0.3843
                0.0633  -1.4611e-003   1.9677e-004   1.1758e-002  -3.2902e+005  -6.7254e+004   1.1523e+006    0.0000    0.0767    0.0000    0.0157    0.3906
                0.0845  -5.7886e-004   7.7948e-005   1.1860e-002  -1.3035e+005  -2.6648e+004   1.1622e+006    0.0000    0.0304    0.0000    0.0062    0.3940
                0.1056   3.1208e-004  -4.2016e-005   1.1873e-002   7.0277e+004   1.4368e+004   1.1635e+006    0.0164   -0.0000    0.0033   -0.0000    0.3944
                0.1267   1.1943e-003  -1.6084e-004   1.1798e-002   2.6894e+005   5.4975e+004   1.1562e+006    0.0627   -0.0000    0.0128   -0.0000    0.3919
                0.1478   2.0765e-003  -2.7966e-004   1.1635e-002   4.6760e+005   9.5581e+004   1.1402e+006    0.1090   -0.0000    0.0223   -0.0000    0.3865
                0.1689   2.9587e-003  -3.9848e-004   1.1384e-002   6.6627e+005   1.3619e+005   1.1156e+006    0.1553   -0.0000    0.0317   -0.0000    0.3782
                0.1900   3.8409e-003  -5.1730e-004   1.1045e-002   8.6493e+005   1.7679e+005   1.0824e+006    0.2016   -0.0000    0.0412   -0.0000    0.3669

               lamina:  3     
              matName:  (web-shell)
                     s           e11           e22           e12           s11           s22           s12   s11_fcT   s11_fcC   s22_fcT   s22_fcC   s12_fcS
                   (m)         (m/m)         (m/m)         (rad)          (Pa)          (Pa)          (Pa)       (-)       (-)       (-)       (-)       (-)
                0.0000  -4.1099e-003   5.5352e-004   1.0928e-002  -7.8861e+007   3.7568e+005   4.3164e+007    0.0000    0.1587    0.0011   -0.0000    0.3753
                0.0211  -3.2277e-003   4.3470e-004   1.1292e-002  -6.1933e+007   2.9494e+005   4.4605e+007    0.0000    0.1246    0.0009   -0.0000    0.3879
                0.0422  -2.3455e-003   3.1588e-004   1.1569e-002  -4.5005e+007   2.1419e+005   4.5699e+007    0.0000    0.0906    0.0006   -0.0000    0.3974
                0.0633  -1.4633e-003   1.9706e-004   1.1758e-002  -2.8077e+007   1.3345e+005   4.6446e+007    0.0000    0.0565    0.0004   -0.0000    0.4039
                0.0845  -5.8105e-004   7.8235e-005   1.1860e-002  -1.1149e+007   5.2708e+004   4.6845e+007    0.0000    0.0224    0.0002   -0.0000    0.4073
                0.1056   3.0335e-004  -4.0873e-005   1.1873e-002   5.8206e+006  -2.8077e+004   4.6897e+007    0.0173   -0.0000    0.0000    0.0001    0.4078
                0.1267   1.1856e-003  -1.5969e-004   1.1798e-002   2.2748e+007  -1.0882e+005   4.6601e+007    0.0675   -0.0000    0.0000    0.0003    0.4052
                0.1478   2.0678e-003  -2.7851e-004   1.1635e-002   3.9676e+007  -1.8956e+005   4.5957e+007    0.1177   -0.0000    0.0000    0.0006    0.3996
                0.1689   2.9500e-003  -3.9734e-004   1.1384e-002   5.6604e+007  -2.7030e+005   4.4966e+007    0.1680   -0.0000    0.0000    0.0008    0.3910
                0.1900   3.8322e-003  -5.1616e-004   1.1045e-002   7.3532e+007  -3.5105e+005   4.3627e+007    0.2182   -0.0000    0.0000    0.0010    0.3794

================================================================================
sec        =  25     
zSec       =  7.2000  (m)
nPanelsTop =  3      
nPanelsBot =  3      
nWebs      =  2      

    Top:  panel  nNode   nLam     xc_St    xc_End         b         t         E_eff         G_eff      nu_eff     density  buckleCrit
            (-)    (-)    (-)       (-)       (-)       (m)       (m)          (Pa)          (Pa)         (-)    (kg/m^3)         (-)
              1     18      3    0.0000    0.2328    0.2445    0.0058   1.8653e+010   3.8390e+009      0.1301   1627.6500      0.2209
              2      9      5    0.2328    0.4672    0.2099    0.0074   4.4007e+010   4.1078e+009      0.1513   1612.8021      0.4674
              3     28      3    0.4672    1.0000    0.4910    0.0066   1.6359e+010   3.3735e+009      0.1304   1450.0082      0.8537

            panel:  1     
           lam_num    nPlies        tPly      fibAng     matID  matName
               (-)       (-)         (m)       (deg)       (-)  (-)
                 1         1    0.002800      0.0000         2  (blade-shell)
                 2         1    0.000166      0.0000         5  (LEP-core)
                 3         1    0.002800      0.0000         2  (blade-shell)

               lamina:  1     
              matName:  (blade-shell)
                     s           e11           e22           e12           s11           s22           s12   s11_fcT   s11_fcC   s22_fcT   s22_fcC   s12_fcS
                   (m)         (m/m)         (m/m)         (rad)          (Pa)          (Pa)          (Pa)       (-)       (-)       (-)       (-)       (-)
                0.0000   3.1915e-004  -4.1513e-005   5.3462e-003   6.1277e+006  -4.5045e+002   2.1117e+007    0.0182   -0.0000    0.0000    0.0000    0.1836
                0.0028   2.1271e-004  -2.7668e-005   5.3500e-003   4.0841e+006  -3.0169e+002   2.1132e+007    0.0121   -0.0000    0.0000    0.0000    0.1838
                0.0112  -2.2356e-004   2.9070e-005   5.3512e-003  -4.2923e+006   1.3580e+002   2.1137e+007    0.0000    0.0086    0.0000   -0.0000    0.1838
                0.0215  -6.5129e-004   8.4702e-005   5.3326e-003  -1.2505e+007   6.5842e+002   2.1064e+007    0.0000    0.0252    0.0000   -0.0000    0.1832
                0.0304  -9.5538e-004   1.2425e-004   5.3006e-003  -1.8343e+007   1.0237e+003   2.0937e+007    0.0000    0.0369    0.0000   -0.0000    0.1821
                0.0421  -1.3210e-003   1.7181e-004   5.2382e-003  -2.5363e+007   1.5077e+003   2.0691e+007    0.0000    0.0510    0.0000   -0.0000    0.1799
                0.0542  -1.6467e-003   2.1417e-004   5.1517e-003  -3.1616e+007   1.9294e+003   2.0349e+007    0.0000    0.0636    0.0000   -0.0000    0.1769
                0.0680  -1.9696e-003   2.5617e-004   5.0294e-003  -3.7816e+007   2.3701e+003   1.9866e+007    0.0000    0.0761    0.0000   -0.0000    0.1727
                0.0834  -2.3298e-003   3.0302e-004   4.8636e-003  -4.4732e+007   2.8523e+003   1.9211e+007    0.0000    0.0900    0.0000   -0.0000    0.1671
                0.0992  -2.6115e-003   3.3967e-004   4.6663e-003  -5.0141e+007   3.2296e+003   1.8432e+007    0.0000    0.1009    0.0000   -0.0000    0.1603
                0.1167  -2.9169e-003   3.7938e-004   4.4180e-003  -5.6003e+007   3.6504e+003   1.7451e+007    0.0000    0.1127    0.0000   -0.0000    0.1517
                0.1353  -3.2030e-003   4.1660e-004   4.1255e-003  -6.1497e+007   4.0394e+003   1.6296e+007    0.0000    0.1237    0.0000   -0.0000    0.1417
                0.1549  -3.4522e-003   4.4901e-004   3.7873e-003  -6.6281e+007   4.3827e+003   1.4960e+007    0.0000    0.1334    0.0000   -0.0000    0.1301
                0.1759  -3.7191e-003   4.8372e-004   3.3963e-003  -7.1405e+007   4.7494e+003   1.3415e+007    0.0000    0.1437    0.0000   -0.0000    0.1167
                0.1975  -3.9189e-003   5.0972e-004   2.9651e-003  -7.5243e+007   5.0227e+003   1.1712e+007    0.0000    0.1514    0.0000   -0.0000    0.1018
                0.2203  -4.1114e-003   5.3475e-004   2.4859e-003  -7.8938e+007   5.2898e+003   9.8193e+006    0.0000    0.1588    0.0000   -0.0000    0.0854
                0.2440  -4.2919e-003   5.5823e-004   1.9615e-003  -8.2404e+007   5.5410e+003   7.7479e+006    0.0000    0.1658    0.0000   -0.0000    0.0674
                0.2445  -4.2974e-003   5.5895e-004   1.9515e-003  -8.2510e+007   5.5433e+003   7.7083e+006    0.0000    0.1660    0.0000   -0.0000    0.0670

               lamina:  2     
              matName:  (LEP-core)
                     s           e11           e22           e12           s11           s22           s12   s11_fcT   s11_fcC   s22_fcT   s22_fcC   s12_fcS
                   (m)         (m/m)         (m/m)         (rad)          (Pa)          (Pa)          (Pa)       (-)       (-)       (-)       (-)       (-)
                0.0000   3.2544e-004  -4.2330e-005   5.3462e-003   7.3402e+004   1.5333e+004   5.2392e+005    0.0171   -0.0000    0.0036   -0.0000    0.1776
                0.0028   2.1900e-004  -2.8485e-005   5.3500e-003   4.9395e+004   1.0318e+004   5.2430e+005    0.0115   -0.0000    0.0024   -0.0000    0.1777
                0.0112  -1.0070e-004   1.3098e-005   5.3512e-003  -2.2713e+004  -4.7447e+003   5.2442e+005    0.0000    0.0053    0.0000    0.0011    0.1778
                0.0215  -4.7614e-004   6.1932e-005   5.3326e-003  -1.0739e+005  -2.2434e+004   5.2259e+005    0.0000    0.0250    0.0000    0.0052    0.1771
                0.0304  -7.3867e-004   9.6079e-005   5.3006e-003  -1.6661e+005  -3.4803e+004   5.1946e+005    0.0000    0.0388    0.0000    0.0081    0.1761
                0.0421  -1.0856e-003   1.4120e-004   5.2382e-003  -2.4485e+005  -5.1147e+004   5.1335e+005    0.0000    0.0571    0.0000    0.0119    0.1740
                0.0542  -1.3879e-003   1.8053e-004   5.1517e-003  -3.1304e+005  -6.5394e+004   5.0487e+005    0.0000    0.0730    0.0000    0.0152    0.1711
                0.0680  -1.7034e-003   2.2157e-004   5.0294e-003  -3.8421e+005  -8.0259e+004   4.9288e+005    0.0000    0.0896    0.0000    0.0187    0.1671
                0.0834  -2.0488e-003   2.6650e-004   4.8636e-003  -4.6211e+005  -9.6533e+004   4.7664e+005    0.0000    0.1077    0.0000    0.0225    0.1616
                0.0992  -2.3192e-003   3.0166e-004   4.6663e-003  -5.2308e+005  -1.0927e+005   4.5729e+005    0.0000    0.1219    0.0000    0.0255    0.1550
                0.1167  -2.6204e-003   3.4084e-004   4.4180e-003  -5.9102e+005  -1.2346e+005   4.3297e+005    0.0000    0.1378    0.0000    0.0288    0.1468
                0.1353  -2.8989e-003   3.7706e-004   4.1255e-003  -6.5384e+005  -1.3658e+005   4.0430e+005    0.0000    0.1524    0.0000    0.0318    0.1371
                0.1549  -3.1446e-003   4.0903e-004   3.7873e-003  -7.0926e+005  -1.4816e+005   3.7116e+005    0.0000    0.1653    0.0000    0.0345    0.1258
                0.1759  -3.4071e-003   4.4317e-004   3.3963e-003  -7.6847e+005  -1.6053e+005   3.3284e+005    0.0000    0.1791    0.0000    0.0374    0.1128
                0.1975  -3.6028e-003   4.6862e-004   2.9651e-003  -8.1260e+005  -1.6975e+005   2.9058e+005    0.0000    0.1894    0.0000    0.0396    0.0985
                0.2203  -3.7939e-003   4.9348e-004   2.4859e-003  -8.5572e+005  -1.7875e+005   2.4362e+005    0.0000    0.1995    0.0000    0.0417    0.0826
                0.2440  -3.9737e-003   5.1686e-004   1.9615e-003  -8.9625e+005  -1.8722e+005   1.9223e+005    0.0000    0.2089    0.0000    0.0436    0.0652
                0.2445  -3.9754e-003   5.1709e-004   1.9515e-003  -8.9665e+005  -1.8730e+005   1.9124e+005    0.0000    0.2090    0.0000    0.0437    0.0648

               lamina:  3     
              matName:  (blade-shell)
                     s           e11           e22           e12           s11           s22           s12   s11_fcT   s11_fcC   s22_fcT   s22_fcC   s12_fcS
                   (m)         (m/m)         (m/m)         (rad)          (Pa)          (Pa)          (Pa)       (-)       (-)       (-)       (-)       (-)
                0.0000   4.3135e-004  -5.6099e-005   5.3462e-003   8.2819e+006  -4.5058e+002   2.1117e+007    0.0246   -0.0000    0.0000    0.0000    0.1836
                0.0028   3.2491e-004  -4.2254e-005   5.3500e-003   6.2383e+006  -3.0181e+002   2.1132e+007    0.0185   -0.0000    0.0000    0.0000    0.1838
                0.0112  -9.3414e-005   1.2151e-005   5.3512e-003  -1.7935e+006   1.3565e+002   2.1137e+007    0.0000    0.0036    0.0000   -0.0000    0.1838
                0.0215  -4.6575e-004   6.0581e-005   5.3326e-003  -8.9423e+006   6.5821e+002   2.1064e+007    0.0000    0.0180    0.0000   -0.0000    0.1832
                0.0304  -7.2581e-004   9.4408e-005   5.3006e-003  -1.3935e+007   1.0234e+003   2.0937e+007    0.0000    0.0280    0.0000   -0.0000    0.1821
                0.0421  -1.0716e-003   1.3938e-004   5.2382e-003  -2.0574e+007   1.5075e+003   2.0691e+007    0.0000    0.0414    0.0000   -0.0000    0.1799
                0.0542  -1.3726e-003   1.7853e-004   5.1517e-003  -2.6353e+007   1.9291e+003   2.0349e+007    0.0000    0.0530    0.0000   -0.0000    0.1769
                0.0680  -1.6877e-003   2.1952e-004   5.0294e-003  -3.2403e+007   2.3698e+003   1.9866e+007    0.0000    0.0652    0.0000   -0.0000    0.1727
                0.0834  -2.0322e-003   2.6433e-004   4.8636e-003  -3.9017e+007   2.8519e+003   1.9211e+007    0.0000    0.0785    0.0000   -0.0000    0.1671
                0.0992  -2.3018e-003   2.9940e-004   4.6663e-003  -4.4194e+007   3.2292e+003   1.8432e+007    0.0000    0.0889    0.0000   -0.0000    0.1603
                0.1167  -2.6028e-003   3.3855e-004   4.4180e-003  -4.9973e+007   3.6501e+003   1.7451e+007    0.0000    0.1005    0.0000   -0.0000    0.1517
                0.1353  -2.8809e-003   3.7472e-004   4.1255e-003  -5.5312e+007   4.0390e+003   1.6296e+007    0.0000    0.1113    0.0000   -0.0000    0.1417
                0.1549  -3.1264e-003   4.0665e-004   3.7873e-003  -6.0026e+007   4.3823e+003   1.4960e+007    0.0000    0.1208    0.0000   -0.0000    0.1301
                0.1759  -3.3886e-003   4.4077e-004   3.3963e-003  -6.5061e+007   4.7490e+003   1.3415e+007    0.0000    0.1309    0.0000   -0.0000    0.1167
                0.1975  -3.5840e-003   4.6618e-004   2.9651e-003  -6.8812e+007   5.0223e+003   1.1712e+007    0.0000    0.1385    0.0000   -0.0000    0.1018
                0.2203  -3.7751e-003   4.9103e-004   2.4859e-003  -7.2481e+007   5.2894e+003   9.8193e+006    0.0000    0.1458    0.0000   -0.0000    0.0854
                0.2440  -3.9548e-003   5.1440e-004   1.9615e-003  -7.5931e+007   5.5406e+003   7.7479e+006    0.0000    0.1528    0.0000   -0.0000    0.0674
                0.2445  -3.9563e-003   5.1460e-004   1.9515e-003  -7.5960e+007   5.5429e+003   7.7083e+006    0.0000    0.1528    0.0000   -0.0000    0.0670

            panel:  2     
           lam_num    nPlies        tPly      fibAng     matID  matName
               (-)       (-)         (m)       (deg)       (-)  (-)
                 1         1    0.002800      0.0000         2  (blade-shell)
                 2         1    0.000890      0.0000         3  (spar-uni)
                 3         1    0.000047      0.0000         4  (spar-core)
                 4         1    0.000890      0.0000         3  (spar-uni)
                 5         1    0.002800      0.0000         2  (blade-shell)

               lamina:  1     
              matName:  (blade-shell)
                     s           e11           e22           e12           s11           s22           s12   s11_fcT   s11_fcC   s22_fcT   s22_fcC   s12_fcS
                   (m)         (m/m)         (m/m)         (rad)          (Pa)          (Pa)          (Pa)       (-)       (-)       (-)       (-)       (-)
                0.0000  -4.8654e-003   7.1743e-004   6.1549e-003  -9.3200e+007   1.6586e+006   2.4312e+007    0.0000    0.1875    0.0049   -0.0000    0.2114
                0.0238  -4.9712e-003   7.3343e-004   4.9657e-003  -9.5225e+007   1.7027e+006   1.9615e+007    0.0000    0.1916    0.0051   -0.0000    0.1706
                0.0489  -5.0861e-003   7.5077e-004   3.6725e-003  -9.7426e+007   1.7494e+006   1.4506e+007    0.0000    0.1960    0.0052   -0.0000    0.1261
                0.0746  -5.1391e-003   7.5874e-004   2.3273e-003  -9.8441e+007   1.7704e+006   9.1927e+006    0.0000    0.1981    0.0053   -0.0000    0.0799
                0.1010  -5.1435e-003   7.5939e-004   9.3622e-004  -9.8525e+007   1.7721e+006   3.6981e+006    0.0000    0.1982    0.0053   -0.0000    0.0322
                0.1279  -5.1468e-003   7.5992e-004   4.7896e-004  -9.8589e+007   1.7739e+006   1.8919e+006    0.0000    0.1984    0.0053   -0.0000    0.0165
                0.1552  -5.0408e-003   7.4394e-004   1.9035e-003  -9.6558e+007   1.7311e+006   7.5190e+006    0.0000    0.1943    0.0051   -0.0000    0.0654
                0.1831  -4.9292e-003   7.2708e-004   3.3152e-003  -9.4421e+007   1.6852e+006   1.3095e+007    0.0000    0.1900    0.0050   -0.0000    0.1139
                0.2099  -4.7946e-003   7.0675e-004   4.6351e-003  -9.1845e+007   1.6297e+006   1.8309e+007    0.0000    0.1848    0.0048   -0.0000    0.1592

               lamina:  2     
              matName:  (spar-uni)
                     s           e11           e22           e12           s11           s22           s12   s11_fcT   s11_fcC   s22_fcT   s22_fcC   s12_fcS
                   (m)         (m/m)         (m/m)         (rad)          (Pa)          (Pa)          (Pa)       (-)       (-)       (-)       (-)       (-)
                0.0000  -4.1624e-003   6.2523e-004   6.1549e-003  -5.1367e+008  -5.4890e+006   2.8990e+007    0.0000    0.5137    0.0000    0.0916    0.2815
                0.0238  -4.2681e-003   6.4124e-004   4.9657e-003  -5.2672e+008  -5.6275e+006   2.3388e+007    0.0000    0.5267    0.0000    0.0939    0.2271
                0.0489  -4.3809e-003   6.5829e-004   3.6725e-003  -5.4064e+008  -5.7753e+006   1.7297e+007    0.0000    0.5406    0.0000    0.0964    0.1679
                0.0746  -4.4319e-003   6.6599e-004   2.3273e-003  -5.4693e+008  -5.8422e+006   1.0961e+007    0.0000    0.5469    0.0000    0.0975    0.1064
                0.1010  -4.4360e-003   6.6661e-004   9.3622e-004  -5.4744e+008  -5.8476e+006   4.4096e+006    0.0000    0.5474    0.0000    0.0976    0.0428
                0.1279  -4.4401e-003   6.6723e-004   4.7896e-004  -5.4794e+008  -5.8528e+006   2.2559e+006    0.0000    0.5479    0.0000    0.0977    0.0219
                0.1552  -4.3366e-003   6.5159e-004   1.9035e-003  -5.3518e+008  -5.7172e+006   8.9657e+006    0.0000    0.5352    0.0000    0.0954    0.0870
                0.1831  -4.2261e-003   6.3488e-004   3.3152e-003  -5.2154e+008  -5.5725e+006   1.5615e+007    0.0000    0.5215    0.0000    0.0930    0.1516
                0.2099  -4.0926e-003   6.1469e-004   4.6351e-003  -5.0507e+008  -5.3976e+006   2.1832e+007    0.0000    0.5051    0.0000    0.0901    0.2120

               lamina:  3     
              matName:  (spar-core)
                     s           e11           e22           e12           s11           s22           s12   s11_fcT   s11_fcC   s22_fcT   s22_fcC   s12_fcS
                   (m)         (m/m)         (m/m)         (rad)          (Pa)          (Pa)          (Pa)       (-)       (-)       (-)       (-)       (-)
                0.0000  -3.9390e-003   5.9594e-004   6.1549e-003  -8.8193e+005  -1.6589e+005   6.0318e+005    0.0000    0.2056    0.0000    0.0387    0.2045
                0.0238  -4.0447e-003   6.1194e-004   4.9657e-003  -9.0561e+005  -1.7034e+005   4.8664e+005    0.0000    0.2111    0.0000    0.0397    0.1650
                0.0489  -4.1568e-003   6.2890e-004   3.6725e-003  -9.3071e+005  -1.7506e+005   3.5990e+005    0.0000    0.2169    0.0000    0.0408    0.1220
                0.0746  -4.2072e-003   6.3652e-004   2.3273e-003  -9.4197e+005  -1.7718e+005   2.2807e+005    0.0000    0.2196    0.0000    0.0413    0.0773
                0.1010  -4.2112e-003   6.3713e-004   9.3622e-004  -9.4288e+005  -1.7735e+005   9.1750e+004    0.0000    0.2198    0.0000    0.0413    0.0311
                0.1279  -4.2155e-003   6.3778e-004   4.7896e-004  -9.4384e+005  -1.7753e+005   4.6938e+004    0.0000    0.2200    0.0000    0.0414    0.0159
                0.1552  -4.1129e-003   6.2225e-004   1.9035e-003  -9.2087e+005  -1.7321e+005   1.8655e+005    0.0000    0.2147    0.0000    0.0404    0.0632
                0.1831  -4.0027e-003   6.0559e-004   3.3152e-003  -8.9620e+005  -1.6857e+005   3.2489e+005    0.0000    0.2089    0.0000    0.0393    0.1101
                0.2099  -3.8696e-003   5.8544e-004   4.6351e-003  -8.6639e+005  -1.6297e+005   4.5424e+005    0.0000    0.2020    0.0000    0.0380    0.1540

               lamina:  4     
              matName:  (spar-uni)
                     s           e11           e22           e12           s11           s22           s12   s11_fcT   s11_fcC   s22_fcT   s22_fcC   s12_fcS
                   (m)         (m/m)         (m/m)         (rad)          (Pa)          (Pa)          (Pa)       (-)       (-)       (-)       (-)       (-)
                0.0000  -3.9272e-003   5.9440e-004   6.1549e-003  -4.8464e+008  -5.1419e+006   2.8990e+007    0.0000    0.4846    0.0000    0.0858    0.2815
                0.0238  -4.0330e-003   6.1040e-004   4.9657e-003  -4.9769e+008  -5.2804e+006   2.3388e+007    0.0000    0.4977    0.0000    0.0882    0.2271
                0.0489  -4.1450e-003   6.2736e-004   3.6725e-003  -5.1152e+008  -5.4271e+006   1.7297e+007    0.0000    0.5115    0.0000    0.0906    0.1679
                0.0746  -4.1953e-003   6.3497e-004   2.3273e-003  -5.1773e+008  -5.4930e+006   1.0961e+007    0.0000    0.5177    0.0000    0.0917    0.1064
                0.1010  -4.1993e-003   6.3558e-004   9.3622e-004  -5.1822e+008  -5.4982e+006   4.4096e+006    0.0000    0.5182    0.0000    0.0918    0.0428
                0.1279  -4.2037e-003   6.3623e-004   4.7896e-004  -5.1876e+008  -5.5039e+006   2.2559e+006    0.0000    0.5188    0.0000    0.0919    0.0219
                0.1552  -4.1011e-003   6.2071e-004   1.9035e-003  -5.0610e+008  -5.3696e+006   8.9657e+006    0.0000    0.5061    0.0000    0.0896    0.0870
                0.1831  -3.9910e-003   6.0404e-004   3.3152e-003  -4.9251e+008  -5.2254e+006   1.5615e+007    0.0000    0.4925    0.0000    0.0872    0.1516
                0.2099  -3.8578e-003   5.8390e-004   4.6351e-003  -4.7608e+008  -5.0510e+006   2.1832e+007    0.0000    0.4761    0.0000    0.0843    0.2120

               lamina:  5     
              matName:  (blade-shell)
                     s           e11           e22           e12           s11           s22           s12   s11_fcT   s11_fcC   s22_fcT   s22_fcC   s12_fcS
                   (m)         (m/m)         (m/m)         (rad)          (Pa)          (Pa)          (Pa)       (-)       (-)       (-)       (-)       (-)
                0.0000  -3.7038e-003   5.6510e-004   6.1549e-003  -7.0901e+007   1.6328e+006   2.4312e+007    0.0000    0.1427    0.0048   -0.0000    0.2114
                0.0238  -3.8096e-003   5.8110e-004   4.9657e-003  -7.2926e+007   1.6768e+006   1.9615e+007    0.0000    0.1467    0.0050   -0.0000    0.1706
                0.0489  -3.9210e-003   5.9797e-004   3.6725e-003  -7.5058e+007   1.7235e+006   1.4506e+007    0.0000    0.1510    0.0051   -0.0000    0.1261
                0.0746  -3.9706e-003   6.0550e-004   2.3273e-003  -7.6009e+007   1.7444e+006   9.1927e+006    0.0000    0.1529    0.0052   -0.0000    0.0799
                0.1010  -3.9746e-003   6.0610e-004   9.3622e-004  -7.6084e+007   1.7461e+006   3.6981e+006    0.0000    0.1531    0.0052   -0.0000    0.0322
                0.1279  -3.9791e-003   6.0678e-004   4.7896e-004  -7.6172e+007   1.7479e+006   1.8919e+006    0.0000    0.1533    0.0052   -0.0000    0.0165
                0.1552  -3.8774e-003   5.9137e-004   1.9035e-003  -7.4224e+007   1.7052e+006   7.5190e+006    0.0000    0.1493    0.0051   -0.0000    0.0654
                0.1831  -3.7676e-003   5.7475e-004   3.3152e-003  -7.2122e+007   1.6593e+006   1.3095e+007    0.0000    0.1451    0.0049   -0.0000    0.1139
                0.2099  -3.6348e-003   5.5465e-004   4.6351e-003  -6.9580e+007   1.6039e+006   1.8309e+007    0.0000    0.1400    0.0048   -0.0000    0.1592

            panel:  3     
           lam_num    nPlies        tPly      fibAng     matID  matName
               (-)       (-)         (m)       (deg)       (-)  (-)
                 1         1    0.002800      0.0000         2  (blade-shell)
                 2         1    0.000986      0.0000         6  (TEP-core)
                 3         1    0.002800      0.0000         2  (blade-shell)

               lamina:  1     
              matName:  (blade-shell)
                     s           e11           e22           e12           s11           s22           s12   s11_fcT   s11_fcC   s22_fcT   s22_fcC   s12_fcS
                   (m)         (m/m)         (m/m)         (rad)          (Pa)          (Pa)          (Pa)       (-)       (-)       (-)       (-)       (-)
                0.0000  -4.2130e-003   5.4934e-004   1.1169e-003  -8.0885e+007   3.2171e+004   4.4118e+006    0.0000    0.1627    0.0001   -0.0000    0.0384
                0.0011  -4.2050e-003   5.4830e-004   1.0924e-003  -8.0732e+007   3.2127e+004   4.3150e+006    0.0000    0.1624    0.0001   -0.0000    0.0375
                0.0296  -4.0029e-003   5.2193e-004   4.8382e-004  -7.6851e+007   3.0454e+004   1.9111e+006    0.0000    0.1546    0.0001   -0.0000    0.0166
                0.0581  -3.8000e-003   4.9548e-004   9.0652e-005  -7.2957e+007   2.8786e+004   3.5808e+005    0.0000    0.1468    0.0001   -0.0000    0.0031
                0.0866  -3.5521e-003   4.6314e-004   6.2995e-004  -6.8197e+007   2.6750e+004   2.4883e+006    0.0000    0.1372    0.0001   -0.0000    0.0216
                0.1150  -3.2861e-003   4.2844e-004   1.1267e-003  -6.3089e+007   2.4554e+004   4.4503e+006    0.0000    0.1269    0.0001   -0.0000    0.0387
                0.1431  -3.0205e-003   3.9381e-004   1.5747e-003  -5.7990e+007   2.2368e+004   6.2199e+006    0.0000    0.1167    0.0001   -0.0000    0.0541
                0.1710  -2.7189e-003   3.5448e-004   1.9745e-003  -5.2201e+007   1.9885e+004   7.7991e+006    0.0000    0.1050    0.0001   -0.0000    0.0678
                0.1984  -2.4242e-003   3.1604e-004   2.3204e-003  -4.6543e+007   1.7448e+004   9.1656e+006    0.0000    0.0936    0.0001   -0.0000    0.0797
                0.2251  -2.1289e-003   2.7753e-004   2.6134e-003  -4.0873e+007   1.5010e+004   1.0323e+007    0.0000    0.0822    0.0000   -0.0000    0.0898
                0.2512  -1.8321e-003   2.3881e-004   2.8547e-003  -3.5174e+007   1.2556e+004   1.1276e+007    0.0000    0.0708    0.0000   -0.0000    0.0981
                0.2764  -1.5456e-003   2.0145e-004   3.0463e-003  -2.9675e+007   1.0185e+004   1.2033e+007    0.0000    0.0597    0.0000   -0.0000    0.1046
                0.3005  -1.2717e-003   1.6573e-004   3.1916e-003  -2.4416e+007   7.9170e+003   1.2607e+007    0.0000    0.0491    0.0000   -0.0000    0.1096
                0.3236  -1.0104e-003   1.3165e-004   3.2951e-003  -1.9399e+007   5.7529e+003   1.3016e+007    0.0000    0.0390    0.0000   -0.0000    0.1132
                0.3456  -7.6469e-004   9.9600e-005   3.3617e-003  -1.4682e+007   3.7137e+003   1.3279e+007    0.0000    0.0295    0.0000   -0.0000    0.1155
                0.3662  -5.4359e-004   7.0763e-005   3.3967e-003  -1.0437e+007   1.8788e+003   1.3417e+007    0.0000    0.0210    0.0000   -0.0000    0.1167
                0.3854  -3.3677e-004   4.3789e-005   3.4058e-003  -6.4660e+006   1.6289e+002   1.3453e+007    0.0000    0.0130    0.0000   -0.0000    0.1170
                0.4033  -1.5356e-004   1.9894e-005   3.3944e-003  -2.9486e+006  -1.4050e+003   1.3408e+007    0.0000    0.0059    0.0000    0.0000    0.1166
                0.4196   2.8378e-004  -3.7032e-005   3.3679e-003   5.4483e+006  -2.7435e+003   1.3303e+007    0.0162   -0.0000    0.0000    0.0000    0.1157
                0.4343   4.3026e-004  -5.6137e-005   3.3308e-003   8.2605e+006  -3.9570e+003   1.3157e+007    0.0245   -0.0000    0.0000    0.0000    0.1144
                0.4474   5.4984e-004  -7.1733e-005   3.2879e-003   1.0556e+007  -4.9479e+003   1.2987e+007    0.0313   -0.0000    0.0000    0.0000    0.1129
                0.4589   6.5308e-004  -8.5198e-005   3.2432e-003   1.2538e+007  -5.8028e+003   1.2811e+007    0.0372   -0.0000    0.0000    0.0000    0.1114
                0.4687   7.3979e-004  -9.6506e-005   3.1997e-003   1.4203e+007  -6.5211e+003   1.2639e+007    0.0421   -0.0000    0.0000    0.0000    0.1099
                0.4767   8.0759e-004  -1.0535e-004   3.1604e-003   1.5505e+007  -7.0829e+003   1.2484e+007    0.0460   -0.0000    0.0000    0.0000    0.1086
                0.4829   8.6046e-004  -1.1224e-004   3.1277e-003   1.6520e+007  -7.5201e+003   1.2354e+007    0.0490   -0.0000    0.0000    0.0000    0.1074
                0.4874   8.9995e-004  -1.1739e-004   3.1031e-003   1.7278e+007  -7.8463e+003   1.2257e+007    0.0513   -0.0000    0.0000    0.0000    0.1066
                0.4901   9.2442e-004  -1.2059e-004   3.0878e-003   1.7748e+007  -8.0486e+003   1.2197e+007    0.0527   -0.0000    0.0000    0.0000    0.1061
                0.4910   9.3262e-004  -1.2166e-004   3.0825e-003   1.7905e+007  -8.1164e+003   1.2176e+007    0.0531   -0.0000    0.0000    0.0000    0.1059

               lamina:  2     
              matName:  (TEP-core)
                     s           e11           e22           e12           s11           s22           s12   s11_fcT   s11_fcC   s22_fcT   s22_fcC   s12_fcS
                   (m)         (m/m)         (m/m)         (rad)          (Pa)          (Pa)          (Pa)       (-)       (-)       (-)       (-)       (-)
                0.0000  -3.9301e-003   5.1255e-004   1.1169e-003  -8.8631e+005  -1.8485e+005   1.0946e+005    0.0000    0.2066    0.0000    0.0431    0.0371
                0.0011  -3.9243e-003   5.1180e-004   1.0924e-003  -8.8502e+005  -1.8458e+005   1.0706e+005    0.0000    0.2063    0.0000    0.0430    0.0363
                0.0296  -3.7223e-003   4.8545e-004   4.8382e-004  -8.3945e+005  -1.7507e+005   4.7414e+004    0.0000    0.1957    0.0000    0.0408    0.0161
                0.0581  -3.5205e-003   4.5914e-004   9.0652e-005  -7.9395e+005  -1.6558e+005   8.8839e+003    0.0000    0.1851    0.0000    0.0386    0.0030
                0.0866  -3.2743e-003   4.2703e-004   6.2995e-004  -7.3843e+005  -1.5401e+005   6.1735e+004    0.0000    0.1721    0.0000    0.0359    0.0209
                0.1150  -3.0089e-003   3.9242e-004   1.1267e-003  -6.7858e+005  -1.4152e+005   1.1041e+005    0.0000    0.1582    0.0000    0.0330    0.0374
                0.1431  -2.7446e-003   3.5795e-004   1.5747e-003  -6.1897e+005  -1.2909e+005   1.5432e+005    0.0000    0.1443    0.0000    0.0301    0.0523
                0.1710  -2.4444e-003   3.1879e-004   1.9745e-003  -5.5127e+005  -1.1497e+005   1.9350e+005    0.0000    0.1285    0.0000    0.0268    0.0656
                0.1984  -2.1500e-003   2.8039e-004   2.3204e-003  -4.8487e+005  -1.0112e+005   2.2740e+005    0.0000    0.1130    0.0000    0.0236    0.0771
                0.2251  -1.8553e-003   2.4196e-004   2.6134e-003  -4.1841e+005  -8.7265e+004   2.5611e+005    0.0000    0.0975    0.0000    0.0203    0.0868
                0.2512  -1.5589e-003   2.0329e-004   2.8547e-003  -3.5156e+005  -7.3323e+004   2.7976e+005    0.0000    0.0819    0.0000    0.0171    0.0948
                0.2764  -1.2724e-003   1.6593e-004   3.0463e-003  -2.8695e+005  -5.9849e+004   2.9853e+005    0.0000    0.0669    0.0000    0.0140    0.1012
                0.3005  -9.9840e-004   1.3020e-004   3.1916e-003  -2.2516e+005  -4.6963e+004   3.1277e+005    0.0000    0.0525    0.0000    0.0109    0.1060
                0.3236  -7.3698e-004   9.6099e-005   3.2951e-003  -1.6620e+005  -3.4667e+004   3.2292e+005    0.0000    0.0387    0.0000    0.0081    0.1095
                0.3456  -4.9070e-004   6.3979e-005   3.3617e-003  -1.1066e+005  -2.3084e+004   3.2944e+005    0.0000    0.0258    0.0000    0.0054    0.1117
                0.3662  -2.6910e-004   3.5077e-005   3.3967e-003  -6.0689e+004  -1.2661e+004   3.3288e+005    0.0000    0.0141    0.0000    0.0030    0.1128
                0.3854  -6.1869e-005   8.0491e-006   3.4058e-003  -1.3954e+004  -2.9146e+003   3.3377e+005    0.0000    0.0033    0.0000    0.0007    0.1131
                0.4033   2.1919e-004  -2.8568e-005   3.3944e-003   4.9434e+004   1.0314e+004   3.3265e+005    0.0115   -0.0000    0.0024   -0.0000    0.1128
                0.4196   3.8097e-004  -4.9667e-005   3.3679e-003   8.5918e+004   1.7923e+004   3.3005e+005    0.0200   -0.0000    0.0042   -0.0000    0.1119
                0.4343   5.2769e-004  -6.8803e-005   3.3308e-003   1.1901e+005   2.4823e+004   3.2642e+005    0.0277   -0.0000    0.0058   -0.0000    0.1107
                0.4474   6.4755e-004  -8.4436e-005   3.2879e-003   1.4604e+005   3.0461e+004   3.2221e+005    0.0340   -0.0000    0.0071   -0.0000    0.1092
                0.4589   7.5087e-004  -9.7911e-005   3.2432e-003   1.6934e+005   3.5320e+004   3.1783e+005    0.0395   -0.0000    0.0082   -0.0000    0.1077
                0.4687   8.3773e-004  -1.0924e-004   3.1997e-003   1.8893e+005   3.9406e+004   3.1357e+005    0.0440   -0.0000    0.0092   -0.0000    0.1063
                0.4767   9.0566e-004  -1.1810e-004   3.1604e-003   2.0425e+005   4.2601e+004   3.0972e+005    0.0476   -0.0000    0.0099   -0.0000    0.1050
                0.4829   9.5845e-004  -1.2498e-004   3.1277e-003   2.1615e+005   4.5083e+004   3.0651e+005    0.0504   -0.0000    0.0105   -0.0000    0.1039
                0.4874   9.9776e-004  -1.3011e-004   3.1031e-003   2.2502e+005   4.6932e+004   3.0410e+005    0.0525   -0.0000    0.0109   -0.0000    0.1031
                0.4901   1.0221e-003  -1.3329e-004   3.0878e-003   2.3052e+005   4.8079e+004   3.0260e+005    0.0537   -0.0000    0.0112   -0.0000    0.1026
                0.4910   1.0303e-003  -1.3436e-004   3.0825e-003   2.3237e+005   4.8465e+004   3.0209e+005    0.0542   -0.0000    0.0113   -0.0000    0.1024

               lamina:  3     
              matName:  (blade-shell)
                     s           e11           e22           e12           s11           s22           s12   s11_fcT   s11_fcC   s22_fcT   s22_fcC   s12_fcS
                   (m)         (m/m)         (m/m)         (rad)          (Pa)          (Pa)          (Pa)       (-)       (-)       (-)       (-)       (-)
                0.0000  -3.8305e-003   4.9961e-004   1.1169e-003  -7.3541e+007   3.2111e+004   4.4118e+006    0.0000    0.1480    0.0001   -0.0000    0.0384
                0.0011  -3.8255e-003   4.9896e-004   1.0924e-003  -7.3446e+007   3.2066e+004   4.3150e+006    0.0000    0.1478    0.0001   -0.0000    0.0375
                0.0296  -3.6235e-003   4.7261e-004   4.8382e-004  -6.9568e+007   3.0394e+004   1.9111e+006    0.0000    0.1400    0.0001   -0.0000    0.0166
                0.0581  -3.4221e-003   4.4635e-004   9.0652e-005  -6.5701e+007   2.8726e+004   3.5808e+005    0.0000    0.1322    0.0001   -0.0000    0.0031
                0.0866  -3.1765e-003   4.1432e-004   6.2995e-004  -6.0986e+007   2.6690e+004   2.4883e+006    0.0000    0.1227    0.0001   -0.0000    0.0216
                0.1150  -2.9114e-003   3.7973e-004   1.1267e-003  -5.5895e+007   2.4495e+004   4.4503e+006    0.0000    0.1125    0.0001   -0.0000    0.0387
                0.1431  -2.6476e-003   3.4532e-004   1.5747e-003  -5.0830e+007   2.2309e+004   6.2199e+006    0.0000    0.1023    0.0001   -0.0000    0.0541
                0.1710  -2.3478e-003   3.0623e-004   1.9745e-003  -4.5075e+007   1.9826e+004   7.7991e+006    0.0000    0.0907    0.0001   -0.0000    0.0678
                0.1984  -2.0535e-003   2.6784e-004   2.3204e-003  -3.9424e+007   1.7389e+004   9.1656e+006    0.0000    0.0793    0.0001   -0.0000    0.0797
                0.2251  -1.7590e-003   2.2944e-004   2.6134e-003  -3.3771e+007   1.4951e+004   1.0323e+007    0.0000    0.0679    0.0000   -0.0000    0.0898
                0.2512  -1.4627e-003   1.9079e-004   2.8547e-003  -2.8083e+007   1.2498e+004   1.1276e+007    0.0000    0.0565    0.0000   -0.0000    0.0981
                0.2764  -1.1762e-003   1.5343e-004   3.0463e-003  -2.2582e+007   1.0126e+004   1.2033e+007    0.0000    0.0454    0.0000   -0.0000    0.1046
                0.3005  -9.0220e-004   1.1769e-004   3.1916e-003  -1.7321e+007   7.8584e+003   1.2607e+007    0.0000    0.0349    0.0000   -0.0000    0.1096
                0.3236  -6.4074e-004   8.3587e-005   3.2951e-003  -1.2301e+007   5.6943e+003   1.3016e+007    0.0000    0.0248    0.0000   -0.0000    0.1132
                0.3456  -3.9426e-004   5.1441e-005   3.3617e-003  -7.5693e+006   3.6549e+003   1.3279e+007    0.0000    0.0152    0.0000   -0.0000    0.1155
                0.3662  -1.7248e-004   2.2516e-005   3.3967e-003  -3.3114e+006   1.8199e+003   1.3417e+007    0.0000    0.0067    0.0000   -0.0000    0.1167
                0.3854   3.0980e-004  -4.0270e-005   3.4058e-003   5.9481e+006   1.0398e+002   1.3453e+007    0.0177   -0.0000    0.0000   -0.0000    0.1170
                0.4033   4.9490e-004  -6.4412e-005   3.3944e-003   9.5019e+006  -1.4641e+003   1.3408e+007    0.0282   -0.0000    0.0000    0.0000    0.1166
                0.4196   6.5707e-004  -8.5563e-005   3.3679e-003   1.2615e+007  -2.8027e+003   1.3303e+007    0.0374   -0.0000    0.0000    0.0000    0.1157
                0.4343   8.0448e-004  -1.0479e-004   3.3308e-003   1.5445e+007  -4.0163e+003   1.3157e+007    0.0458   -0.0000    0.0000    0.0000    0.1144
                0.4474   9.2516e-004  -1.2053e-004   3.2879e-003   1.7762e+007  -5.0074e+003   1.2987e+007    0.0527   -0.0000    0.0000    0.0000    0.1129
                0.4589   1.0287e-003  -1.3403e-004   3.2432e-003   1.9750e+007  -5.8623e+003   1.2811e+007    0.0586   -0.0000    0.0000    0.0000    0.1114
                0.4687   1.1160e-003  -1.4541e-004   3.1997e-003   2.1426e+007  -6.5808e+003   1.2639e+007    0.0636   -0.0000    0.0000    0.0000    0.1099
                0.4767   1.1843e-003  -1.5432e-004   3.1604e-003   2.2737e+007  -7.1426e+003   1.2484e+007    0.0675   -0.0000    0.0000    0.0000    0.1086
                0.4829   1.2368e-003  -1.6118e-004   3.1277e-003   2.3746e+007  -7.5798e+003   1.2354e+007    0.0705   -0.0000    0.0000    0.0000    0.1074
                0.4874   1.2757e-003  -1.6624e-004   3.1031e-003   2.4492e+007  -7.9059e+003   1.2257e+007    0.0727   -0.0000    0.0000    0.0000    0.1066
                0.4901   1.2998e-003  -1.6939e-004   3.0878e-003   2.4955e+007  -8.1081e+003   1.2197e+007    0.0741   -0.0000    0.0000    0.0000    0.1061
                0.4910   1.3080e-003  -1.7046e-004   3.0825e-003   2.5112e+007  -8.1759e+003   1.2176e+007    0.0745   -0.0000    0.0000    0.0000    0.1059

  Bottom:  panel  nNode   nLam     xc_St    xc_End         b         t         E_eff         G_eff      nu_eff     density  buckleCrit
            (-)    (-)    (-)       (-)       (-)       (m)       (m)          (Pa)          (Pa)         (-)    (kg/m^3)         (-)
              1     18      3    0.0000    0.2328    0.2334    0.0058   1.8653e+010   3.8390e+009      0.1301   1627.6500      0.0647
              2      9      5    0.2328    0.4672    0.2100    0.0074   4.4007e+010   4.1078e+009      0.1513   1612.8021      0.0077
              3     28      3    0.4672    1.0000    0.4867    0.0066   1.6359e+010   3.3735e+009      0.1304   1450.0082      0.2010

            panel:  1     
           lam_num    nPlies        tPly      fibAng     matID  matName
               (-)       (-)         (m)       (deg)       (-)  (-)
                 1         1    0.002800      0.0000         2  (blade-shell)
                 2         1    0.000166      0.0000         5  (LEP-core)
                 3         1    0.002800      0.0000         2  (blade-shell)

               lamina:  1     
              matName:  (blade-shell)
                     s           e11           e22           e12           s11           s22           s12   s11_fcT   s11_fcC   s22_fcT   s22_fcC   s12_fcS
                   (m)         (m/m)         (m/m)         (rad)          (Pa)          (Pa)          (Pa)       (-)       (-)       (-)       (-)       (-)
                0.0000   3.5731e-004  -4.6468e-005   5.3462e-003   6.8603e+006  -3.4541e+002   2.1117e+007    0.0204   -0.0000    0.0000    0.0000    0.1836
                0.0026   4.5320e-004  -5.8940e-005   5.3424e-003   8.7013e+006  -4.7942e+002   2.1102e+007    0.0258   -0.0000    0.0000    0.0000    0.1835
                0.0100   7.5324e-004  -9.7966e-005   5.3233e-003   1.4462e+007  -8.7164e+002   2.1027e+007    0.0429   -0.0000    0.0000    0.0000    0.1828
                0.0193   1.1442e-003  -1.4881e-004   5.2835e-003   2.1968e+007  -1.3356e+003   2.0870e+007    0.0652   -0.0000    0.0000    0.0000    0.1815
                0.0274   1.4181e-003  -1.8444e-004   5.2357e-003   2.7227e+007  -1.6555e+003   2.0681e+007    0.0808   -0.0000    0.0000    0.0000    0.1798
                0.0382   1.7445e-003  -2.2689e-004   5.1561e-003   3.3494e+007  -2.0820e+003   2.0367e+007    0.0994   -0.0000    0.0000    0.0000    0.1771
                0.0493   2.0234e-003  -2.6317e-004   5.0559e-003   3.8849e+007  -2.4364e+003   1.9971e+007    0.1153   -0.0000    0.0000    0.0000    0.1737
                0.0621   2.2910e-003  -2.9797e-004   4.9224e-003   4.3986e+007  -2.7998e+003   1.9443e+007    0.1305   -0.0000    0.0000    0.0000    0.1691
                0.0765   2.5883e-003  -3.3665e-004   4.7500e-003   4.9696e+007  -3.1971e+003   1.8762e+007    0.1475   -0.0000    0.0000    0.0000    0.1632
                0.0915   2.8162e-003  -3.6628e-004   4.5473e-003   5.4070e+007  -3.5021e+003   1.7962e+007    0.1604   -0.0000    0.0000    0.0000    0.1562
                0.1084   3.0629e-003  -3.9837e-004   4.2994e-003   5.8807e+007  -3.8424e+003   1.6983e+007    0.1745   -0.0000    0.0000    0.0000    0.1477
                0.1263   3.2918e-003  -4.2815e-004   4.0114e-003   6.3202e+007  -4.1540e+003   1.5845e+007    0.1875   -0.0000    0.0000    0.0000    0.1378
                0.1453   3.4883e-003  -4.5371e-004   3.6816e-003   6.6975e+007  -4.4250e+003   1.4542e+007    0.1987   -0.0000    0.0000    0.0000    0.1265
                0.1657   3.6986e-003  -4.8106e-004   3.3060e-003   7.1013e+007  -4.7146e+003   1.3059e+007    0.2107   -0.0000    0.0000    0.0000    0.1136
                0.1870   3.8542e-003  -5.0130e-004   2.8922e-003   7.4000e+007  -4.9279e+003   1.1424e+007    0.2196   -0.0000    0.0000    0.0000    0.0993
                0.2095   4.0037e-003  -5.2074e-004   2.4361e-003   7.6870e+007  -5.1356e+003   9.6224e+006    0.2281   -0.0000    0.0000    0.0000    0.0837
                0.2329   4.1428e-003  -5.3883e-004   1.9402e-003   7.9540e+007  -5.3292e+003   7.6636e+006    0.2360   -0.0000    0.0000    0.0000    0.0666
                0.2334   4.1466e-003  -5.3932e-004   1.9300e-003   7.9613e+007  -5.3310e+003   7.6233e+006    0.2362   -0.0000    0.0000    0.0000    0.0663

               lamina:  2     
              matName:  (LEP-core)
                     s           e11           e22           e12           s11           s22           s12   s11_fcT   s11_fcC   s22_fcT   s22_fcC   s12_fcS
                   (m)         (m/m)         (m/m)         (rad)          (Pa)          (Pa)          (Pa)       (-)       (-)       (-)       (-)       (-)
                0.0000   2.5022e-004  -3.2547e-005   5.3462e-003   5.6438e+004   1.1790e+004   5.2392e+005    0.0132   -0.0000    0.0027   -0.0000    0.1776
                0.0026   3.4611e-004  -4.5019e-005   5.3424e-003   7.8064e+004   1.6307e+004   5.2355e+005    0.0182   -0.0000    0.0038   -0.0000    0.1775
                0.0100   6.2727e-004  -8.1590e-005   5.3233e-003   1.4148e+005   2.9555e+004   5.2168e+005    0.0330   -0.0000    0.0069   -0.0000    0.1768
                0.0193   9.6090e-004  -1.2498e-004   5.2835e-003   2.1673e+005   4.5274e+004   5.1779e+005    0.0505   -0.0000    0.0106   -0.0000    0.1755
                0.0274   1.1910e-003  -1.5492e-004   5.2357e-003   2.6863e+005   5.6116e+004   5.1310e+005    0.0626   -0.0000    0.0131   -0.0000    0.1739
                0.0382   1.4968e-003  -1.9469e-004   5.1561e-003   3.3760e+005   7.0522e+004   5.0530e+005    0.0787   -0.0000    0.0164   -0.0000    0.1713
                0.0493   1.7510e-003  -2.2776e-004   5.0559e-003   3.9494e+005   8.2501e+004   4.9548e+005    0.0921   -0.0000    0.0192   -0.0000    0.1680
                0.0621   2.0113e-003  -2.6161e-004   4.9224e-003   4.5363e+005   9.4762e+004   4.8239e+005    0.1057   -0.0000    0.0221   -0.0000    0.1635
                0.0765   2.2959e-003  -2.9863e-004   4.7500e-003   5.1784e+005   1.0817e+005   4.6550e+005    0.1207   -0.0000    0.0252   -0.0000    0.1578
                0.0915   2.5144e-003  -3.2705e-004   4.5473e-003   5.6712e+005   1.1847e+005   4.4564e+005    0.1322   -0.0000    0.0276   -0.0000    0.1511
                0.1084   2.7580e-003  -3.5873e-004   4.2994e-003   6.2205e+005   1.2994e+005   4.2134e+005    0.1450   -0.0000    0.0303   -0.0000    0.1428
                0.1263   2.9811e-003  -3.8775e-004   4.0114e-003   6.7238e+005   1.4046e+005   3.9312e+005    0.1567   -0.0000    0.0327   -0.0000    0.1333
                0.1453   3.1750e-003  -4.1298e-004   3.6816e-003   7.1612e+005   1.4959e+005   3.6080e+005    0.1669   -0.0000    0.0349   -0.0000    0.1223
                0.1657   3.3823e-003  -4.3994e-004   3.3060e-003   7.6288e+005   1.5936e+005   3.2399e+005    0.1778   -0.0000    0.0371   -0.0000    0.1098
                0.1870   3.5350e-003  -4.5981e-004   2.8922e-003   7.9732e+005   1.6656e+005   2.8343e+005    0.1859   -0.0000    0.0388   -0.0000    0.0961
                0.2095   3.6836e-003  -4.7914e-004   2.4361e-003   8.3084e+005   1.7356e+005   2.3873e+005    0.1937   -0.0000    0.0405   -0.0000    0.0809
                0.2329   3.8222e-003  -4.9716e-004   1.9402e-003   8.6209e+005   1.8009e+005   1.9013e+005    0.2010   -0.0000    0.0420   -0.0000    0.0645
                0.2334   3.8236e-003  -4.9734e-004   1.9300e-003   8.6240e+005   1.8015e+005   1.8914e+005    0.2010   -0.0000    0.0420   -0.0000    0.0641

               lamina:  3     
              matName:  (blade-shell)
                     s           e11           e22           e12           s11           s22           s12   s11_fcT   s11_fcC   s22_fcT   s22_fcC   s12_fcS
                   (m)         (m/m)         (m/m)         (rad)          (Pa)          (Pa)          (Pa)       (-)       (-)       (-)       (-)       (-)
                0.0000   2.4387e-004  -3.1721e-005   5.3462e-003   4.6823e+006  -3.4528e+002   2.1117e+007    0.0139   -0.0000    0.0000    0.0000    0.1836
                0.0026   3.3976e-004  -4.4193e-005   5.3424e-003   6.5232e+006  -4.7930e+002   2.1102e+007    0.0194   -0.0000    0.0000    0.0000    0.1835
                0.0100   6.1980e-004  -8.0619e-005   5.3233e-003   1.1900e+007  -8.7149e+002   2.1027e+007    0.0353   -0.0000    0.0000    0.0000    0.1828
                0.0193   9.5002e-004  -1.2357e-004   5.2835e-003   1.8240e+007  -1.3354e+003   2.0870e+007    0.0541   -0.0000    0.0000    0.0000    0.1815
                0.0274   1.1776e-003  -1.5317e-004   5.2357e-003   2.2609e+007  -1.6552e+003   2.0681e+007    0.0671   -0.0000    0.0000    0.0000    0.1798
                0.0382   1.4821e-003  -1.9278e-004   5.1561e-003   2.8456e+007  -2.0817e+003   2.0367e+007    0.0844   -0.0000    0.0000    0.0000    0.1771
                0.0493   1.7349e-003  -2.2566e-004   5.0559e-003   3.3309e+007  -2.4360e+003   1.9971e+007    0.0988   -0.0000    0.0000    0.0000    0.1737
                0.0621   1.9947e-003  -2.5945e-004   4.9224e-003   3.8297e+007  -2.7994e+003   1.9443e+007    0.1136   -0.0000    0.0000    0.0000    0.1691
                0.0765   2.2786e-003  -2.9638e-004   4.7500e-003   4.3748e+007  -3.1968e+003   1.8762e+007    0.1298   -0.0000    0.0000    0.0000    0.1632
                0.0915   2.4965e-003  -3.2473e-004   4.5473e-003   4.7933e+007  -3.5018e+003   1.7962e+007    0.1422   -0.0000    0.0000    0.0000    0.1562
                0.1084   2.7399e-003  -3.5638e-004   4.2994e-003   5.2605e+007  -3.8420e+003   1.6983e+007    0.1561   -0.0000    0.0000    0.0000    0.1477
                0.1263   2.9627e-003  -3.8536e-004   4.0114e-003   5.6882e+007  -4.1536e+003   1.5845e+007    0.1688   -0.0000    0.0000    0.0000    0.1378
                0.1453   3.1564e-003  -4.1056e-004   3.6816e-003   6.0603e+007  -4.4246e+003   1.4542e+007    0.1798   -0.0000    0.0000    0.0000    0.1265
                0.1657   3.3636e-003  -4.3750e-004   3.3060e-003   6.4580e+007  -4.7142e+003   1.3059e+007    0.1916   -0.0000    0.0000    0.0000    0.1136
                0.1870   3.5161e-003  -4.5734e-004   2.8922e-003   6.7508e+007  -4.9275e+003   1.1424e+007    0.2003   -0.0000    0.0000    0.0000    0.0993
                0.2095   3.6647e-003  -4.7667e-004   2.4361e-003   7.0361e+007  -5.1352e+003   9.6224e+006    0.2088   -0.0000    0.0000    0.0000    0.0837
                0.2329   3.8032e-003  -4.9469e-004   1.9402e-003   7.3020e+007  -5.3288e+003   7.6636e+006    0.2167   -0.0000    0.0000    0.0000    0.0666
                0.2334   3.8044e-003  -4.9485e-004   1.9300e-003   7.3044e+007  -5.3306e+003   7.6233e+006    0.2167   -0.0000    0.0000    0.0000    0.0663

            panel:  2     
           lam_num    nPlies        tPly      fibAng     matID  matName
               (-)       (-)         (m)       (deg)       (-)  (-)
                 1         1    0.002800      0.0000         2  (blade-shell)
                 2         1    0.000890      0.0000         3  (spar-uni)
                 3         1    0.000047      0.0000         4  (spar-core)
                 4         1    0.000890      0.0000         3  (spar-uni)
                 5         1    0.002800      0.0000         2  (blade-shell)

               lamina:  1     
              matName:  (blade-shell)
                     s           e11           e22           e12           s11           s22           s12   s11_fcT   s11_fcC   s22_fcT   s22_fcC   s12_fcS
                   (m)         (m/m)         (m/m)         (rad)          (Pa)          (Pa)          (Pa)       (-)       (-)       (-)       (-)       (-)
                0.0000   4.7162e-003  -6.9480e-004   6.1925e-003   9.0344e+007  -1.5954e+006   2.4460e+007    0.2681   -0.0000    0.0000    0.0047    0.2127
                0.0236   4.7930e-003  -7.0642e-004   5.0685e-003   9.1814e+007  -1.6274e+006   2.0021e+007    0.2724   -0.0000    0.0000    0.0048    0.1741
                0.0486   4.8762e-003  -7.1897e-004   3.8517e-003   9.3407e+007  -1.6614e+006   1.5214e+007    0.2772   -0.0000    0.0000    0.0049    0.1323
                0.0743   4.9072e-003  -7.2364e-004   2.5856e-003   9.4001e+007  -1.6737e+006   1.0213e+007    0.2789   -0.0000    0.0000    0.0050    0.0888
                0.1007   4.8979e-003  -7.2224e-004   1.2782e-003   9.3823e+007  -1.6699e+006   5.0490e+006    0.2784   -0.0000    0.0000    0.0050    0.0439
                0.1276   4.8874e-003  -7.2067e-004   4.9488e-005   9.3622e+007  -1.6660e+006   1.9548e+005    0.2778   -0.0000    0.0000    0.0049    0.0017
                0.1551   4.7827e-003  -7.0488e-004   1.3881e-003   9.1616e+007  -1.6235e+006   5.4831e+006    0.2719   -0.0000    0.0000    0.0048    0.0477
                0.1830   4.6731e-003  -6.8831e-004   2.7136e-003   8.9517e+007  -1.5784e+006   1.0719e+007    0.2656   -0.0000    0.0000    0.0047    0.0932
                0.2100   4.5458e-003  -6.6908e-004   3.9533e-003   8.7081e+007  -1.5258e+006   1.5615e+007    0.2584   -0.0000    0.0000    0.0045    0.1358

               lamina:  2     
              matName:  (spar-uni)
                     s           e11           e22           e12           s11           s22           s12   s11_fcT   s11_fcC   s22_fcT   s22_fcC   s12_fcS
                   (m)         (m/m)         (m/m)         (rad)          (Pa)          (Pa)          (Pa)       (-)       (-)       (-)       (-)       (-)
                0.0000   4.0111e-003  -6.0233e-004   6.1925e-003   4.9500e+008   5.2910e+006   2.9167e+007    0.2501   -0.0000    0.0883   -0.0000    0.2832
                0.0236   4.0879e-003  -6.1395e-004   5.0685e-003   5.0448e+008   5.3915e+006   2.3873e+007    0.2549   -0.0000    0.0900   -0.0000    0.2318
                0.0486   4.1697e-003  -6.2633e-004   3.8517e-003   5.1458e+008   5.4988e+006   1.8141e+007    0.2600   -0.0000    0.0918   -0.0000    0.1761
                0.0743   4.1997e-003  -6.3086e-004   2.5856e-003   5.1829e+008   5.5382e+006   1.2178e+007    0.2619   -0.0000    0.0925   -0.0000    0.1182
                0.1007   4.1905e-003  -6.2946e-004   1.2782e-003   5.1714e+008   5.5260e+006   6.0204e+006    0.2613   -0.0000    0.0923   -0.0000    0.0585
                0.1276   4.1809e-003  -6.2801e-004   4.9488e-005   5.1596e+008   5.5134e+006   2.3309e+005    0.2607   -0.0000    0.0920   -0.0000    0.0023
                0.1551   4.0784e-003  -6.1252e-004   1.3881e-003   5.0331e+008   5.3791e+006   6.5380e+006    0.2543   -0.0000    0.0898   -0.0000    0.0635
                0.1830   3.9697e-003  -5.9607e-004   2.7136e-003   4.8989e+008   5.2366e+006   1.2781e+007    0.2475   -0.0000    0.0874   -0.0000    0.1241
                0.2100   3.8432e-003  -5.7694e-004   3.9533e-003   4.7429e+008   5.0710e+006   1.8620e+007    0.2397   -0.0000    0.0847   -0.0000    0.1808

               lamina:  3     
              matName:  (spar-core)
                     s           e11           e22           e12           s11           s22           s12   s11_fcT   s11_fcC   s22_fcT   s22_fcC   s12_fcS
                   (m)         (m/m)         (m/m)         (rad)          (Pa)          (Pa)          (Pa)       (-)       (-)       (-)       (-)       (-)
                0.0000   3.7870e-003  -5.7295e-004   6.1925e-003   8.4791e+005   1.5949e+005   6.0687e+005    0.1976   -0.0000    0.0372   -0.0000    0.2057
                0.0236   3.8638e-003  -5.8457e-004   5.0685e-003   8.6510e+005   1.6273e+005   4.9671e+005    0.2017   -0.0000    0.0379   -0.0000    0.1684
                0.0486   3.9453e-003  -5.9689e-004   3.8517e-003   8.8334e+005   1.6616e+005   3.7747e+005    0.2059   -0.0000    0.0387   -0.0000    0.1280
                0.0743   3.9750e-003  -6.0138e-004   2.5856e-003   8.8999e+005   1.6741e+005   2.5339e+005    0.2075   -0.0000    0.0390   -0.0000    0.0859
                0.1007   3.9657e-003  -5.9998e-004   1.2782e-003   8.8791e+005   1.6701e+005   1.2527e+005    0.2070   -0.0000    0.0389   -0.0000    0.0425
                0.1276   3.9564e-003  -5.9857e-004   4.9488e-005   8.8582e+005   1.6662e+005   4.8499e+003    0.2065   -0.0000    0.0388   -0.0000    0.0016
                0.1551   3.8546e-003  -5.8317e-004   1.3881e-003   8.6304e+005   1.6234e+005   1.3604e+005    0.2012   -0.0000    0.0378   -0.0000    0.0461
                0.1830   3.7462e-003  -5.6676e-004   2.7136e-003   8.3876e+005   1.5777e+005   2.6593e+005    0.1955   -0.0000    0.0368   -0.0000    0.0901
                0.2100   3.6200e-003  -5.4767e-004   3.9533e-003   8.1051e+005   1.5246e+005   3.8742e+005    0.1889   -0.0000    0.0355   -0.0000    0.1313

               lamina:  4     
              matName:  (spar-uni)
                     s           e11           e22           e12           s11           s22           s12   s11_fcT   s11_fcC   s22_fcT   s22_fcC   s12_fcS
                   (m)         (m/m)         (m/m)         (rad)          (Pa)          (Pa)          (Pa)       (-)       (-)       (-)       (-)       (-)
                0.0000   3.7752e-003  -5.7140e-004   6.1925e-003   4.6589e+008   4.9429e+006   2.9167e+007    0.2354   -0.0000    0.0825   -0.0000    0.2832
                0.0236   3.8520e-003  -5.8302e-004   5.0685e-003   4.7536e+008   5.0434e+006   2.3873e+007    0.2402   -0.0000    0.0842   -0.0000    0.2318
                0.0486   3.9335e-003  -5.9534e-004   3.8517e-003   4.8541e+008   5.1501e+006   1.8141e+007    0.2453   -0.0000    0.0860   -0.0000    0.1761
                0.0743   3.9631e-003  -5.9983e-004   2.5856e-003   4.8907e+008   5.1889e+006   1.2178e+007    0.2471   -0.0000    0.0866   -0.0000    0.1182
                0.1007   3.9538e-003  -5.9842e-004   1.2782e-003   4.8793e+008   5.1767e+006   6.0204e+006    0.2466   -0.0000    0.0864   -0.0000    0.0585
                0.1276   3.9445e-003  -5.9702e-004   4.9488e-005   4.8678e+008   5.1646e+006   2.3309e+005    0.2460   -0.0000    0.0862   -0.0000    0.0023
                0.1551   3.8428e-003  -5.8163e-004   1.3881e-003   4.7423e+008   5.0314e+006   6.5380e+006    0.2396   -0.0000    0.0840   -0.0000    0.0635
                0.1830   3.7344e-003  -5.6522e-004   2.7136e-003   4.6085e+008   4.8894e+006   1.2781e+007    0.2329   -0.0000    0.0816   -0.0000    0.1241
                0.2100   3.6082e-003  -5.4613e-004   3.9533e-003   4.4528e+008   4.7242e+006   1.8620e+007    0.2250   -0.0000    0.0789   -0.0000    0.1808

               lamina:  5     
              matName:  (blade-shell)
                     s           e11           e22           e12           s11           s22           s12   s11_fcT   s11_fcC   s22_fcT   s22_fcC   s12_fcS
                   (m)         (m/m)         (m/m)         (rad)          (Pa)          (Pa)          (Pa)       (-)       (-)       (-)       (-)       (-)
                0.0000   3.5512e-003  -5.4202e-004   6.1925e-003   6.7979e+007  -1.5695e+006   2.4460e+007    0.2017   -0.0000    0.0000    0.0047    0.2127
                0.0236   3.6280e-003  -5.5364e-004   5.0685e-003   6.9449e+007  -1.6014e+006   2.0021e+007    0.2061   -0.0000    0.0000    0.0048    0.1741
                0.0486   3.7090e-003  -5.6591e-004   3.8517e-003   7.1000e+007  -1.6353e+006   1.5214e+007    0.2107   -0.0000    0.0000    0.0049    0.1323
                0.0743   3.7383e-003  -5.7035e-004   2.5856e-003   7.1562e+007  -1.6477e+006   1.0213e+007    0.2123   -0.0000    0.0000    0.0049    0.0888
                0.1007   3.7290e-003  -5.6894e-004   1.2782e-003   7.1384e+007  -1.6438e+006   5.0490e+006    0.2118   -0.0000    0.0000    0.0049    0.0439
                0.1276   3.7201e-003  -5.6758e-004   4.9488e-005   7.1212e+007  -1.6400e+006   1.9548e+005    0.2113   -0.0000    0.0000    0.0049    0.0017
                0.1551   3.6191e-003  -5.5228e-004   1.3881e-003   6.9278e+007  -1.5976e+006   5.4831e+006    0.2056   -0.0000    0.0000    0.0047    0.0477
                0.1830   3.5109e-003  -5.3591e-004   2.7136e-003   6.7207e+007  -1.5525e+006   1.0719e+007    0.1994   -0.0000    0.0000    0.0046    0.0932
                0.2100   3.3850e-003  -5.1685e-004   3.9533e-003   6.4797e+007  -1.4999e+006   1.5615e+007    0.1923   -0.0000    0.0000    0.0045    0.1358

            panel:  3     
           lam_num    nPlies        tPly      fibAng     matID  matName
               (-)       (-)         (m)       (deg)       (-)  (-)
                 1         1    0.002800      0.0000         2  (blade-shell)
                 2         1    0.000986      0.0000         6  (TEP-core)
                 3         1    0.002800      0.0000         2  (blade-shell)

               lamina:  1     
              matName:  (blade-shell)
                     s           e11           e22           e12           s11           s22           s12   s11_fcT   s11_fcC   s22_fcT   s22_fcC   s12_fcS
                   (m)         (m/m)         (m/m)         (rad)          (Pa)          (Pa)          (Pa)       (-)       (-)       (-)       (-)       (-)
                0.0000   3.9637e-003  -5.1682e-004   2.1461e-003   7.6099e+007  -3.0106e+004   8.4770e+006    0.2258   -0.0000    0.0000    0.0001    0.0737
                0.0012   3.9565e-003  -5.1588e-004   2.1223e-003   7.5961e+007  -3.0061e+004   8.3832e+006    0.2254   -0.0000    0.0000    0.0001    0.0729
                0.0297   3.7739e-003  -4.9207e-004   1.5500e-003   7.2455e+007  -2.8551e+004   6.1224e+006    0.2150   -0.0000    0.0000    0.0001    0.0532
                0.0583   3.5909e-003  -4.6820e-004   1.0074e-003   6.8942e+007  -2.7042e+004   3.9793e+006    0.2046   -0.0000    0.0000    0.0001    0.0346
                0.0868   3.3783e-003  -4.4047e-004   4.9610e-004   6.4860e+007  -2.5292e+004   1.9596e+006    0.1925   -0.0000    0.0000    0.0001    0.0170
                0.1152   3.1539e-003  -4.1121e-004   2.1451e-005   6.0552e+007  -2.3438e+004   8.4732e+004    0.1797   -0.0000    0.0000    0.0001    0.0007
                0.1433   2.9313e-003  -3.8217e-004   4.1244e-004   5.6278e+007  -2.1599e+004   1.6292e+006    0.1670   -0.0000    0.0000    0.0001    0.0142
                0.1711   2.6960e-003  -3.5148e-004   8.0528e-004   5.1760e+007  -1.9656e+004   3.1809e+006    0.1536   -0.0000    0.0000    0.0001    0.0277
                0.1983   2.4658e-003  -3.2146e-004   1.1551e-003   4.7340e+007  -1.7749e+004   4.5627e+006    0.1405   -0.0000    0.0000    0.0001    0.0397
                0.2248   2.2448e-003  -2.9264e-004   1.4626e-003   4.3098e+007  -1.5918e+004   5.7772e+006    0.1279   -0.0000    0.0000    0.0000    0.0502
                0.2505   2.0349e-003  -2.6526e-004   1.7297e-003   3.9068e+007  -1.4179e+004   6.8322e+006    0.1159   -0.0000    0.0000    0.0000    0.0594
                0.2754   1.8324e-003  -2.3886e-004   1.9592e-003   3.5181e+007  -1.2498e+004   7.7387e+006    0.1044   -0.0000    0.0000    0.0000    0.0673
                0.2992   1.6598e-003  -2.1634e-004   2.1536e-003   3.1866e+007  -1.1061e+004   8.5068e+006    0.0946   -0.0000    0.0000    0.0000    0.0740
                0.3219   1.5002e-003  -1.9552e-004   2.3178e-003   2.8802e+007  -9.7367e+003   9.1553e+006    0.0855   -0.0000    0.0000    0.0000    0.0796
                0.3435   1.3550e-003  -1.7659e-004   2.4553e-003   2.6015e+007  -8.5256e+003   9.6986e+006    0.0772   -0.0000    0.0000    0.0000    0.0843
                0.3637   1.2484e-003  -1.6268e-004   2.5698e-003   2.3968e+007  -7.6354e+003   1.0151e+007    0.0711   -0.0000    0.0000    0.0000    0.0883
                0.3825   1.1485e-003  -1.4965e-004   2.6659e-003   2.2050e+007  -6.8037e+003   1.0530e+007    0.0654   -0.0000    0.0000    0.0000    0.0916
                0.4000   1.0766e-003  -1.4028e-004   2.7464e-003   2.0671e+007  -6.2006e+003   1.0848e+007    0.0613   -0.0000    0.0000    0.0000    0.0943
                0.4159   1.0280e-003  -1.3393e-004   2.8145e-003   1.9736e+007  -5.7946e+003   1.1117e+007    0.0586   -0.0000    0.0000    0.0000    0.0967
                0.4304   9.8406e-004  -1.2821e-004   2.8726e-003   1.8893e+007  -5.4261e+003   1.1347e+007    0.0561   -0.0000    0.0000    0.0000    0.0987
                0.4433   9.7545e-004  -1.2708e-004   2.9226e-003   1.8728e+007  -5.3519e+003   1.1544e+007    0.0556   -0.0000    0.0000    0.0000    0.1004
                0.4545   9.7110e-004  -1.2651e-004   2.9656e-003   1.8644e+007  -5.3155e+003   1.1714e+007    0.0553   -0.0000    0.0000    0.0000    0.1019
                0.4642   9.7451e-004  -1.2696e-004   3.0027e-003   1.8710e+007  -5.3455e+003   1.1861e+007    0.0555   -0.0000    0.0000    0.0000    0.1031
                0.4722   9.9542e-004  -1.2969e-004   3.0339e-003   1.9111e+007  -5.5232e+003   1.1984e+007    0.0567   -0.0000    0.0000    0.0000    0.1042
                0.4784   1.0116e-003  -1.3180e-004   3.0590e-003   1.9423e+007  -5.6628e+003   1.2083e+007    0.0576   -0.0000    0.0000    0.0000    0.1051
                0.4830   1.0328e-003  -1.3456e-004   3.0780e-003   1.9829e+007  -5.8540e+003   1.2158e+007    0.0588   -0.0000    0.0000    0.0000    0.1057
                0.4858   1.0499e-003  -1.3679e-004   3.0898e-003   2.0157e+007  -6.0064e+003   1.2205e+007    0.0598   -0.0000    0.0000    0.0000    0.1061
                0.4867   1.0558e-003  -1.3757e-004   3.0937e-003   2.0271e+007  -6.0558e+003   1.2220e+007    0.0602   -0.0000    0.0000    0.0000    0.1063

               lamina:  2     
              matName:  (TEP-core)
                     s           e11           e22           e12           s11           s22           s12   s11_fcT   s11_fcC   s22_fcT   s22_fcC   s12_fcS
                   (m)         (m/m)         (m/m)         (rad)          (Pa)          (Pa)          (Pa)       (-)       (-)       (-)       (-)       (-)
                0.0000   3.6805e-003  -4.8001e-004   2.1461e-003   8.3004e+005   1.7311e+005   2.1032e+005    0.1935   -0.0000    0.0404   -0.0000    0.0713
                0.0012   3.6749e-003  -4.7928e-004   2.1223e-003   8.2878e+005   1.7285e+005   2.0799e+005    0.1932   -0.0000    0.0403   -0.0000    0.0705
                0.0297   3.4924e-003  -4.5548e-004   1.5500e-003   7.8762e+005   1.6426e+005   1.5190e+005    0.1836   -0.0000    0.0383   -0.0000    0.0515
                0.0583   3.3101e-003  -4.3169e-004   1.0074e-003   7.4650e+005   1.5569e+005   9.8727e+004    0.1740   -0.0000    0.0363   -0.0000    0.0335
                0.0868   3.0984e-003  -4.0409e-004   4.9610e-004   6.9876e+005   1.4573e+005   4.8617e+004    0.1629   -0.0000    0.0340   -0.0000    0.0165
                0.1152   2.8745e-003  -3.7488e-004   2.1451e-005   6.4825e+005   1.3520e+005   2.1022e+003    0.1511   -0.0000    0.0315   -0.0000    0.0007
                0.1433   2.6523e-003  -3.4590e-004   4.1244e-004   5.9814e+005   1.2475e+005   4.0419e+004    0.1394   -0.0000    0.0291   -0.0000    0.0137
                0.1711   2.4174e-003  -3.1526e-004   8.0528e-004   5.4517e+005   1.1370e+005   7.8918e+004    0.1271   -0.0000    0.0265   -0.0000    0.0268
                0.1983   2.1871e-003  -2.8523e-004   1.1551e-003   4.9323e+005   1.0287e+005   1.1320e+005    0.1150   -0.0000    0.0240   -0.0000    0.0384
                0.2248   1.9659e-003  -2.5637e-004   1.4626e-003   4.4334e+005   9.2465e+004   1.4333e+005    0.1033   -0.0000    0.0216   -0.0000    0.0486
                0.2505   1.7558e-003  -2.2898e-004   1.7297e-003   3.9597e+005   8.2586e+004   1.6951e+005    0.0923   -0.0000    0.0193   -0.0000    0.0575
                0.2754   1.5528e-003  -2.0250e-004   1.9592e-003   3.5018e+005   7.3035e+004   1.9200e+005    0.0816   -0.0000    0.0170   -0.0000    0.0651
                0.2992   1.3793e-003  -1.7988e-004   2.1536e-003   3.1107e+005   6.4878e+004   2.1105e+005    0.0725   -0.0000    0.0151   -0.0000    0.0715
                0.3219   1.2194e-003  -1.5902e-004   2.3178e-003   2.7500e+005   5.7356e+004   2.2714e+005    0.0641   -0.0000    0.0134   -0.0000    0.0770
                0.3435   1.0732e-003  -1.3995e-004   2.4553e-003   2.4204e+005   5.0482e+004   2.4062e+005    0.0564   -0.0000    0.0118   -0.0000    0.0816
                0.3637   9.6581e-004  -1.2594e-004   2.5698e-003   2.1781e+005   4.5430e+004   2.5184e+005    0.0508   -0.0000    0.0106   -0.0000    0.0854
                0.3825   8.6540e-004  -1.1285e-004   2.6659e-003   1.9517e+005   4.0707e+004   2.6126e+005    0.0455   -0.0000    0.0095   -0.0000    0.0886
                0.4000   7.9268e-004  -1.0336e-004   2.7464e-003   1.7877e+005   3.7287e+004   2.6915e+005    0.0417   -0.0000    0.0087   -0.0000    0.0912
                0.4159   7.4368e-004  -9.6972e-005   2.8145e-003   1.6772e+005   3.4982e+004   2.7582e+005    0.0391   -0.0000    0.0082   -0.0000    0.0935
                0.4304   6.9924e-004  -9.1177e-005   2.8726e-003   1.5770e+005   3.2892e+004   2.8152e+005    0.0368   -0.0000    0.0077   -0.0000    0.0954
                0.4433   6.9032e-004  -9.0013e-005   2.9226e-003   1.5568e+005   3.2473e+004   2.8641e+005    0.0363   -0.0000    0.0076   -0.0000    0.0971
                0.4545   6.8594e-004  -8.9442e-005   2.9656e-003   1.5469e+005   3.2267e+004   2.9063e+005    0.0361   -0.0000    0.0075   -0.0000    0.0985
                0.4642   6.8953e-004  -8.9910e-005   3.0027e-003   1.5550e+005   3.2435e+004   2.9426e+005    0.0362   -0.0000    0.0076   -0.0000    0.0998
                0.4722   7.1092e-004  -9.2700e-005   3.0339e-003   1.6033e+005   3.3442e+004   2.9732e+005    0.0374   -0.0000    0.0078   -0.0000    0.1008
                0.4784   7.2770e-004  -9.4889e-005   3.0590e-003   1.6411e+005   3.4231e+004   2.9978e+005    0.0383   -0.0000    0.0080   -0.0000    0.1016
                0.4830   7.5055e-004  -9.7868e-005   3.0780e-003   1.6927e+005   3.5305e+004   3.0165e+005    0.0395   -0.0000    0.0082   -0.0000    0.1023
                0.4858   7.6877e-004  -1.0025e-004   3.0898e-003   1.7338e+005   3.6163e+004   3.0280e+005    0.0404   -0.0000    0.0084   -0.0000    0.1026
                0.4867   7.7475e-004  -1.0103e-004   3.0937e-003   1.7472e+005   3.6444e+004   3.0318e+005    0.0407   -0.0000    0.0085   -0.0000    0.1028

               lamina:  3     
              matName:  (blade-shell)
                     s           e11           e22           e12           s11           s22           s12   s11_fcT   s11_fcC   s22_fcT   s22_fcC   s12_fcS
                   (m)         (m/m)         (m/m)         (rad)          (Pa)          (Pa)          (Pa)       (-)       (-)       (-)       (-)       (-)
                0.0000   3.5809e-003  -4.6705e-004   2.1461e-003   6.8749e+007  -3.0045e+004   8.4770e+006    0.2040   -0.0000    0.0000    0.0001    0.0737
                0.0012   3.5759e-003  -4.6640e-004   2.1223e-003   6.8653e+007  -3.0001e+004   8.3832e+006    0.2037   -0.0000    0.0000    0.0001    0.0729
                0.0297   3.3934e-003  -4.4260e-004   1.5500e-003   6.5149e+007  -2.8491e+004   6.1224e+006    0.1933   -0.0000    0.0000    0.0001    0.0532
                0.0583   3.2112e-003  -4.1884e-004   1.0074e-003   6.1652e+007  -2.6982e+004   3.9793e+006    0.1829   -0.0000    0.0000    0.0001    0.0346
                0.0868   2.9999e-003  -3.9128e-004   4.9610e-004   5.7596e+007  -2.5232e+004   1.9596e+006    0.1709   -0.0000    0.0000    0.0001    0.0170
                0.1152   2.7761e-003  -3.6209e-004   2.1451e-005   5.3298e+007  -2.3378e+004   8.4732e+004    0.1582   -0.0000    0.0000    0.0001    0.0007
                0.1433   2.5540e-003  -3.3313e-004   4.1244e-004   4.9035e+007  -2.1540e+004   1.6292e+006    0.1455   -0.0000    0.0000    0.0001    0.0142
                0.1711   2.3193e-003  -3.0251e-004   8.0528e-004   4.4528e+007  -1.9596e+004   3.1809e+006    0.1321   -0.0000    0.0000    0.0001    0.0277
                0.1983   2.0890e-003  -2.7247e-004   1.1551e-003   4.0106e+007  -1.7690e+004   4.5627e+006    0.1190   -0.0000    0.0000    0.0001    0.0397
                0.2248   1.8677e-003  -2.4361e-004   1.4626e-003   3.5857e+007  -1.5858e+004   5.7772e+006    0.1064   -0.0000    0.0000    0.0000    0.0502
                0.2505   1.6576e-003  -2.1621e-004   1.7297e-003   3.1824e+007  -1.4119e+004   6.8322e+006    0.0944   -0.0000    0.0000    0.0000    0.0594
                0.2754   1.4543e-003  -1.8970e-004   1.9592e-003   2.7921e+007  -1.2438e+004   7.7387e+006    0.0829   -0.0000    0.0000    0.0000    0.0673
                0.2992   1.2806e-003  -1.6704e-004   2.1536e-003   2.4586e+007  -1.1001e+004   8.5068e+006    0.0730   -0.0000    0.0000    0.0000    0.0740
                0.3219   1.1206e-003  -1.4617e-004   2.3178e-003   2.1513e+007  -9.6765e+003   9.1553e+006    0.0638   -0.0000    0.0000    0.0000    0.0796
                0.3435   9.7404e-004  -1.2706e-004   2.4553e-003   1.8701e+007  -8.4652e+003   9.6986e+006    0.0555   -0.0000    0.0000    0.0000    0.0843
                0.3637   8.6634e-004  -1.1301e-004   2.5698e-003   1.6633e+007  -7.5749e+003   1.0151e+007    0.0494   -0.0000    0.0000    0.0000    0.0883
                0.3825   7.6576e-004  -9.9894e-005   2.6659e-003   1.4702e+007  -6.7430e+003   1.0530e+007    0.0436   -0.0000    0.0000    0.0000    0.0916
                0.4000   6.9273e-004  -9.0370e-005   2.7464e-003   1.3300e+007  -6.1398e+003   1.0848e+007    0.0395   -0.0000    0.0000    0.0000    0.0943
                0.4159   6.4361e-004  -8.3963e-005   2.8145e-003   1.2357e+007  -5.7336e+003   1.1117e+007    0.0367   -0.0000    0.0000    0.0000    0.0967
                0.4304   5.9899e-004  -7.8144e-005   2.8726e-003   1.1500e+007  -5.3651e+003   1.1347e+007    0.0341   -0.0000    0.0000    0.0000    0.0987
                0.4433   5.8996e-004  -7.6965e-005   2.9226e-003   1.1327e+007  -5.2908e+003   1.1544e+007    0.0336   -0.0000    0.0000    0.0000    0.1004
                0.4545   5.8557e-004  -7.6393e-005   2.9656e-003   1.1242e+007  -5.2544e+003   1.1714e+007    0.0334   -0.0000    0.0000    0.0000    0.1019
                0.4642   5.8922e-004  -7.6869e-005   3.0027e-003   1.1312e+007  -5.2844e+003   1.1861e+007    0.0336   -0.0000    0.0000    0.0000    0.1031
                0.4722   6.1078e-004  -7.9681e-005   3.0339e-003   1.1726e+007  -5.4622e+003   1.1984e+007    0.0348   -0.0000    0.0000    0.0000    0.1042
                0.4784   6.2777e-004  -8.1896e-005   3.0590e-003   1.2052e+007  -5.6020e+003   1.2083e+007    0.0358   -0.0000    0.0000    0.0000    0.1051
                0.4830   6.5120e-004  -8.4953e-005   3.0780e-003   1.2502e+007  -5.7935e+003   1.2158e+007    0.0371   -0.0000    0.0000    0.0000    0.1057
                0.4858   6.6983e-004  -8.7383e-005   3.0898e-003   1.2860e+007  -5.9461e+003   1.2205e+007    0.0382   -0.0000    0.0000    0.0000    0.1061
                0.4867   6.7581e-004  -8.8162e-005   3.0937e-003   1.2975e+007  -5.9956e+003   1.2220e+007    0.0385   -0.0000    0.0000    0.0000    0.1063

     Web:  panel  nNode   nLam     xc_St    xc_End         b         t         E_eff         G_eff      nu_eff     density  buckleCrit
            (-)    (-)    (-)       (-)       (-)       (m)       (m)          (Pa)          (Pa)         (-)    (kg/m^3)         (-)
              1     10      3    0.2328    0.2328    0.1902    0.0121   6.5707e+009   1.3870e+009      0.1347    691.8994      0.0136
              2     10      3    0.4672    0.4672    0.1810    0.0121   6.5707e+009   1.3870e+009      0.1347    691.8994      0.0137

            panel:  1     
           lam_num    nPlies        tPly      fibAng     matID  matName
               (-)       (-)         (m)       (deg)       (-)  (-)
                 1         1    0.002023      0.0000         7  (web-shell)
                 2         1    0.008047      0.0000         8  (web-core)
                 3         1    0.002023      0.0000         7  (web-shell)

               lamina:  1     
              matName:  (web-shell)
                     s           e11           e22           e12           s11           s22           s12   s11_fcT   s11_fcC   s22_fcT   s22_fcC   s12_fcS
                   (m)         (m/m)         (m/m)         (rad)          (Pa)          (Pa)          (Pa)       (-)       (-)       (-)       (-)       (-)
                0.0000  -3.8479e-003   5.1828e-004   8.6191e-003  -7.3835e+007   3.5248e+005   3.4045e+007    0.0000    0.1486    0.0010   -0.0000    0.2960
                0.0211  -3.0088e-003   4.0526e-004   9.0223e-003  -5.7734e+007   2.7568e+005   3.5638e+007    0.0000    0.1162    0.0008   -0.0000    0.3099
                0.0423  -2.1697e-003   2.9225e-004   9.3274e-003  -4.1633e+007   1.9888e+005   3.6843e+007    0.0000    0.0838    0.0006   -0.0000    0.3204
                0.0634  -1.3306e-003   1.7923e-004   9.5344e-003  -2.5532e+007   1.2208e+005   3.7661e+007    0.0000    0.0514    0.0004   -0.0000    0.3275
                0.0845  -4.9152e-004   6.6216e-005   9.6433e-003  -9.4312e+006   4.5283e+004   3.8091e+007    0.0000    0.0190    0.0001   -0.0000    0.3312
                0.1057   3.4967e-004  -4.7073e-005   9.6540e-003   6.7096e+006  -3.1556e+004   3.8133e+007    0.0199   -0.0000    0.0000    0.0001    0.3316
                0.1268   1.1888e-003  -1.6009e-004   9.5667e-003   2.2811e+007  -1.0835e+005   3.7788e+007    0.0677   -0.0000    0.0000    0.0003    0.3286
                0.1480   2.0279e-003  -2.7311e-004   9.3812e-003   3.8911e+007  -1.8515e+005   3.7056e+007    0.1155   -0.0000    0.0000    0.0005    0.3222
                0.1691   2.8670e-003  -3.8612e-004   9.0976e-003   5.5012e+007  -2.6195e+005   3.5936e+007    0.1632   -0.0000    0.0000    0.0008    0.3125
                0.1902   3.7061e-003  -4.9914e-004   8.7159e-003   7.1113e+007  -3.3875e+005   3.4428e+007    0.2110   -0.0000    0.0000    0.0010    0.2994

               lamina:  2     
              matName:  (web-core)
                     s           e11           e22           e12           s11           s22           s12   s11_fcT   s11_fcC   s22_fcT   s22_fcC   s12_fcS
                   (m)         (m/m)         (m/m)         (rad)          (Pa)          (Pa)          (Pa)       (-)       (-)       (-)       (-)       (-)
                0.0000  -3.8562e-003   5.1937e-004   8.6191e-003  -8.6838e+005  -1.7750e+005   8.4467e+005    0.0000    0.2024    0.0000    0.0414    0.2863
                0.0211  -3.0171e-003   4.0635e-004   9.0223e-003  -6.7942e+005  -1.3888e+005   8.8419e+005    0.0000    0.1584    0.0000    0.0324    0.2997
                0.0423  -2.1780e-003   2.9333e-004   9.3274e-003  -4.9047e+005  -1.0025e+005   9.1409e+005    0.0000    0.1143    0.0000    0.0234    0.3099
                0.0634  -1.3389e-003   1.8032e-004   9.5344e-003  -3.0151e+005  -6.1631e+004   9.3437e+005    0.0000    0.0703    0.0000    0.0144    0.3167
                0.0845  -4.9979e-004   6.7300e-005   9.6433e-003  -1.1255e+005  -2.3008e+004   9.4504e+005    0.0000    0.0262    0.0000    0.0054    0.3204
                0.1057   3.4759e-004  -4.6801e-005   9.6540e-003   7.8275e+004   1.6003e+004   9.4609e+005    0.0182   -0.0000    0.0037   -0.0000    0.3207
                0.1268   1.1867e-003  -1.5982e-004   9.5667e-003   2.6723e+005   5.4625e+004   9.3753e+005    0.0623   -0.0000    0.0127   -0.0000    0.3178
                0.1480   2.0258e-003  -2.7283e-004   9.3812e-003   4.5619e+005   9.3248e+004   9.1936e+005    0.1063   -0.0000    0.0217   -0.0000    0.3116
                0.1691   2.8649e-003  -3.8585e-004   9.0976e-003   6.4515e+005   1.3187e+005   8.9157e+005    0.1504   -0.0000    0.0307   -0.0000    0.3022
                0.1902   3.7040e-003  -4.9887e-004   8.7159e-003   8.3411e+005   1.7049e+005   8.5416e+005    0.1944   -0.0000    0.0397   -0.0000    0.2895

               lamina:  3     
              matName:  (web-shell)
                     s           e11           e22           e12           s11           s22           s12   s11_fcT   s11_fcC   s22_fcT   s22_fcC   s12_fcS
                   (m)         (m/m)         (m/m)         (rad)          (Pa)          (Pa)          (Pa)       (-)       (-)       (-)       (-)       (-)
                0.0000  -3.8583e-003   5.1964e-004   8.6191e-003  -7.4034e+007   3.5268e+005   3.4045e+007    0.0000    0.1490    0.0010   -0.0000    0.2960
                0.0211  -3.0192e-003   4.0662e-004   9.0223e-003  -5.7933e+007   2.7588e+005   3.5638e+007    0.0000    0.1166    0.0008   -0.0000    0.3099
                0.0423  -2.1801e-003   2.9361e-004   9.3274e-003  -4.1832e+007   1.9908e+005   3.6843e+007    0.0000    0.0842    0.0006   -0.0000    0.3204
                0.0634  -1.3410e-003   1.8059e-004   9.5344e-003  -2.5731e+007   1.2228e+005   3.7661e+007    0.0000    0.0518    0.0004   -0.0000    0.3275
                0.0845  -5.0187e-004   6.7573e-005   9.6433e-003  -9.6301e+006   4.5486e+004   3.8091e+007    0.0000    0.0194    0.0001   -0.0000    0.3312
                0.1057   3.3932e-004  -4.5716e-005   9.6540e-003   6.5108e+006  -3.1353e+004   3.8133e+007    0.0193   -0.0000    0.0000    0.0001    0.3316
                0.1268   1.1784e-003  -1.5873e-004   9.5667e-003   2.2612e+007  -1.0815e+005   3.7788e+007    0.0671   -0.0000    0.0000    0.0003    0.3286
                0.1480   2.0175e-003  -2.7175e-004   9.3812e-003   3.8713e+007  -1.8495e+005   3.7056e+007    0.1149   -0.0000    0.0000    0.0005    0.3222
                0.1691   2.8566e-003  -3.8477e-004   9.0976e-003   5.4813e+007  -2.6175e+005   3.5936e+007    0.1627   -0.0000    0.0000    0.0008    0.3125
                0.1902   3.6957e-003  -4.9778e-004   8.7159e-003   7.0914e+007  -3.3855e+005   3.4428e+007    0.2104   -0.0000    0.0000    0.0010    0.2994

            panel:  2     
           lam_num    nPlies        tPly      fibAng     matID  matName
               (-)       (-)         (m)       (deg)       (-)  (-)
                 1         1    0.002023      0.0000         7  (web-shell)
                 2         1    0.008047      0.0000         8  (web-core)
                 3         1    0.002023      0.0000         7  (web-shell)

               lamina:  1     
              matName:  (web-shell)
                     s           e11           e22           e12           s11           s22           s12   s11_fcT   s11_fcC   s22_fcT   s22_fcC   s12_fcS
                   (m)         (m/m)         (m/m)         (rad)          (Pa)          (Pa)          (Pa)       (-)       (-)       (-)       (-)       (-)
                0.0000  -3.7135e-003   5.0017e-004   9.9101e-003  -7.1255e+007   3.4015e+005   3.9145e+007    0.0000    0.1434    0.0010   -0.0000    0.3404
                0.0201  -2.9151e-003   3.9264e-004   1.0279e-002  -5.5936e+007   2.6709e+005   4.0602e+007    0.0000    0.1125    0.0008   -0.0000    0.3531
                0.0402  -2.1168e-003   2.8512e-004   1.0559e-002  -4.0617e+007   1.9402e+005   4.1709e+007    0.0000    0.0817    0.0006   -0.0000    0.3627
                0.0603  -1.3184e-003   1.7759e-004   1.0750e-002  -2.5298e+007   1.2095e+005   4.2464e+007    0.0000    0.0509    0.0004   -0.0000    0.3693
                0.0804  -5.2009e-004   7.0064e-005   1.0853e-002  -9.9796e+006   4.7884e+004   4.2869e+007    0.0000    0.0201    0.0001   -0.0000    0.3728
                0.1005   2.8023e-004  -3.7722e-005   1.0867e-002   5.3772e+006  -2.5222e+004   4.2923e+007    0.0160   -0.0000    0.0000    0.0001    0.3732
                0.1207   1.0786e-003  -1.4525e-004   1.0791e-002   2.0696e+007  -9.8290e+004   4.2626e+007    0.0614   -0.0000    0.0000    0.0003    0.3707
                0.1408   1.8769e-003  -2.5277e-004   1.0628e-002   3.6015e+007  -1.7136e+005   4.1979e+007    0.1069   -0.0000    0.0000    0.0005    0.3650
                0.1609   2.6753e-003  -3.6030e-004   1.0375e-002   5.1334e+007  -2.4443e+005   4.0980e+007    0.1523   -0.0000    0.0000    0.0007    0.3564
                0.1810   3.4736e-003  -4.6783e-004   1.0033e-002   6.6652e+007  -3.1749e+005   3.9631e+007    0.1978   -0.0000    0.0000    0.0009    0.3446

               lamina:  2     
              matName:  (web-core)
                     s           e11           e22           e12           s11           s22           s12   s11_fcT   s11_fcC   s22_fcT   s22_fcC   s12_fcS
                   (m)         (m/m)         (m/m)         (rad)          (Pa)          (Pa)          (Pa)       (-)       (-)       (-)       (-)       (-)
                0.0000  -3.7214e-003   5.0120e-004   9.9101e-003  -8.3801e+005  -1.7129e+005   9.7119e+005    0.0000    0.1953    0.0000    0.0399    0.3292
                0.0201  -2.9230e-003   3.9368e-004   1.0279e-002  -6.5823e+005  -1.3455e+005   1.0073e+006    0.0000    0.1534    0.0000    0.0314    0.3415
                0.0402  -2.1247e-003   2.8615e-004   1.0559e-002  -4.7845e+005  -9.7798e+004   1.0348e+006    0.0000    0.1115    0.0000    0.0228    0.3508
                0.0603  -1.3263e-003   1.7862e-004   1.0750e-002  -2.9867e+005  -6.1052e+004   1.0535e+006    0.0000    0.0696    0.0000    0.0142    0.3571
                0.0804  -5.2797e-004   7.1096e-005   1.0853e-002  -1.1889e+005  -2.4305e+004   1.0636e+006    0.0000    0.0277    0.0000    0.0057    0.3605
                0.1005   2.7825e-004  -3.7462e-005   1.0867e-002   6.2661e+004   1.2811e+004   1.0649e+006    0.0146   -0.0000    0.0030   -0.0000    0.3610
                0.1207   1.0766e-003  -1.4499e-004   1.0791e-002   2.4244e+005   4.9558e+004   1.0576e+006    0.0565   -0.0000    0.0116   -0.0000    0.3585
                0.1408   1.8749e-003  -2.5252e-004   1.0628e-002   4.2222e+005   8.6304e+004   1.0415e+006    0.0984   -0.0000    0.0201   -0.0000    0.3530
                0.1609   2.6733e-003  -3.6004e-004   1.0375e-002   6.0200e+005   1.2305e+005   1.0167e+006    0.1403   -0.0000    0.0287   -0.0000    0.3447
                0.1810   3.4716e-003  -4.6757e-004   1.0033e-002   7.8178e+005   1.5980e+005   9.8325e+005    0.1822   -0.0000    0.0372   -0.0000    0.3333

               lamina:  3     
              matName:  (web-shell)
                     s           e11           e22           e12           s11           s22           s12   s11_fcT   s11_fcC   s22_fcT   s22_fcC   s12_fcS
                   (m)         (m/m)         (m/m)         (rad)          (Pa)          (Pa)          (Pa)       (-)       (-)       (-)       (-)       (-)
                0.0000  -3.7233e-003   5.0146e-004   9.9101e-003  -7.1444e+007   3.4035e+005   3.9145e+007    0.0000    0.1438    0.0010   -0.0000    0.3404
                0.0201  -2.9250e-003   3.9394e-004   1.0279e-002  -5.6125e+007   2.6728e+005   4.0602e+007    0.0000    0.1129    0.0008   -0.0000    0.3531
                0.0402  -2.1266e-003   2.8641e-004   1.0559e-002  -4.0806e+007   1.9421e+005   4.1709e+007    0.0000    0.0821    0.0006   -0.0000    0.3627
                0.0603  -1.3283e-003   1.7888e-004   1.0750e-002  -2.5488e+007   1.2114e+005   4.2464e+007    0.0000    0.0513    0.0004   -0.0000    0.3693
                0.0804  -5.2995e-004   7.1356e-005   1.0853e-002  -1.0169e+007   4.8077e+004   4.2869e+007    0.0000    0.0205    0.0001   -0.0000    0.3728
                0.1005   2.7038e-004  -3.6430e-005   1.0867e-002   5.1880e+006  -2.5029e+004   4.2923e+007    0.0154   -0.0000    0.0000    0.0001    0.3732
                0.1207   1.0687e-003  -1.4396e-004   1.0791e-002   2.0507e+007  -9.8097e+004   4.2626e+007    0.0609   -0.0000    0.0000    0.0003    0.3707
                0.1408   1.8671e-003  -2.5148e-004   1.0628e-002   3.5826e+007  -1.7116e+005   4.1979e+007    0.1063   -0.0000    0.0000    0.0005    0.3650
                0.1609   2.6654e-003  -3.5901e-004   1.0375e-002   5.1144e+007  -2.4423e+005   4.0980e+007    0.1518   -0.0000    0.0000    0.0007    0.3564
                0.1810   3.4638e-003  -4.6654e-004   1.0033e-002   6.6463e+007  -3.1730e+005   3.9631e+007    0.1972   -0.0000    0.0000    0.0009    0.3446

================================================================================
sec        =  26     
zSec       =  7.4970  (m)
nPanelsTop =  3      
nPanelsBot =  3      
nWebs      =  2      

    Top:  panel  nNode   nLam     xc_St    xc_End         b         t         E_eff         G_eff      nu_eff     density  buckleCrit
            (-)    (-)    (-)       (-)       (-)       (m)       (m)          (Pa)          (Pa)         (-)    (kg/m^3)         (-)
              1     17      3    0.0000    0.2314    0.2304    0.0054   1.8638e+010   3.8360e+009      0.1301   1626.4819      0.1813
              2     10      5    0.2314    0.4686    0.2009    0.0067   4.0807e+010   4.0818e+009      0.1482   1617.8947      0.4437
              3     28      3    0.4686    1.0000    0.4638    0.0060   1.6687e+010   3.4401e+009      0.1304   1475.4034      0.8102

            panel:  1     
           lam_num    nPlies        tPly      fibAng     matID  matName
               (-)       (-)         (m)       (deg)       (-)  (-)
                 1         1    0.002619      0.0000         2  (blade-shell)
                 2         1    0.000160      0.0000         5  (LEP-core)
                 3         1    0.002619      0.0000         2  (blade-shell)

               lamina:  1     
              matName:  (blade-shell)
                     s           e11           e22           e12           s11           s22           s12   s11_fcT   s11_fcC   s22_fcT   s22_fcC   s12_fcS
                   (m)         (m/m)         (m/m)         (rad)          (Pa)          (Pa)          (Pa)       (-)       (-)       (-)       (-)       (-)
                0.0000   2.8757e-004  -3.7405e-005   4.8150e-003   5.5213e+006  -4.1733e+002   1.9019e+007    0.0164   -0.0000    0.0000    0.0000    0.1654
                0.0027   1.9468e-004  -2.5323e-005   4.8190e-003   3.7378e+006  -2.8381e+002   1.9035e+007    0.0111   -0.0000    0.0000    0.0000    0.1655
                0.0106  -1.8448e-004   2.3988e-005   4.8209e-003  -3.5421e+006   1.0892e+002   1.9043e+007    0.0000    0.0071    0.0000   -0.0000    0.1656
                0.0204  -5.5744e-004   7.2497e-005   4.8032e-003  -1.0703e+007   5.7829e+002   1.8973e+007    0.0000    0.0215    0.0000   -0.0000    0.1650
                0.0288  -8.2267e-004   1.0699e-004   4.7720e-003  -1.5795e+007   9.0648e+002   1.8850e+007    0.0000    0.0318    0.0000   -0.0000    0.1639
                0.0399  -1.1418e-003   1.4850e-004   4.7109e-003  -2.1922e+007   1.3413e+003   1.8608e+007    0.0000    0.0441    0.0000   -0.0000    0.1618
                0.0514  -1.4261e-003   1.8548e-004   4.6257e-003  -2.7381e+007   1.7202e+003   1.8272e+007    0.0000    0.0551    0.0000   -0.0000    0.1589
                0.0644  -1.7082e-003   2.2217e-004   4.5051e-003  -3.2796e+007   2.1161e+003   1.7795e+007    0.0000    0.0660    0.0000   -0.0000    0.1547
                0.0789  -2.0228e-003   2.6309e-004   4.3414e-003  -3.8837e+007   2.5494e+003   1.7148e+007    0.0000    0.0781    0.0000   -0.0000    0.1491
                0.0939  -2.2690e-003   2.9512e-004   4.1462e-003  -4.3564e+007   2.8887e+003   1.6377e+007    0.0000    0.0877    0.0000   -0.0000    0.1424
                0.1105  -2.5359e-003   3.2983e-004   3.9005e-003  -4.8688e+007   3.2671e+003   1.5407e+007    0.0000    0.0980    0.0000   -0.0000    0.1340
                0.1281  -2.7860e-003   3.6237e-004   3.6107e-003  -5.3492e+007   3.6170e+003   1.4262e+007    0.0000    0.1076    0.0000   -0.0000    0.1240
                0.1467  -3.0041e-003   3.9073e-004   3.2755e-003  -5.7677e+007   3.9260e+003   1.2938e+007    0.0000    0.1161    0.0000   -0.0000    0.1125
                0.1665  -3.2376e-003   4.2110e-004   2.8878e-003  -6.2161e+007   4.2560e+003   1.1407e+007    0.0000    0.1251    0.0000   -0.0000    0.0992
                0.1870  -3.4127e-003   4.4388e-004   2.4601e-003  -6.5522e+007   4.5022e+003   9.7173e+006    0.0000    0.1318    0.0000   -0.0000    0.0845
                0.2085  -3.5813e-003   4.6582e-004   1.9845e-003  -6.8761e+007   4.7430e+003   7.8390e+006    0.0000    0.1384    0.0000   -0.0000    0.0682
                0.2304  -3.7355e-003   4.8586e-004   1.4777e-003  -7.1720e+007   4.9637e+003   5.8367e+006    0.0000    0.1443    0.0000   -0.0000    0.0508

               lamina:  2     
              matName:  (LEP-core)
                     s           e11           e22           e12           s11           s22           s12   s11_fcT   s11_fcC   s22_fcT   s22_fcC   s12_fcS
                   (m)         (m/m)         (m/m)         (rad)          (Pa)          (Pa)          (Pa)       (-)       (-)       (-)       (-)       (-)
                0.0000   2.9312e-004  -3.8127e-005   4.8150e-003   6.6113e+004   1.3811e+004   4.7187e+005    0.0154   -0.0000    0.0032   -0.0000    0.1600
                0.0027   2.0023e-004  -2.6044e-005   4.8190e-003   4.5162e+004   9.4340e+003   4.7226e+005    0.0105   -0.0000    0.0022   -0.0000    0.1601
                0.0106  -7.8905e-005   1.0263e-005   4.8209e-003  -1.7797e+004  -3.7177e+003   4.7245e+005    0.0000    0.0041    0.0000    0.0009    0.1602
                0.0204  -4.0679e-004   5.2912e-005   4.8032e-003  -9.1750e+004  -1.9166e+004   4.7071e+005    0.0000    0.0214    0.0000    0.0045    0.1596
                0.0288  -6.3618e-004   8.2750e-005   4.7720e-003  -1.4349e+005  -2.9974e+004   4.6766e+005    0.0000    0.0334    0.0000    0.0070    0.1585
                0.0399  -9.3915e-004   1.2216e-004   4.7109e-003  -2.1182e+005  -4.4249e+004   4.6167e+005    0.0000    0.0494    0.0000    0.0103    0.1565
                0.0514  -1.2034e-003   1.5652e-004   4.6257e-003  -2.7141e+005  -5.6697e+004   4.5332e+005    0.0000    0.0633    0.0000    0.0132    0.1537
                0.0644  -1.4790e-003   1.9238e-004   4.5051e-003  -3.3359e+005  -6.9685e+004   4.4150e+005    0.0000    0.0778    0.0000    0.0162    0.1497
                0.0789  -1.7809e-003   2.3164e-004   4.3414e-003  -4.0167e+005  -8.3906e+004   4.2545e+005    0.0000    0.0936    0.0000    0.0196    0.1442
                0.0939  -2.0172e-003   2.6239e-004   4.1462e-003  -4.5498e+005  -9.5042e+004   4.0632e+005    0.0000    0.1061    0.0000    0.0222    0.1377
                0.1105  -2.2806e-003   2.9664e-004   3.9005e-003  -5.1438e+005  -1.0745e+005   3.8225e+005    0.0000    0.1199    0.0000    0.0250    0.1296
                0.1281  -2.5242e-003   3.2833e-004   3.6107e-003  -5.6932e+005  -1.1893e+005   3.5385e+005    0.0000    0.1327    0.0000    0.0277    0.1199
                0.1467  -2.7392e-003   3.5630e-004   3.2755e-003  -6.1782e+005  -1.2906e+005   3.2100e+005    0.0000    0.1440    0.0000    0.0301    0.1088
                0.1665  -2.9689e-003   3.8618e-004   2.8878e-003  -6.6964e+005  -1.3988e+005   2.8301e+005    0.0000    0.1561    0.0000    0.0326    0.0959
                0.1870  -3.1403e-003   4.0848e-004   2.4601e-003  -7.0830e+005  -1.4796e+005   2.4109e+005    0.0000    0.1651    0.0000    0.0345    0.0817
                0.2085  -3.3079e-003   4.3027e-004   1.9845e-003  -7.4609e+005  -1.5585e+005   1.9449e+005    0.0000    0.1739    0.0000    0.0363    0.0659
                0.2304  -3.4614e-003   4.5024e-004   1.4777e-003  -7.8072e+005  -1.6309e+005   1.4481e+005    0.0000    0.1820    0.0000    0.0380    0.0491

               lamina:  3     
              matName:  (blade-shell)
                     s           e11           e22           e12           s11           s22           s12   s11_fcT   s11_fcC   s22_fcT   s22_fcC   s12_fcS
                   (m)         (m/m)         (m/m)         (rad)          (Pa)          (Pa)          (Pa)       (-)       (-)       (-)       (-)       (-)
                0.0000   3.8410e-004  -4.9954e-005   4.8150e-003   7.3746e+006  -4.1745e+002   1.9019e+007    0.0219   -0.0000    0.0000    0.0000    0.1654
                0.0027   2.9121e-004  -3.7872e-005   4.8190e-003   5.5912e+006  -2.8393e+002   1.9035e+007    0.0166   -0.0000    0.0000    0.0000    0.1655
                0.0106  -7.2463e-005   9.4258e-006   4.8209e-003  -1.3913e+006   1.0878e+002   1.9043e+007    0.0000    0.0028    0.0000   -0.0000    0.1656
                0.0204  -3.9760e-004   5.1717e-005   4.8032e-003  -7.6338e+006   5.7809e+002   1.8973e+007    0.0000    0.0154    0.0000   -0.0000    0.1650
                0.0288  -6.2480e-004   8.1271e-005   4.7720e-003  -1.1996e+007   9.0624e+002   1.8850e+007    0.0000    0.0241    0.0000   -0.0000    0.1639
                0.0399  -9.2679e-004   1.2055e-004   4.7109e-003  -1.7794e+007   1.3410e+003   1.8608e+007    0.0000    0.0358    0.0000   -0.0000    0.1618
                0.0514  -1.1898e-003   1.5476e-004   4.6257e-003  -2.2843e+007   1.7199e+003   1.8272e+007    0.0000    0.0460    0.0000   -0.0000    0.1589
                0.0644  -1.4650e-003   1.9056e-004   4.5051e-003  -2.8129e+007   2.1158e+003   1.7795e+007    0.0000    0.0566    0.0000   -0.0000    0.1547
                0.0789  -1.7661e-003   2.2972e-004   4.3414e-003  -3.3909e+007   2.5491e+003   1.7148e+007    0.0000    0.0682    0.0000   -0.0000    0.1491
                0.0939  -2.0019e-003   2.6039e-004   4.1462e-003  -3.8435e+007   2.8884e+003   1.6377e+007    0.0000    0.0773    0.0000   -0.0000    0.1424
                0.1105  -2.2650e-003   2.9462e-004   3.9005e-003  -4.3487e+007   3.2668e+003   1.5407e+007    0.0000    0.0875    0.0000   -0.0000    0.1340
                0.1281  -2.5082e-003   3.2625e-004   3.6107e-003  -4.8157e+007   3.6167e+003   1.4262e+007    0.0000    0.0969    0.0000   -0.0000    0.1240
                0.1467  -2.7230e-003   3.5420e-004   3.2755e-003  -5.2282e+007   3.9256e+003   1.2938e+007    0.0000    0.1052    0.0000   -0.0000    0.1125
                0.1665  -2.9525e-003   3.8405e-004   2.8878e-003  -5.6688e+007   4.2556e+003   1.1407e+007    0.0000    0.1141    0.0000   -0.0000    0.0992
                0.1870  -3.1237e-003   4.0632e-004   2.4601e-003  -5.9975e+007   4.5019e+003   9.7173e+006    0.0000    0.1207    0.0000   -0.0000    0.0845
                0.2085  -3.2912e-003   4.2810e-004   1.9845e-003  -6.3191e+007   4.7427e+003   7.8390e+006    0.0000    0.1271    0.0000   -0.0000    0.0682
                0.2304  -3.4447e-003   4.4807e-004   1.4777e-003  -6.6138e+007   4.9633e+003   5.8367e+006    0.0000    0.1331    0.0000   -0.0000    0.0508

            panel:  2     
           lam_num    nPlies        tPly      fibAng     matID  matName
               (-)       (-)         (m)       (deg)       (-)  (-)
                 1         1    0.002619      0.0000         2  (blade-shell)
                 2         1    0.000698      0.0000         3  (spar-uni)
                 3         1    0.000047      0.0000         4  (spar-core)
                 4         1    0.000698      0.0000         3  (spar-uni)
                 5         1    0.002619      0.0000         2  (blade-shell)

               lamina:  1     
              matName:  (blade-shell)
                     s           e11           e22           e12           s11           s22           s12   s11_fcT   s11_fcC   s22_fcT   s22_fcC   s12_fcS
                   (m)         (m/m)         (m/m)         (rad)          (Pa)          (Pa)          (Pa)       (-)       (-)       (-)       (-)       (-)
                0.0000  -4.1556e-003   6.0334e-004   5.7329e-003  -7.9627e+007   1.2326e+006   2.2645e+007    0.0000    0.1602    0.0037   -0.0000    0.1969
                0.0003  -4.1670e-003   6.0488e-004   5.7172e-003  -7.9846e+007   1.2337e+006   2.2583e+007    0.0000    0.1607    0.0037   -0.0000    0.1964
                0.0234  -4.2628e-003   6.1908e-004   4.5834e-003  -8.1681e+007   1.2678e+006   1.8104e+007    0.0000    0.1643    0.0038   -0.0000    0.1574
                0.0473  -4.3638e-003   6.3401e-004   3.3826e-003  -8.3615e+007   1.3030e+006   1.3361e+007    0.0000    0.1682    0.0039   -0.0000    0.1162
                0.0716  -4.4108e-003   6.4093e-004   2.1331e-003  -8.4515e+007   1.3190e+006   8.4256e+006    0.0000    0.1701    0.0039   -0.0000    0.0733
                0.0966  -4.4154e-003   6.4162e-004   8.4081e-004  -8.4605e+007   1.3205e+006   3.3212e+006    0.0000    0.1702    0.0039   -0.0000    0.0289
                0.1220  -4.4194e-003   6.4222e-004   4.7450e-004  -8.4681e+007   1.3222e+006   1.8743e+006    0.0000    0.1704    0.0039   -0.0000    0.0163
                0.1479  -4.3281e-003   6.2874e-004   1.7990e-003  -8.2933e+007   1.2906e+006   7.1061e+006    0.0000    0.1669    0.0038   -0.0000    0.0618
                0.1742  -4.2318e-003   6.1449e-004   3.1117e-003  -8.1088e+007   1.2567e+006   1.2291e+007    0.0000    0.1632    0.0037   -0.0000    0.1069
                0.2009  -4.1100e-003   5.9645e-004   4.3967e-003  -7.8755e+007   1.2137e+006   1.7367e+007    0.0000    0.1585    0.0036   -0.0000    0.1510

               lamina:  2     
              matName:  (spar-uni)
                     s           e11           e22           e12           s11           s22           s12   s11_fcT   s11_fcC   s22_fcT   s22_fcC   s12_fcS
                   (m)         (m/m)         (m/m)         (rad)          (Pa)          (Pa)          (Pa)       (-)       (-)       (-)       (-)       (-)
                0.0000  -3.5867e-003   5.2895e-004   5.7329e-003  -4.4266e+008  -4.8109e+006   2.7002e+007    0.0000    0.4427    0.0000    0.0803    0.2622
                0.0003  -3.5913e-003   5.2959e-004   5.7172e-003  -4.4322e+008  -4.8172e+006   2.6928e+007    0.0000    0.4432    0.0000    0.0804    0.2614
                0.0234  -3.6870e-003   5.4378e-004   4.5834e-003  -4.5503e+008  -4.9450e+006   2.1588e+007    0.0000    0.4550    0.0000    0.0826    0.2096
                0.0473  -3.7861e-003   5.5847e-004   3.3826e-003  -4.6727e+008  -5.0774e+006   1.5932e+007    0.0000    0.4673    0.0000    0.0848    0.1547
                0.0716  -3.8314e-003   5.6517e-004   2.1331e-003  -4.7285e+008  -5.1379e+006   1.0047e+007    0.0000    0.4729    0.0000    0.0858    0.0975
                0.0966  -3.8359e-003   5.6583e-004   8.4081e-004  -4.7341e+008  -5.1439e+006   3.9602e+006    0.0000    0.4734    0.0000    0.0859    0.0384
                0.1220  -3.8404e-003   5.6651e-004   4.7450e-004  -4.7397e+008  -5.1500e+006   2.2349e+006    0.0000    0.4740    0.0000    0.0860    0.0217
                0.1479  -3.7512e-003   5.5330e-004   1.7990e-003  -4.6296e+008  -5.0308e+006   8.4734e+006    0.0000    0.4630    0.0000    0.0840    0.0823
                0.1742  -3.6559e-003   5.3916e-004   3.1117e-003  -4.5119e+008  -4.9035e+006   1.4656e+007    0.0000    0.4512    0.0000    0.0819    0.1423
                0.2009  -3.5349e-003   5.2124e-004   4.3967e-003  -4.3627e+008  -4.7420e+006   2.0709e+007    0.0000    0.4363    0.0000    0.0792    0.2011

               lamina:  3     
              matName:  (spar-core)
                     s           e11           e22           e12           s11           s22           s12   s11_fcT   s11_fcC   s22_fcT   s22_fcC   s12_fcS
                   (m)         (m/m)         (m/m)         (rad)          (Pa)          (Pa)          (Pa)       (-)       (-)       (-)       (-)       (-)
                0.0000  -3.4351e-003   5.0913e-004   5.7329e-003  -7.6994e+005  -1.4716e+005   5.6182e+005    0.0000    0.1795    0.0000    0.0343    0.1904
                0.0003  -3.4378e-003   5.0953e-004   5.7172e-003  -7.7055e+005  -1.4728e+005   5.6028e+005    0.0000    0.1796    0.0000    0.0343    0.1899
                0.0234  -3.5335e-003   5.2371e-004   4.5834e-003  -7.9199e+005  -1.5138e+005   4.4917e+005    0.0000    0.1846    0.0000    0.0353    0.1523
                0.0473  -3.6322e-003   5.3833e-004   3.3826e-003  -8.1411e+005  -1.5560e+005   3.3150e+005    0.0000    0.1898    0.0000    0.0363    0.1124
                0.0716  -3.6770e-003   5.4498e-004   2.1331e-003  -8.2415e+005  -1.5752e+005   2.0904e+005    0.0000    0.1921    0.0000    0.0367    0.0709
                0.0966  -3.6814e-003   5.4563e-004   8.4081e-004  -8.2514e+005  -1.5771e+005   8.2399e+004    0.0000    0.1923    0.0000    0.0368    0.0279
                0.1220  -3.6861e-003   5.4633e-004   4.7450e-004  -8.2619e+005  -1.5791e+005   4.6501e+004    0.0000    0.1926    0.0000    0.0368    0.0158
                0.1479  -3.5975e-003   5.3319e-004   1.7990e-003  -8.0633e+005  -1.5412e+005   1.7630e+005    0.0000    0.1880    0.0000    0.0359    0.0598
                0.1742  -3.5024e-003   5.1909e-004   3.1117e-003  -7.8501e+005  -1.5004e+005   3.0494e+005    0.0000    0.1830    0.0000    0.0350    0.1034
                0.2009  -3.3817e-003   5.0120e-004   4.3967e-003  -7.5796e+005  -1.4487e+005   4.3088e+005    0.0000    0.1767    0.0000    0.0338    0.1461

               lamina:  4     
              matName:  (spar-uni)
                     s           e11           e22           e12           s11           s22           s12   s11_fcT   s11_fcC   s22_fcT   s22_fcC   s12_fcS
                   (m)         (m/m)         (m/m)         (rad)          (Pa)          (Pa)          (Pa)       (-)       (-)       (-)       (-)       (-)
                0.0000  -3.4250e-003   5.0780e-004   5.7329e-003  -4.2269e+008  -4.5716e+006   2.7002e+007    0.0000    0.4227    0.0000    0.0763    0.2622
                0.0003  -3.4275e-003   5.0818e-004   5.7172e-003  -4.2300e+008  -4.5750e+006   2.6928e+007    0.0000    0.4230    0.0000    0.0764    0.2614
                0.0234  -3.5232e-003   5.2236e-004   4.5834e-003  -4.3481e+008  -4.7027e+006   2.1588e+007    0.0000    0.4348    0.0000    0.0785    0.2096
                0.0473  -3.6218e-003   5.3698e-004   3.3826e-003  -4.4698e+008  -4.8344e+006   1.5932e+007    0.0000    0.4470    0.0000    0.0807    0.1547
                0.0716  -3.6666e-003   5.4362e-004   2.1331e-003  -4.5251e+008  -4.8942e+006   1.0047e+007    0.0000    0.4525    0.0000    0.0817    0.0975
                0.0966  -3.6710e-003   5.4428e-004   8.4081e-004  -4.5306e+008  -4.9001e+006   3.9602e+006    0.0000    0.4531    0.0000    0.0818    0.0384
                0.1220  -3.6757e-003   5.4497e-004   4.7450e-004  -4.5364e+008  -4.9064e+006   2.2349e+006    0.0000    0.4536    0.0000    0.0819    0.0217
                0.1479  -3.5872e-003   5.3184e-004   1.7990e-003  -4.4271e+008  -4.7881e+006   8.4734e+006    0.0000    0.4427    0.0000    0.0799    0.0823
                0.1742  -3.4920e-003   5.1774e-004   3.1117e-003  -4.3097e+008  -4.6612e+006   1.4656e+007    0.0000    0.4310    0.0000    0.0778    0.1423
                0.2009  -3.3714e-003   4.9985e-004   4.3967e-003  -4.1607e+008  -4.5000e+006   2.0709e+007    0.0000    0.4161    0.0000    0.0751    0.2011

               lamina:  5     
              matName:  (blade-shell)
                     s           e11           e22           e12           s11           s22           s12   s11_fcT   s11_fcC   s22_fcT   s22_fcC   s12_fcS
                   (m)         (m/m)         (m/m)         (rad)          (Pa)          (Pa)          (Pa)       (-)       (-)       (-)       (-)       (-)
                0.0000  -3.2733e-003   4.8797e-004   5.7329e-003  -6.2690e+007   1.2194e+006   2.2645e+007    0.0000    0.1261    0.0036   -0.0000    0.1969
                0.0003  -3.2741e-003   4.8811e-004   5.7172e-003  -6.2704e+007   1.2203e+006   2.2583e+007    0.0000    0.1262    0.0036   -0.0000    0.1964
                0.0234  -3.3697e-003   5.0229e-004   4.5834e-003  -6.4535e+007   1.2543e+006   1.8104e+007    0.0000    0.1298    0.0037   -0.0000    0.1574
                0.0473  -3.4679e-003   5.1685e-004   3.3826e-003  -6.6416e+007   1.2895e+006   1.3361e+007    0.0000    0.1336    0.0038   -0.0000    0.1162
                0.0716  -3.5122e-003   5.2343e-004   2.1331e-003  -6.7265e+007   1.3054e+006   8.4256e+006    0.0000    0.1353    0.0039   -0.0000    0.0733
                0.0966  -3.5166e-003   5.2408e-004   8.4081e-004  -6.7348e+007   1.3070e+006   3.3212e+006    0.0000    0.1355    0.0039   -0.0000    0.0289
                0.1220  -3.5214e-003   5.2479e-004   4.7450e-004  -6.7441e+007   1.3087e+006   1.8743e+006    0.0000    0.1357    0.0039   -0.0000    0.0163
                0.1479  -3.4334e-003   5.1174e-004   1.7990e-003  -6.5756e+007   1.2771e+006   7.1061e+006    0.0000    0.1323    0.0038   -0.0000    0.0618
                0.1742  -3.3385e-003   4.9767e-004   3.1117e-003  -6.3938e+007   1.2433e+006   1.2291e+007    0.0000    0.1286    0.0037   -0.0000    0.1069
                0.2009  -3.2181e-003   4.7981e-004   4.3967e-003  -6.1631e+007   1.2003e+006   1.7367e+007    0.0000    0.1240    0.0036   -0.0000    0.1510

            panel:  3     
           lam_num    nPlies        tPly      fibAng     matID  matName
               (-)       (-)         (m)       (deg)       (-)  (-)
                 1         1    0.002619      0.0000         2  (blade-shell)
                 2         1    0.000799      0.0000         6  (TEP-core)
                 3         1    0.002619      0.0000         2  (blade-shell)

               lamina:  1     
              matName:  (blade-shell)
                     s           e11           e22           e12           s11           s22           s12   s11_fcT   s11_fcC   s22_fcT   s22_fcC   s12_fcS
                   (m)         (m/m)         (m/m)         (rad)          (Pa)          (Pa)          (Pa)       (-)       (-)       (-)       (-)       (-)
                0.0000  -3.6747e-003   4.7896e-004   1.2922e-003  -7.0552e+007   2.4352e+004   5.1042e+006    0.0000    0.1420    0.0001   -0.0000    0.0444
                0.0001  -3.6732e-003   4.7876e-004   1.2888e-003  -7.0522e+007   2.4358e+004   5.0907e+006    0.0000    0.1419    0.0001   -0.0000    0.0443
                0.0271  -3.4979e-003   4.5591e-004   6.8200e-004  -6.7156e+007   2.3100e+004   2.6939e+006    0.0000    0.1351    0.0001   -0.0000    0.0234
                0.0541  -3.3219e-003   4.3297e-004   1.0903e-004  -6.3778e+007   2.1844e+004   4.3067e+005    0.0000    0.1283    0.0001   -0.0000    0.0037
                0.0810  -3.1066e-003   4.0490e-004   4.2923e-004  -5.9644e+007   2.0311e+004   1.6955e+006    0.0000    0.1200    0.0001   -0.0000    0.0147
                0.1080  -2.8754e-003   3.7476e-004   9.2533e-004  -5.5206e+007   1.8656e+004   3.6551e+006    0.0000    0.1111    0.0001   -0.0000    0.0318
                0.1346  -2.6447e-003   3.4468e-004   1.3732e-003  -5.0776e+007   1.7009e+004   5.4243e+006    0.0000    0.1022    0.0001   -0.0000    0.0472
                0.1610  -2.3826e-003   3.1051e-004   1.7734e-003  -4.5743e+007   1.5137e+004   7.0049e+006    0.0000    0.0920    0.0000   -0.0000    0.0609
                0.1869  -2.1264e-003   2.7711e-004   2.1202e-003  -4.0825e+007   1.3300e+004   8.3747e+006    0.0000    0.0821    0.0000   -0.0000    0.0728
                0.2122  -1.8696e-003   2.4364e-004   2.4144e-003  -3.5895e+007   1.1462e+004   9.5369e+006    0.0000    0.0722    0.0000   -0.0000    0.0829
                0.2368  -1.6115e-003   2.0999e-004   2.6575e-003  -3.0940e+007   9.6119e+003   1.0497e+007    0.0000    0.0623    0.0000   -0.0000    0.0913
                0.2607  -1.3625e-003   1.7753e-004   2.8510e-003  -2.6159e+007   7.8238e+003   1.1262e+007    0.0000    0.0526    0.0000   -0.0000    0.0979
                0.2835  -1.1243e-003   1.4648e-004   2.9987e-003  -2.1586e+007   6.1138e+003   1.1845e+007    0.0000    0.0434    0.0000   -0.0000    0.1030
                0.3054  -8.9711e-004   1.1685e-004   3.1049e-003  -1.7224e+007   4.4820e+003   1.2264e+007    0.0000    0.0347    0.0000   -0.0000    0.1066
                0.3262  -6.8349e-004   8.9004e-005   3.1743e-003  -1.3123e+007   2.9445e+003   1.2538e+007    0.0000    0.0264    0.0000   -0.0000    0.1090
                0.3457  -4.9129e-004   6.3947e-005   3.2123e-003  -9.4325e+006   1.5613e+003   1.2688e+007    0.0000    0.0190    0.0000   -0.0000    0.1103
                0.3639  -3.1150e-004   4.0508e-005   3.2244e-003  -5.9807e+006   2.6780e+002   1.2736e+007    0.0000    0.0120    0.0000   -0.0000    0.1108
                0.3808  -1.5226e-004   1.9748e-005   3.2160e-003  -2.9234e+006  -9.0755e+002   1.2703e+007    0.0000    0.0059    0.0000    0.0000    0.1105
                0.3962   2.3050e-004  -3.0063e-005   3.1923e-003   4.4254e+006  -1.9162e+003   1.2610e+007    0.0131   -0.0000    0.0000    0.0000    0.1096
                0.4102   3.5780e-004  -4.6659e-005   3.1581e-003   6.8694e+006  -2.8307e+003   1.2474e+007    0.0204   -0.0000    0.0000    0.0000    0.1085
                0.4226   4.6168e-004  -6.0202e-005   3.1177e-003   8.8638e+006  -3.5771e+003   1.2315e+007    0.0263   -0.0000    0.0000    0.0000    0.1071
                0.4334   5.5137e-004  -7.1894e-005   3.0753e-003   1.0586e+007  -4.2211e+003   1.2148e+007    0.0314   -0.0000    0.0000    0.0000    0.1056
                0.4427   6.2668e-004  -8.1713e-005   3.0339e-003   1.2032e+007  -4.7621e+003   1.1984e+007    0.0357   -0.0000    0.0000    0.0000    0.1042
                0.4503   6.8557e-004  -8.9389e-005   2.9964e-003   1.3162e+007  -5.1851e+003   1.1836e+007    0.0391   -0.0000    0.0000    0.0000    0.1029
                0.4562   7.3147e-004  -9.5374e-005   2.9650e-003   1.4044e+007  -5.5144e+003   1.1712e+007    0.0417   -0.0000    0.0000    0.0000    0.1018
                0.4604   7.6577e-004  -9.9845e-005   2.9414e-003   1.4702e+007  -5.7602e+003   1.1618e+007    0.0436   -0.0000    0.0000    0.0000    0.1010
                0.4630   7.8703e-004  -1.0262e-004   2.9267e-003   1.5110e+007  -5.9125e+003   1.1560e+007    0.0448   -0.0000    0.0000    0.0000    0.1005
                0.4638   7.9415e-004  -1.0354e-004   2.9216e-003   1.5247e+007  -5.9636e+003   1.1540e+007    0.0452   -0.0000    0.0000    0.0000    0.1004

               lamina:  2     
              matName:  (TEP-core)
                     s           e11           e22           e12           s11           s22           s12   s11_fcT   s11_fcC   s22_fcT   s22_fcC   s12_fcS
                   (m)         (m/m)         (m/m)         (rad)          (Pa)          (Pa)          (Pa)       (-)       (-)       (-)       (-)       (-)
                0.0000  -3.4261e-003   4.4664e-004   1.2922e-003  -7.7268e+005  -1.6119e+005   1.2664e+005    0.0000    0.1801    0.0000    0.0376    0.0429
                0.0001  -3.4267e-003   4.4671e-004   1.2888e-003  -7.7280e+005  -1.6121e+005   1.2630e+005    0.0000    0.1801    0.0000    0.0376    0.0428
                0.0271  -3.2513e-003   4.2385e-004   6.8200e-004  -7.3326e+005  -1.5297e+005   6.6836e+004    0.0000    0.1709    0.0000    0.0357    0.0227
                0.0541  -3.0763e-003   4.0103e-004   1.0903e-004  -6.9378e+005  -1.4473e+005   1.0685e+004    0.0000    0.1617    0.0000    0.0337    0.0036
                0.0810  -2.8625e-003   3.7316e-004   4.2923e-004  -6.4556e+005  -1.3467e+005   4.2064e+004    0.0000    0.1505    0.0000    0.0314    0.0143
                0.1080  -2.6319e-003   3.4310e-004   9.2533e-004  -5.9357e+005  -1.2382e+005   9.0682e+004    0.0000    0.1384    0.0000    0.0289    0.0307
                0.1346  -2.4023e-003   3.1317e-004   1.3732e-003  -5.4178e+005  -1.1302e+005   1.3458e+005    0.0000    0.1263    0.0000    0.0263    0.0456
                0.1610  -2.1413e-003   2.7915e-004   1.7734e-003  -4.8293e+005  -1.0075e+005   1.7379e+005    0.0000    0.1126    0.0000    0.0235    0.0589
                0.1869  -1.8854e-003   2.4578e-004   2.1202e-003  -4.2520e+005  -8.8703e+004   2.0778e+005    0.0000    0.0991    0.0000    0.0207    0.0704
                0.2122  -1.6292e-003   2.1238e-004   2.4144e-003  -3.6743e+005  -7.6651e+004   2.3661e+005    0.0000    0.0856    0.0000    0.0179    0.0802
                0.2368  -1.3715e-003   1.7878e-004   2.6575e-003  -3.0930e+005  -6.4525e+004   2.6043e+005    0.0000    0.0721    0.0000    0.0150    0.0883
                0.2607  -1.1224e-003   1.4631e-004   2.8510e-003  -2.5312e+005  -5.2806e+004   2.7940e+005    0.0000    0.0590    0.0000    0.0123    0.0947
                0.2835  -8.8414e-004   1.1525e-004   2.9987e-003  -1.9940e+005  -4.1599e+004   2.9388e+005    0.0000    0.0465    0.0000    0.0097    0.0996
                0.3054  -6.5683e-004   8.5617e-005   3.1049e-003  -1.4813e+005  -3.0905e+004   3.0428e+005    0.0000    0.0345    0.0000    0.0072    0.1031
                0.3262  -4.4271e-004   5.7701e-005   3.1743e-003  -9.9843e+004  -2.0831e+004   3.1108e+005    0.0000    0.0233    0.0000    0.0049    0.1055
                0.3457  -2.5007e-004   3.2587e-005   3.2123e-003  -5.6397e+004  -1.1768e+004   3.1480e+005    0.0000    0.0131    0.0000    0.0027    0.1067
                0.3639  -6.9916e-005   9.1014e-006   3.2244e-003  -1.5769e+004  -3.2924e+003   3.1599e+005    0.0000    0.0037    0.0000    0.0008    0.1071
                0.3808   1.6396e-004  -2.1362e-005   3.2160e-003   3.6979e+004   7.7170e+003   3.1517e+005    0.0086   -0.0000    0.0018   -0.0000    0.1068
                0.3962   3.0454e-004  -3.9689e-005   3.1923e-003   6.8683e+004   1.4331e+004   3.1285e+005    0.0160   -0.0000    0.0033   -0.0000    0.1061
                0.4102   4.3202e-004  -5.6308e-005   3.1581e-003   9.7433e+004   2.0328e+004   3.0949e+005    0.0227   -0.0000    0.0047   -0.0000    0.1049
                0.4226   5.3612e-004  -6.9880e-005   3.1177e-003   1.2091e+005   2.5226e+004   3.0554e+005    0.0282   -0.0000    0.0059   -0.0000    0.1036
                0.4334   6.2586e-004  -8.1579e-005   3.0753e-003   1.4115e+005   2.9448e+004   3.0138e+005    0.0329   -0.0000    0.0069   -0.0000    0.1022
                0.4427   7.0130e-004  -9.1413e-005   3.0339e-003   1.5816e+005   3.2996e+004   2.9732e+005    0.0369   -0.0000    0.0077   -0.0000    0.1008
                0.4503   7.6028e-004  -9.9102e-005   2.9964e-003   1.7146e+005   3.5771e+004   2.9364e+005    0.0400   -0.0000    0.0083   -0.0000    0.0995
                0.4562   8.0612e-004  -1.0508e-004   2.9650e-003   1.8180e+005   3.7928e+004   2.9057e+005    0.0424   -0.0000    0.0088   -0.0000    0.0985
                0.4604   8.4029e-004  -1.0953e-004   2.9414e-003   1.8951e+005   3.9536e+004   2.8826e+005    0.0442   -0.0000    0.0092   -0.0000    0.0977
                0.4630   8.6148e-004  -1.1230e-004   2.9267e-003   1.9429e+005   4.0532e+004   2.8681e+005    0.0453   -0.0000    0.0094   -0.0000    0.0972
                0.4638   8.6860e-004  -1.1322e-004   2.9216e-003   1.9589e+005   4.0867e+004   2.8632e+005    0.0457   -0.0000    0.0095   -0.0000    0.0971

               lamina:  3     
              matName:  (blade-shell)
                     s           e11           e22           e12           s11           s22           s12   s11_fcT   s11_fcC   s22_fcT   s22_fcC   s12_fcS
                   (m)         (m/m)         (m/m)         (rad)          (Pa)          (Pa)          (Pa)       (-)       (-)       (-)       (-)       (-)
                0.0000  -3.3503e-003   4.3678e-004   1.2922e-003  -6.4322e+007   2.4317e+004   5.1042e+006    0.0000    0.1294    0.0001   -0.0000    0.0444
                0.0001  -3.3514e-003   4.3693e-004   1.2888e-003  -6.4344e+007   2.4323e+004   5.0907e+006    0.0000    0.1295    0.0001   -0.0000    0.0443
                0.0271  -3.1761e-003   4.1407e-004   6.8200e-004  -6.0978e+007   2.3064e+004   2.6939e+006    0.0000    0.1227    0.0001   -0.0000    0.0234
                0.0541  -3.0013e-003   3.9129e-004   1.0903e-004  -5.7623e+007   2.1809e+004   4.3067e+005    0.0000    0.1159    0.0001   -0.0000    0.0037
                0.0810  -2.7880e-003   3.6348e-004   4.2923e-004  -5.3527e+007   2.0276e+004   1.6955e+006    0.0000    0.1077    0.0001   -0.0000    0.0147
                0.1080  -2.5576e-003   3.3344e-004   9.2533e-004  -4.9104e+007   1.8622e+004   3.6551e+006    0.0000    0.0988    0.0001   -0.0000    0.0318
                0.1346  -2.3283e-003   3.0355e-004   1.3732e-003  -4.4702e+007   1.6975e+004   5.4243e+006    0.0000    0.0899    0.0001   -0.0000    0.0472
                0.1610  -2.0677e-003   2.6958e-004   1.7734e-003  -3.9698e+007   1.5103e+004   7.0049e+006    0.0000    0.0799    0.0000   -0.0000    0.0609
                0.1869  -1.8118e-003   2.3622e-004   2.1202e-003  -3.4786e+007   1.3266e+004   8.3747e+006    0.0000    0.0700    0.0000   -0.0000    0.0728
                0.2122  -1.5558e-003   2.0284e-004   2.4144e-003  -2.9871e+007   1.1427e+004   9.5369e+006    0.0000    0.0601    0.0000   -0.0000    0.0829
                0.2368  -1.2982e-003   1.6926e-004   2.6575e-003  -2.4924e+007   9.5776e+003   1.0497e+007    0.0000    0.0501    0.0000   -0.0000    0.0913
                0.2607  -1.0491e-003   1.3678e-004   2.8510e-003  -2.0142e+007   7.7895e+003   1.1262e+007    0.0000    0.0405    0.0000   -0.0000    0.0979
                0.2835  -8.1085e-004   1.0572e-004   2.9987e-003  -1.5567e+007   6.0794e+003   1.1845e+007    0.0000    0.0313    0.0000   -0.0000    0.1030
                0.3054  -5.8351e-004   7.6084e-005   3.1049e-003  -1.1203e+007   4.4477e+003   1.2264e+007    0.0000    0.0225    0.0000   -0.0000    0.1066
                0.3262  -3.6923e-004   4.8149e-005   3.1743e-003  -7.0889e+006   2.9101e+003   1.2538e+007    0.0000    0.0143    0.0000   -0.0000    0.1090
                0.3457  -1.7646e-004   2.3018e-005   3.2123e-003  -3.3878e+006   1.5268e+003   1.2688e+007    0.0000    0.0068    0.0000   -0.0000    0.1103
                0.3639   2.4538e-004  -3.1889e-005   3.2244e-003   4.7114e+006   2.3324e+002   1.2736e+007    0.0140   -0.0000    0.0000   -0.0000    0.1108
                0.3808   4.0625e-004  -5.2861e-005   3.2160e-003   7.7999e+006  -9.4220e+002   1.2703e+007    0.0231   -0.0000    0.0000    0.0000    0.1105
                0.3962   5.4717e-004  -7.1233e-005   3.1923e-003   1.0505e+007  -1.9509e+003   1.2610e+007    0.0312   -0.0000    0.0000    0.0000    0.1096
                0.4102   6.7525e-004  -8.7930e-005   3.1581e-003   1.2964e+007  -2.8654e+003   1.2474e+007    0.0385   -0.0000    0.0000    0.0000    0.1085
                0.4226   7.8007e-004  -1.0159e-004   3.1177e-003   1.4977e+007  -3.6120e+003   1.2315e+007    0.0444   -0.0000    0.0000    0.0000    0.1071
                0.4334   8.6999e-004  -1.1332e-004   3.0753e-003   1.6703e+007  -4.2560e+003   1.2148e+007    0.0496   -0.0000    0.0000    0.0000    0.1056
                0.4427   9.4580e-004  -1.2320e-004   3.0339e-003   1.8159e+007  -4.7971e+003   1.1984e+007    0.0539   -0.0000    0.0000    0.0000    0.1042
                0.4503   1.0051e-003  -1.3093e-004   2.9964e-003   1.9298e+007  -5.2202e+003   1.1836e+007    0.0573   -0.0000    0.0000    0.0000    0.1029
                0.4562   1.0508e-003  -1.3688e-004   2.9650e-003   2.0174e+007  -5.5494e+003   1.1712e+007    0.0599   -0.0000    0.0000    0.0000    0.1018
                0.4604   1.0845e-003  -1.4128e-004   2.9414e-003   2.0822e+007  -5.7951e+003   1.1618e+007    0.0618   -0.0000    0.0000    0.0000    0.1010
                0.4630   1.1055e-003  -1.4401e-004   2.9267e-003   2.1224e+007  -5.9474e+003   1.1560e+007    0.0630   -0.0000    0.0000    0.0000    0.1005
                0.4638   1.1126e-003  -1.4494e-004   2.9216e-003   2.1361e+007  -5.9985e+003   1.1540e+007    0.0634   -0.0000    0.0000    0.0000    0.1004

  Bottom:  panel  nNode   nLam     xc_St    xc_End         b         t         E_eff         G_eff      nu_eff     density  buckleCrit
            (-)    (-)    (-)       (-)       (-)       (m)       (m)          (Pa)          (Pa)         (-)    (kg/m^3)         (-)
              1     17      3    0.0000    0.2314    0.2199    0.0054   1.8638e+010   3.8360e+009      0.1301   1626.4819      0.0551
              2     10      5    0.2314    0.4686    0.2009    0.0067   4.0807e+010   4.0818e+009      0.1482   1617.8947      0.0106
              3     28      3    0.4686    1.0000    0.4596    0.0060   1.6687e+010   3.4401e+009      0.1304   1475.4034      0.2030

            panel:  1     
           lam_num    nPlies        tPly      fibAng     matID  matName
               (-)       (-)         (m)       (deg)       (-)  (-)
                 1         1    0.002619      0.0000         2  (blade-shell)
                 2         1    0.000160      0.0000         5  (LEP-core)
                 3         1    0.002619      0.0000         2  (blade-shell)

               lamina:  1     
              matName:  (blade-shell)
                     s           e11           e22           e12           s11           s22           s12   s11_fcT   s11_fcC   s22_fcT   s22_fcC   s12_fcS
                   (m)         (m/m)         (m/m)         (rad)          (Pa)          (Pa)          (Pa)       (-)       (-)       (-)       (-)       (-)
                0.0000   3.2075e-004  -4.1715e-005   4.8150e-003   6.1584e+006  -3.2412e+002   1.9019e+007    0.0183   -0.0000    0.0000    0.0000    0.1654
                0.0024   4.0438e-004  -5.2592e-005   4.8110e-003   7.7640e+006  -4.4432e+002   1.9004e+007    0.0230   -0.0000    0.0000    0.0000    0.1652
                0.0095   6.6591e-004  -8.6609e-005   4.7914e-003   1.2785e+007  -7.9617e+002   1.8926e+007    0.0379   -0.0000    0.0000    0.0000    0.1646
                0.0183   1.0064e-003  -1.3089e-004   4.7511e-003   1.9323e+007  -1.2125e+003   1.8767e+007    0.0573   -0.0000    0.0000    0.0000    0.1632
                0.0260   1.2448e-003  -1.6190e-004   4.7029e-003   2.3900e+007  -1.4995e+003   1.8577e+007    0.0709   -0.0000    0.0000    0.0000    0.1615
                0.0362   1.5291e-003  -1.9888e-004   4.6229e-003   2.9359e+007  -1.8818e+003   1.8260e+007    0.0871   -0.0000    0.0000    0.0000    0.1588
                0.0467   1.7719e-003  -2.3046e-004   4.5224e-003   3.4021e+007  -2.1994e+003   1.7864e+007    0.1010   -0.0000    0.0000    0.0000    0.1553
                0.0588   2.0049e-003  -2.6077e-004   4.3888e-003   3.8494e+007  -2.5250e+003   1.7336e+007    0.1142   -0.0000    0.0000    0.0000    0.1507
                0.0724   2.2638e-003  -2.9444e-004   4.2164e-003   4.3465e+007  -2.8809e+003   1.6655e+007    0.1290   -0.0000    0.0000    0.0000    0.1448
                0.0867   2.4620e-003  -3.2022e-004   4.0139e-003   4.7269e+007  -3.1539e+003   1.5855e+007    0.1403   -0.0000    0.0000    0.0000    0.1379
                0.1026   2.6767e-003  -3.4814e-004   3.7664e-003   5.1391e+007  -3.4584e+003   1.4877e+007    0.1525   -0.0000    0.0000    0.0000    0.1294
                0.1195   2.8757e-003  -3.7404e-004   3.4791e-003   5.5213e+007  -3.7372e+003   1.3742e+007    0.1638   -0.0000    0.0000    0.0000    0.1195
                0.1376   3.0465e-003  -3.9625e-004   3.1503e-003   5.8492e+007  -3.9794e+003   1.2444e+007    0.1736   -0.0000    0.0000    0.0000    0.1082
                0.1569   3.2292e-003  -4.2002e-004   2.7761e-003   6.2001e+007  -4.2382e+003   1.0965e+007    0.1840   -0.0000    0.0000    0.0000    0.0954
                0.1770   3.3642e-003  -4.3757e-004   2.3639e-003   6.4592e+007  -4.4286e+003   9.3372e+006    0.1917   -0.0000    0.0000    0.0000    0.0812
                0.1983   3.4938e-003  -4.5443e-004   1.9097e-003   6.7081e+007  -4.6138e+003   7.5435e+006    0.1991   -0.0000    0.0000    0.0000    0.0656
                0.2199   3.6112e-003  -4.6970e-004   1.4291e-003   6.9334e+007  -4.7820e+003   5.6451e+006    0.2057   -0.0000    0.0000    0.0000    0.0491

               lamina:  2     
              matName:  (LEP-core)
                     s           e11           e22           e12           s11           s22           s12   s11_fcT   s11_fcC   s22_fcT   s22_fcC   s12_fcS
                   (m)         (m/m)         (m/m)         (rad)          (Pa)          (Pa)          (Pa)       (-)       (-)       (-)       (-)       (-)
                0.0000   2.2824e-004  -2.9688e-005   4.8150e-003   5.1479e+004   1.0754e+004   4.7187e+005    0.0120   -0.0000    0.0025   -0.0000    0.1600
                0.0024   3.1186e-004  -4.0565e-005   4.8110e-003   7.0339e+004   1.4693e+004   4.7148e+005    0.0164   -0.0000    0.0034   -0.0000    0.1598
                0.0095   5.5714e-004  -7.2468e-005   4.7914e-003   1.2566e+005   2.6250e+004   4.6956e+005    0.0293   -0.0000    0.0061   -0.0000    0.1592
                0.0183   8.4827e-004  -1.1034e-004   4.7511e-003   1.9132e+005   3.9966e+004   4.6561e+005    0.0446   -0.0000    0.0093   -0.0000    0.1578
                0.0260   1.0490e-003  -1.3645e-004   4.7029e-003   2.3660e+005   4.9424e+004   4.6089e+005    0.0552   -0.0000    0.0115   -0.0000    0.1562
                0.0362   1.3156e-003  -1.7112e-004   4.6229e-003   2.9672e+005   6.1983e+004   4.5305e+005    0.0692   -0.0000    0.0144   -0.0000    0.1536
                0.0467   1.5371e-003  -1.9994e-004   4.5224e-003   3.4670e+005   7.2423e+004   4.4320e+005    0.0808   -0.0000    0.0169   -0.0000    0.1502
                0.0588   1.7638e-003  -2.2942e-004   4.3888e-003   3.9782e+005   8.3103e+004   4.3010e+005    0.0927   -0.0000    0.0194   -0.0000    0.1458
                0.0724   2.0118e-003  -2.6168e-004   4.2164e-003   4.5375e+005   9.4786e+004   4.1320e+005    0.1058   -0.0000    0.0221   -0.0000    0.1401
                0.0867   2.2019e-003  -2.8641e-004   4.0139e-003   4.9664e+005   1.0374e+005   3.9336e+005    0.1158   -0.0000    0.0242   -0.0000    0.1333
                0.1026   2.4139e-003  -3.1398e-004   3.7664e-003   5.4444e+005   1.1373e+005   3.6911e+005    0.1269   -0.0000    0.0265   -0.0000    0.1251
                0.1195   2.6080e-003  -3.3923e-004   3.4791e-003   5.8822e+005   1.2288e+005   3.4095e+005    0.1371   -0.0000    0.0286   -0.0000    0.1156
                0.1376   2.7765e-003  -3.6115e-004   3.1503e-003   6.2624e+005   1.3082e+005   3.0873e+005    0.1460   -0.0000    0.0305   -0.0000    0.1047
                0.1569   2.9567e-003  -3.8459e-004   2.7761e-003   6.6688e+005   1.3931e+005   2.7205e+005    0.1554   -0.0000    0.0325   -0.0000    0.0922
                0.1770   3.0892e-003  -4.0182e-004   2.3639e-003   6.9676e+005   1.4555e+005   2.3166e+005    0.1624   -0.0000    0.0339   -0.0000    0.0785
                0.1983   3.2181e-003  -4.1859e-004   1.9097e-003   7.2584e+005   1.5162e+005   1.8715e+005    0.1692   -0.0000    0.0353   -0.0000    0.0634
                0.2199   3.3351e-003  -4.3381e-004   1.4291e-003   7.5222e+005   1.5713e+005   1.4006e+005    0.1753   -0.0000    0.0366   -0.0000    0.0475

               lamina:  3     
              matName:  (blade-shell)
                     s           e11           e22           e12           s11           s22           s12   s11_fcT   s11_fcC   s22_fcT   s22_fcC   s12_fcS
                   (m)         (m/m)         (m/m)         (rad)          (Pa)          (Pa)          (Pa)       (-)       (-)       (-)       (-)       (-)
                0.0000   2.2259e-004  -2.8954e-005   4.8150e-003   4.2738e+006  -3.2400e+002   1.9019e+007    0.0127   -0.0000    0.0000    0.0000    0.1654
                0.0024   3.0622e-004  -3.9831e-005   4.8110e-003   5.8793e+006  -4.4420e+002   1.9004e+007    0.0174   -0.0000    0.0000    0.0000    0.1652
                0.0095   5.5050e-004  -7.1606e-005   4.7914e-003   1.0569e+007  -7.9603e+002   1.8926e+007    0.0314   -0.0000    0.0000    0.0000    0.1646
                0.0183   8.3862e-004  -1.0908e-004   4.7511e-003   1.6101e+007  -1.2123e+003   1.8767e+007    0.0478   -0.0000    0.0000    0.0000    0.1632
                0.0260   1.0371e-003  -1.3489e-004   4.7029e-003   1.9911e+007  -1.4992e+003   1.8577e+007    0.0591   -0.0000    0.0000    0.0000    0.1615
                0.0362   1.3025e-003  -1.6943e-004   4.6229e-003   2.5008e+007  -1.8816e+003   1.8260e+007    0.0742   -0.0000    0.0000    0.0000    0.1588
                0.0467   1.5228e-003  -1.9808e-004   4.5224e-003   2.9238e+007  -2.1991e+003   1.7864e+007    0.0868   -0.0000    0.0000    0.0000    0.1553
                0.0588   1.7491e-003  -2.2751e-004   4.3888e-003   3.3582e+007  -2.5247e+003   1.7336e+007    0.0997   -0.0000    0.0000    0.0000    0.1507
                0.0724   1.9964e-003  -2.5968e-004   4.2164e-003   3.8331e+007  -2.8806e+003   1.6655e+007    0.1137   -0.0000    0.0000    0.0000    0.1448
                0.0867   2.1861e-003  -2.8435e-004   4.0139e-003   4.1972e+007  -3.1536e+003   1.5855e+007    0.1245   -0.0000    0.0000    0.0000    0.1379
                0.1026   2.3978e-003  -3.1190e-004   3.7664e-003   4.6038e+007  -3.4581e+003   1.4877e+007    0.1366   -0.0000    0.0000    0.0000    0.1294
                0.1195   2.5916e-003  -3.3710e-004   3.4791e-003   4.9759e+007  -3.7368e+003   1.3742e+007    0.1477   -0.0000    0.0000    0.0000    0.1195
                0.1376   2.7601e-003  -3.5901e-004   3.1503e-003   5.2993e+007  -3.9790e+003   1.2444e+007    0.1572   -0.0000    0.0000    0.0000    0.1082
                0.1569   2.9401e-003  -3.8243e-004   2.7761e-003   5.6449e+007  -4.2379e+003   1.0965e+007    0.1675   -0.0000    0.0000    0.0000    0.0954
                0.1770   3.0724e-003  -3.9964e-004   2.3639e-003   5.8990e+007  -4.4282e+003   9.3372e+006    0.1750   -0.0000    0.0000    0.0000    0.0812
                0.1983   3.2013e-003  -4.1640e-004   1.9097e-003   6.1464e+007  -4.6135e+003   7.5435e+006    0.1824   -0.0000    0.0000    0.0000    0.0656
                0.2199   3.3182e-003  -4.3162e-004   1.4291e-003   6.3710e+007  -4.7816e+003   5.6451e+006    0.1890   -0.0000    0.0000    0.0000    0.0491

            panel:  2     
           lam_num    nPlies        tPly      fibAng     matID  matName
               (-)       (-)         (m)       (deg)       (-)  (-)
                 1         1    0.002619      0.0000         2  (blade-shell)
                 2         1    0.000698      0.0000         3  (spar-uni)
                 3         1    0.000047      0.0000         4  (spar-core)
                 4         1    0.000698      0.0000         3  (spar-uni)
                 5         1    0.002619      0.0000         2  (blade-shell)

               lamina:  1     
              matName:  (blade-shell)
                     s           e11           e22           e12           s11           s22           s12   s11_fcT   s11_fcC   s22_fcT   s22_fcC   s12_fcS
                   (m)         (m/m)         (m/m)         (rad)          (Pa)          (Pa)          (Pa)       (-)       (-)       (-)       (-)       (-)
                0.0000   4.0345e-003  -5.8530e-004   5.7522e-003   7.7309e+007  -1.1876e+006   2.2721e+007    0.2294   -0.0000    0.0000    0.0035    0.1976
                0.0004   4.0423e-003  -5.8636e-004   5.7357e-003   7.7458e+007  -1.1885e+006   2.2656e+007    0.2298   -0.0000    0.0000    0.0035    0.1970
                0.0233   4.1104e-003  -5.9645e-004   4.6618e-003   7.8763e+007  -1.2127e+006   1.8414e+007    0.2337   -0.0000    0.0000    0.0036    0.1601
                0.0470   4.1820e-003  -6.0703e-004   3.5305e-003   8.0133e+007  -1.2377e+006   1.3945e+007    0.2378   -0.0000    0.0000    0.0037    0.1213
                0.0713   4.2080e-003  -6.1088e-004   2.3537e-003   8.0632e+007  -1.2467e+006   9.2971e+006    0.2393   -0.0000    0.0000    0.0037    0.0808
                0.0963   4.1990e-003  -6.0954e-004   1.1391e-003   8.0460e+007  -1.2435e+006   4.4994e+006    0.2388   -0.0000    0.0000    0.0037    0.0391
                0.1218   4.1890e-003  -6.0807e-004   9.4177e-005   8.0267e+007  -1.2402e+006   3.7200e+005    0.2382   -0.0000    0.0000    0.0037    0.0032
                0.1478   4.0968e-003  -5.9445e-004   1.3372e-003   7.8502e+007  -1.2082e+006   5.2818e+006    0.2329   -0.0000    0.0000    0.0036    0.0459
                0.1742   4.0003e-003  -5.8016e-004   2.5672e-003   7.6653e+007  -1.1742e+006   1.0140e+007    0.2275   -0.0000    0.0000    0.0035    0.0882
                0.2009   3.8832e-003  -5.6282e-004   3.7708e-003   7.4411e+007  -1.1327e+006   1.4895e+007    0.2208   -0.0000    0.0000    0.0034    0.1295

               lamina:  2     
              matName:  (spar-uni)
                     s           e11           e22           e12           s11           s22           s12   s11_fcT   s11_fcC   s22_fcT   s22_fcC   s12_fcS
                   (m)         (m/m)         (m/m)         (rad)          (Pa)          (Pa)          (Pa)       (-)       (-)       (-)       (-)       (-)
                0.0000   3.4613e-003  -5.1034e-004   5.7522e-003   4.2718e+008   4.6437e+006   2.7093e+007    0.2159   -0.0000    0.0775   -0.0000    0.2630
                0.0004   3.4647e-003  -5.1083e-004   5.7357e-003   4.2760e+008   4.6484e+006   2.7015e+007    0.2161   -0.0000    0.0776   -0.0000    0.2623
                0.0233   3.5328e-003  -5.2091e-004   4.6618e-003   4.3600e+008   4.7392e+006   2.1957e+007    0.2203   -0.0000    0.0791   -0.0000    0.2132
                0.0470   3.6033e-003  -5.3135e-004   3.5305e-003   4.4470e+008   4.8333e+006   1.6629e+007    0.2247   -0.0000    0.0807   -0.0000    0.1614
                0.0713   3.6285e-003  -5.3509e-004   2.3537e-003   4.4781e+008   4.8671e+006   1.1086e+007    0.2263   -0.0000    0.0813   -0.0000    0.1076
                0.0963   3.6195e-003  -5.3375e-004   1.1391e-003   4.4670e+008   4.8550e+006   5.3651e+006    0.2257   -0.0000    0.0811   -0.0000    0.0521
                0.1218   3.6102e-003  -5.3239e-004   9.4177e-005   4.4556e+008   4.8426e+006   4.4357e+005    0.2251   -0.0000    0.0808   -0.0000    0.0043
                0.1478   3.5200e-003  -5.1901e-004   1.3372e-003   4.3442e+008   4.7221e+006   6.2981e+006    0.2195   -0.0000    0.0788   -0.0000    0.0611
                0.1742   3.4242e-003  -5.0482e-004   2.5672e-003   4.2260e+008   4.5942e+006   1.2092e+007    0.2135   -0.0000    0.0767   -0.0000    0.1174
                0.2009   3.3078e-003  -4.8756e-004   3.7708e-003   4.0823e+008   4.4387e+006   1.7761e+007    0.2063   -0.0000    0.0741   -0.0000    0.1724

               lamina:  3     
              matName:  (spar-core)
                     s           e11           e22           e12           s11           s22           s12   s11_fcT   s11_fcC   s22_fcT   s22_fcC   s12_fcS
                   (m)         (m/m)         (m/m)         (rad)          (Pa)          (Pa)          (Pa)       (-)       (-)       (-)       (-)       (-)
                0.0000   3.3086e-003  -4.9036e-004   5.7522e-003   7.4157e+005   1.4174e+005   5.6371e+005    0.1729   -0.0000    0.0330   -0.0000    0.1911
                0.0004   3.3108e-003  -4.9069e-004   5.7357e-003   7.4207e+005   1.4184e+005   5.6210e+005    0.1730   -0.0000    0.0331   -0.0000    0.1905
                0.0233   3.3788e-003  -5.0078e-004   4.6618e-003   7.5732e+005   1.4475e+005   4.5686e+005    0.1765   -0.0000    0.0337   -0.0000    0.1549
                0.0470   3.4490e-003  -5.1118e-004   3.5305e-003   7.7306e+005   1.4776e+005   3.4599e+005    0.1802   -0.0000    0.0344   -0.0000    0.1173
                0.0713   3.4740e-003  -5.1489e-004   2.3537e-003   7.7866e+005   1.4883e+005   2.3066e+005    0.1815   -0.0000    0.0347   -0.0000    0.0782
                0.0963   3.4650e-003  -5.1355e-004   1.1391e-003   7.7664e+005   1.4844e+005   1.1163e+005    0.1810   -0.0000    0.0346   -0.0000    0.0378
                0.1218   3.4560e-003  -5.1221e-004   9.4177e-005   7.7461e+005   1.4806e+005   9.2293e+003    0.1806   -0.0000    0.0345   -0.0000    0.0031
                0.1478   3.3662e-003  -4.9891e-004   1.3372e-003   7.5450e+005   1.4421e+005   1.3104e+005    0.1759   -0.0000    0.0336   -0.0000    0.0444
                0.1742   3.2706e-003  -4.8474e-004   2.5672e-003   7.3307e+005   1.4012e+005   2.5159e+005    0.1709   -0.0000    0.0327   -0.0000    0.0853
                0.2009   3.1544e-003  -4.6751e-004   3.7708e-003   7.0702e+005   1.3514e+005   3.6954e+005    0.1648   -0.0000    0.0315   -0.0000    0.1253

               lamina:  4     
              matName:  (spar-uni)
                     s           e11           e22           e12           s11           s22           s12   s11_fcT   s11_fcC   s22_fcT   s22_fcC   s12_fcS
                   (m)         (m/m)         (m/m)         (rad)          (Pa)          (Pa)          (Pa)       (-)       (-)       (-)       (-)       (-)
                0.0000   3.2983e-003  -4.8902e-004   5.7522e-003   4.0706e+008   4.4025e+006   2.7093e+007    0.2057   -0.0000    0.0735   -0.0000    0.2630
                0.0004   3.3005e-003  -4.8934e-004   5.7357e-003   4.0732e+008   4.4054e+006   2.7015e+007    0.2058   -0.0000    0.0735   -0.0000    0.2623
                0.0233   3.3685e-003  -4.9942e-004   4.6618e-003   4.1572e+008   4.4962e+006   2.1957e+007    0.2101   -0.0000    0.0751   -0.0000    0.2132
                0.0470   3.4387e-003  -5.0983e-004   3.5305e-003   4.2438e+008   4.5899e+006   1.6629e+007    0.2144   -0.0000    0.0766   -0.0000    0.1614
                0.0713   3.4637e-003  -5.1354e-004   2.3537e-003   4.2746e+008   4.6232e+006   1.1086e+007    0.2160   -0.0000    0.0772   -0.0000    0.1076
                0.0963   3.4546e-003  -5.1220e-004   1.1391e-003   4.2635e+008   4.6112e+006   5.3651e+006    0.2154   -0.0000    0.0770   -0.0000    0.0521
                0.1218   3.4456e-003  -5.1086e-004   9.4177e-005   4.2523e+008   4.5991e+006   4.4357e+005    0.2149   -0.0000    0.0768   -0.0000    0.0043
                0.1478   3.3559e-003  -4.9756e-004   1.3372e-003   4.1416e+008   4.4794e+006   6.2981e+006    0.2093   -0.0000    0.0748   -0.0000    0.0611
                0.1742   3.2603e-003  -4.8339e-004   2.5672e-003   4.0237e+008   4.3518e+006   1.2092e+007    0.2033   -0.0000    0.0727   -0.0000    0.1174
                0.2009   3.1441e-003  -4.6616e-004   3.7708e-003   3.8802e+008   4.1966e+006   1.7761e+007    0.1961   -0.0000    0.0701   -0.0000    0.1724

               lamina:  5     
              matName:  (blade-shell)
                     s           e11           e22           e12           s11           s22           s12   s11_fcT   s11_fcC   s22_fcT   s22_fcC   s12_fcS
                   (m)         (m/m)         (m/m)         (rad)          (Pa)          (Pa)          (Pa)       (-)       (-)       (-)       (-)       (-)
                0.0000   3.1455e-003  -4.6905e-004   5.7522e-003   6.0242e+007  -1.1743e+006   2.2721e+007    0.1788   -0.0000    0.0000    0.0035    0.1976
                0.0004   3.1465e-003  -4.6921e-004   5.7357e-003   6.0260e+007  -1.1750e+006   2.2656e+007    0.1788   -0.0000    0.0000    0.0035    0.1970
                0.0233   3.2145e-003  -4.7929e-004   4.6618e-003   6.1563e+007  -1.1992e+006   1.8414e+007    0.1827   -0.0000    0.0000    0.0036    0.1601
                0.0470   3.2844e-003  -4.8966e-004   3.5305e-003   6.2902e+007  -1.2242e+006   1.3945e+007    0.1867   -0.0000    0.0000    0.0036    0.1213
                0.0713   3.3092e-003  -4.9334e-004   2.3537e-003   6.3376e+007  -1.2331e+006   9.2971e+006    0.1881   -0.0000    0.0000    0.0037    0.0808
                0.0963   3.3002e-003  -4.9200e-004   1.1391e-003   6.3204e+007  -1.2299e+006   4.4994e+006    0.1875   -0.0000    0.0000    0.0036    0.0391
                0.1218   3.2914e-003  -4.9069e-004   9.4177e-005   6.3034e+007  -1.2267e+006   3.7200e+005    0.1870   -0.0000    0.0000    0.0036    0.0032
                0.1478   3.2021e-003  -4.7745e-004   1.3372e-003   6.1326e+007  -1.1948e+006   5.2818e+006    0.1820   -0.0000    0.0000    0.0035    0.0459
                0.1742   3.1068e-003  -4.6331e-004   2.5672e-003   5.9499e+007  -1.1607e+006   1.0140e+007    0.1766   -0.0000    0.0000    0.0034    0.0882
                0.2009   2.9907e-003  -4.4611e-004   3.7708e-003   5.7276e+007  -1.1193e+006   1.4895e+007    0.1700   -0.0000    0.0000    0.0033    0.1295

            panel:  3     
           lam_num    nPlies        tPly      fibAng     matID  matName
               (-)       (-)         (m)       (deg)       (-)  (-)
                 1         1    0.002619      0.0000         2  (blade-shell)
                 2         1    0.000799      0.0000         6  (TEP-core)
                 3         1    0.002619      0.0000         2  (blade-shell)

               lamina:  1     
              matName:  (blade-shell)
                     s           e11           e22           e12           s11           s22           s12   s11_fcT   s11_fcC   s22_fcT   s22_fcC   s12_fcS
                   (m)         (m/m)         (m/m)         (rad)          (Pa)          (Pa)          (Pa)       (-)       (-)       (-)       (-)       (-)
                0.0000   3.4476e-003  -4.4936e-004   2.2178e-003   6.6192e+007  -2.2721e+004   8.7602e+006    0.1964   -0.0000    0.0000    0.0001    0.0762
                0.0001   3.4465e-003  -4.4921e-004   2.2153e-003   6.6169e+007  -2.2725e+004   8.7504e+006    0.1963   -0.0000    0.0000    0.0001    0.0761
                0.0272   3.2863e-003  -4.2832e-004   1.6467e-003   6.3093e+007  -2.1575e+004   6.5047e+006    0.1872   -0.0000    0.0000    0.0001    0.0566
                0.0542   3.1256e-003  -4.0738e-004   1.1082e-003   6.0010e+007  -2.0427e+004   4.3773e+006    0.1781   -0.0000    0.0000    0.0001    0.0381
                0.0812   2.9392e-003  -3.8307e-004   6.0083e-004   5.6429e+007  -1.9095e+004   2.3733e+006    0.1674   -0.0000    0.0000    0.0001    0.0206
                0.1081   2.7425e-003  -3.5743e-004   1.3019e-004   5.2653e+007  -1.7686e+004   5.1425e+005    0.1562   -0.0000    0.0000    0.0001    0.0045
                0.1347   2.5473e-003  -3.3198e-004   2.9974e-004   4.8906e+007  -1.6288e+004   1.1840e+006    0.1451   -0.0000    0.0000    0.0000    0.0103
                0.1610   2.3411e-003  -3.0510e-004   6.8867e-004   4.4946e+007  -1.4811e+004   2.7202e+006    0.1334   -0.0000    0.0000    0.0000    0.0237
                0.1867   2.1393e-003  -2.7879e-004   1.0347e-003   4.1073e+007  -1.3362e+004   4.0869e+006    0.1219   -0.0000    0.0000    0.0000    0.0355
                0.2118   1.9456e-003  -2.5354e-004   1.3384e-003   3.7354e+007  -1.1970e+004   5.2868e+006    0.1108   -0.0000    0.0000    0.0000    0.0460
                0.2362   1.7616e-003  -2.2956e-004   1.6019e-003   3.3822e+007  -1.0648e+004   6.3274e+006    0.1004   -0.0000    0.0000    0.0000    0.0550
                0.2597   1.5842e-003  -2.0642e-004   1.8279e-003   3.0415e+007  -9.3700e+003   7.2201e+006    0.0903   -0.0000    0.0000    0.0000    0.0628
                0.2822   1.4327e-003  -1.8668e-004   2.0190e-003   2.7508e+007  -8.2774e+003   7.9750e+006    0.0816   -0.0000    0.0000    0.0000    0.0693
                0.3037   1.2927e-003  -1.6843e-004   2.1800e-003   2.4820e+007  -7.2700e+003   8.6109e+006    0.0736   -0.0000    0.0000    0.0000    0.0749
                0.3241   1.1654e-003  -1.5182e-004   2.3145e-003   2.2374e+007  -6.3486e+003   9.1421e+006    0.0664   -0.0000    0.0000    0.0000    0.0795
                0.3432   1.0717e-003  -1.3961e-004   2.4261e-003   2.0575e+007  -5.6702e+003   9.5830e+006    0.0611   -0.0000    0.0000    0.0000    0.0833
                0.3611   9.8386e-004  -1.2816e-004   2.5194e-003   1.8890e+007  -5.0363e+003   9.9516e+006    0.0561   -0.0000    0.0000    0.0000    0.0865
                0.3776   9.2057e-004  -1.1991e-004   2.5973e-003   1.7674e+007  -4.5758e+003   1.0260e+007    0.0524   -0.0000    0.0000    0.0000    0.0892
                0.3927   8.7758e-004  -1.1430e-004   2.6630e-003   1.6849e+007  -4.2647e+003   1.0519e+007    0.0500   -0.0000    0.0000    0.0000    0.0915
                0.4064   8.3877e-004  -1.0924e-004   2.7190e-003   1.6104e+007  -3.9824e+003   1.0740e+007    0.0478   -0.0000    0.0000    0.0000    0.0934
                0.4186   8.3083e-004  -1.0821e-004   2.7669e-003   1.5951e+007  -3.9230e+003   1.0929e+007    0.0473   -0.0000    0.0000    0.0000    0.0950
                0.4292   8.2664e-004  -1.0766e-004   2.8082e-003   1.5871e+007  -3.8927e+003   1.1092e+007    0.0471   -0.0000    0.0000    0.0000    0.0965
                0.4383   8.2929e-004  -1.0801e-004   2.8437e-003   1.5922e+007  -3.9130e+003   1.1232e+007    0.0472   -0.0000    0.0000    0.0000    0.0977
                0.4459   8.4727e-004  -1.1035e-004   2.8736e-003   1.6267e+007  -4.0454e+003   1.1351e+007    0.0483   -0.0000    0.0000    0.0000    0.0987
                0.4518   8.6121e-004  -1.1217e-004   2.8976e-003   1.6535e+007  -4.1495e+003   1.1445e+007    0.0491   -0.0000    0.0000    0.0000    0.0995
                0.4561   8.7952e-004  -1.1456e-004   2.9158e-003   1.6886e+007  -4.2929e+003   1.1518e+007    0.0501   -0.0000    0.0000    0.0000    0.1002
                0.4587   8.9434e-004  -1.1649e-004   2.9271e-003   1.7171e+007  -4.4074e+003   1.1562e+007    0.0510   -0.0000    0.0000    0.0000    0.1005
                0.4596   8.9952e-004  -1.1717e-004   2.9309e-003   1.7270e+007  -4.4446e+003   1.1577e+007    0.0512   -0.0000    0.0000    0.0000    0.1007

               lamina:  2     
              matName:  (TEP-core)
                     s           e11           e22           e12           s11           s22           s12   s11_fcT   s11_fcC   s22_fcT   s22_fcC   s12_fcS
                   (m)         (m/m)         (m/m)         (rad)          (Pa)          (Pa)          (Pa)       (-)       (-)       (-)       (-)       (-)
                0.0000   3.1989e-003  -4.1702e-004   2.2178e-003   7.2143e+005   1.5050e+005   2.1734e+005    0.1682   -0.0000    0.0351   -0.0000    0.0737
                0.0001   3.1993e-003  -4.1707e-004   2.2153e-003   7.2151e+005   1.5052e+005   2.1710e+005    0.1682   -0.0000    0.0351   -0.0000    0.0736
                0.0272   3.0390e-003  -3.9618e-004   1.6467e-003   6.8538e+005   1.4298e+005   1.6138e+005    0.1598   -0.0000    0.0333   -0.0000    0.0547
                0.0542   2.8790e-003  -3.7531e-004   1.1082e-003   6.4928e+005   1.3545e+005   1.0860e+005    0.1513   -0.0000    0.0316   -0.0000    0.0368
                0.0812   2.6934e-003  -3.5111e-004   6.0083e-004   6.0742e+005   1.2672e+005   5.8881e+004    0.1416   -0.0000    0.0295   -0.0000    0.0200
                0.1081   2.4970e-003  -3.2551e-004   1.3019e-004   5.6314e+005   1.1748e+005   1.2759e+004    0.1313   -0.0000    0.0274   -0.0000    0.0043
                0.1347   2.3022e-003  -3.0012e-004   2.9974e-004   5.1921e+005   1.0831e+005   2.9375e+004    0.1210   -0.0000    0.0252   -0.0000    0.0100
                0.1610   2.0963e-003  -2.7328e-004   6.8867e-004   4.7278e+005   9.8628e+004   6.7490e+004    0.1102   -0.0000    0.0230   -0.0000    0.0229
                0.1867   1.8945e-003  -2.4697e-004   1.0347e-003   4.2726e+005   8.9133e+004   1.0140e+005    0.0996   -0.0000    0.0208   -0.0000    0.0344
                0.2118   1.7006e-003  -2.2169e-004   1.3384e-003   3.8354e+005   8.0011e+004   1.3117e+005    0.0894   -0.0000    0.0187   -0.0000    0.0445
                0.2362   1.5165e-003  -1.9769e-004   1.6019e-003   3.4201e+005   7.1349e+004   1.5698e+005    0.0797   -0.0000    0.0166   -0.0000    0.0532
                0.2597   1.3385e-003  -1.7449e-004   1.8279e-003   3.0187e+005   6.2975e+004   1.7913e+005    0.0704   -0.0000    0.0147   -0.0000    0.0607
                0.2822   1.1864e-003  -1.5465e-004   2.0190e-003   2.6756e+005   5.5818e+004   1.9786e+005    0.0624   -0.0000    0.0130   -0.0000    0.0671
                0.3037   1.0461e-003  -1.3636e-004   2.1800e-003   2.3592e+005   4.9218e+004   2.1364e+005    0.0550   -0.0000    0.0115   -0.0000    0.0724
                0.3241   9.1784e-004  -1.1964e-004   2.3145e-003   2.0700e+005   4.3184e+004   2.2682e+005    0.0483   -0.0000    0.0101   -0.0000    0.0769
                0.3432   8.2343e-004  -1.0733e-004   2.4261e-003   1.8570e+005   3.8742e+004   2.3775e+005    0.0433   -0.0000    0.0090   -0.0000    0.0806
                0.3611   7.3518e-004  -9.5830e-005   2.5194e-003   1.6580e+005   3.4591e+004   2.4690e+005    0.0386   -0.0000    0.0081   -0.0000    0.0837
                0.3776   6.7113e-004  -8.7480e-005   2.5973e-003   1.5136e+005   3.1577e+004   2.5454e+005    0.0353   -0.0000    0.0074   -0.0000    0.0863
                0.3927   6.2783e-004  -8.1835e-005   2.6630e-003   1.4159e+005   2.9540e+004   2.6098e+005    0.0330   -0.0000    0.0069   -0.0000    0.0885
                0.4064   5.8856e-004  -7.6716e-005   2.7190e-003   1.3274e+005   2.7693e+004   2.6646e+005    0.0309   -0.0000    0.0065   -0.0000    0.0903
                0.4186   5.8033e-004  -7.5643e-005   2.7669e-003   1.3088e+005   2.7306e+004   2.7115e+005    0.0305   -0.0000    0.0064   -0.0000    0.0919
                0.4292   5.7612e-004  -7.5093e-005   2.8082e-003   1.2993e+005   2.7107e+004   2.7520e+005    0.0303   -0.0000    0.0063   -0.0000    0.0933
                0.4383   5.7892e-004  -7.5459e-005   2.8437e-003   1.3056e+005   2.7239e+004   2.7868e+005    0.0304   -0.0000    0.0063   -0.0000    0.0945
                0.4459   5.9731e-004  -7.7857e-005   2.8736e-003   1.3471e+005   2.8105e+004   2.8161e+005    0.0314   -0.0000    0.0066   -0.0000    0.0955
                0.4518   6.1174e-004  -7.9738e-005   2.8976e-003   1.3796e+005   2.8783e+004   2.8396e+005    0.0322   -0.0000    0.0067   -0.0000    0.0963
                0.4561   6.3153e-004  -8.2317e-005   2.9158e-003   1.4243e+005   2.9714e+004   2.8575e+005    0.0332   -0.0000    0.0069   -0.0000    0.0969
                0.4587   6.4734e-004  -8.4379e-005   2.9271e-003   1.4599e+005   3.0458e+004   2.8686e+005    0.0340   -0.0000    0.0071   -0.0000    0.0972
                0.4596   6.5253e-004  -8.5055e-005   2.9309e-003   1.4716e+005   3.0702e+004   2.8722e+005    0.0343   -0.0000    0.0072   -0.0000    0.0974

               lamina:  3     
              matName:  (blade-shell)
                     s           e11           e22           e12           s11           s22           s12   s11_fcT   s11_fcC   s22_fcT   s22_fcC   s12_fcS
                   (m)         (m/m)         (m/m)         (rad)          (Pa)          (Pa)          (Pa)       (-)       (-)       (-)       (-)       (-)
                0.0000   3.1230e-003  -4.0715e-004   2.2178e-003   5.9958e+007  -2.2685e+004   8.7602e+006    0.1779   -0.0000    0.0000    0.0001    0.0762
                0.0001   3.1238e-003  -4.0726e-004   2.2153e-003   5.9974e+007  -2.2690e+004   8.7504e+006    0.1780   -0.0000    0.0000    0.0001    0.0761
                0.0272   2.9636e-003  -3.8637e-004   1.6467e-003   5.6898e+007  -2.1540e+004   6.5047e+006    0.1688   -0.0000    0.0000    0.0001    0.0566
                0.0542   2.8037e-003  -3.6553e-004   1.1082e-003   5.3828e+007  -2.0391e+004   4.3773e+006    0.1597   -0.0000    0.0000    0.0001    0.0381
                0.0812   2.6184e-003  -3.4136e-004   6.0083e-004   5.0270e+007  -1.9060e+004   2.3733e+006    0.1492   -0.0000    0.0000    0.0001    0.0206
                0.1081   2.4221e-003  -3.1578e-004   1.3019e-004   4.6502e+007  -1.7651e+004   5.1425e+005    0.1380   -0.0000    0.0000    0.0001    0.0045
                0.1347   2.2274e-003  -2.9040e-004   2.9974e-004   4.2764e+007  -1.6253e+004   1.1840e+006    0.1269   -0.0000    0.0000    0.0000    0.0103
                0.1610   2.0217e-003  -2.6357e-004   6.8867e-004   3.8814e+007  -1.4776e+004   2.7202e+006    0.1152   -0.0000    0.0000    0.0000    0.0237
                0.1867   1.8198e-003  -2.3726e-004   1.0347e-003   3.4939e+007  -1.3327e+004   4.0869e+006    0.1037   -0.0000    0.0000    0.0000    0.0355
                0.2118   1.6259e-003  -2.1197e-004   1.3384e-003   3.1215e+007  -1.1935e+004   5.2868e+006    0.0926   -0.0000    0.0000    0.0000    0.0460
                0.2362   1.4417e-003  -1.8797e-004   1.6019e-003   2.7679e+007  -1.0613e+004   6.3274e+006    0.0821   -0.0000    0.0000    0.0000    0.0550
                0.2597   1.2635e-003  -1.6474e-004   1.8279e-003   2.4259e+007  -9.3349e+003   7.2201e+006    0.0720   -0.0000    0.0000    0.0000    0.0628
                0.2822   1.1112e-003  -1.4488e-004   2.0190e-003   2.1334e+007  -8.2421e+003   7.9750e+006    0.0633   -0.0000    0.0000    0.0000    0.0693
                0.3037   9.7083e-004  -1.2658e-004   2.1800e-003   1.8639e+007  -7.2347e+003   8.6109e+006    0.0553   -0.0000    0.0000    0.0000    0.0749
                0.3241   8.4231e-004  -1.0982e-004   2.3145e-003   1.6171e+007  -6.3132e+003   9.1421e+006    0.0480   -0.0000    0.0000    0.0000    0.0795
                0.3432   7.4768e-004  -9.7487e-005   2.4261e-003   1.4355e+007  -5.6347e+003   9.5830e+006    0.0426   -0.0000    0.0000    0.0000    0.0833
                0.3611   6.5930e-004  -8.5965e-005   2.5194e-003   1.2658e+007  -5.0007e+003   9.9516e+006    0.0376   -0.0000    0.0000    0.0000    0.0865
                0.3776   5.9501e-004  -7.7584e-005   2.5973e-003   1.1424e+007  -4.5401e+003   1.0260e+007    0.0339   -0.0000    0.0000    0.0000    0.0892
                0.3927   5.5162e-004  -7.1927e-005   2.6630e-003   1.0591e+007  -4.2289e+003   1.0519e+007    0.0314   -0.0000    0.0000    0.0000    0.0915
                0.4064   5.1221e-004  -6.6790e-005   2.7190e-003   9.8339e+006  -3.9466e+003   1.0740e+007    0.0292   -0.0000    0.0000    0.0000    0.0934
                0.4186   5.0389e-004  -6.5705e-005   2.7669e-003   9.6742e+006  -3.8872e+003   1.0929e+007    0.0287   -0.0000    0.0000    0.0000    0.0950
                0.4292   4.9967e-004  -6.5155e-005   2.8082e-003   9.5932e+006  -3.8569e+003   1.1092e+007    0.0285   -0.0000    0.0000    0.0000    0.0965
                0.4383   5.0252e-004  -6.5526e-005   2.8437e-003   9.6479e+006  -3.8772e+003   1.1232e+007    0.0286   -0.0000    0.0000    0.0000    0.0977
                0.4459   5.2104e-004  -6.7940e-005   2.8736e-003   1.0003e+007  -4.0097e+003   1.1351e+007    0.0297   -0.0000    0.0000    0.0000    0.0987
                0.4518   5.3562e-004  -6.9841e-005   2.8976e-003   1.0283e+007  -4.1138e+003   1.1445e+007    0.0305   -0.0000    0.0000    0.0000    0.0995
                0.4561   5.5585e-004  -7.2478e-005   2.9158e-003   1.0672e+007  -4.2574e+003   1.1518e+007    0.0317   -0.0000    0.0000    0.0000    0.1002
                0.4587   5.7197e-004  -7.4580e-005   2.9271e-003   1.0981e+007  -4.3721e+003   1.1562e+007    0.0326   -0.0000    0.0000    0.0000    0.1005
                0.4596   5.7716e-004  -7.5256e-005   2.9309e-003   1.1081e+007  -4.4093e+003   1.1577e+007    0.0329   -0.0000    0.0000    0.0000    0.1007

     Web:  panel  nNode   nLam     xc_St    xc_End         b         t         E_eff         G_eff      nu_eff     density  buckleCrit
            (-)    (-)    (-)       (-)       (-)       (m)       (m)          (Pa)          (Pa)         (-)    (kg/m^3)         (-)
              1     10      3    0.2314    0.2314    0.1799    0.0121   6.5707e+009   1.3870e+009      0.1347    691.8994      0.0084
              2     10      3    0.4686    0.4686    0.1717    0.0121   6.5707e+009   1.3870e+009      0.1347    691.8994      0.0088

            panel:  1     
           lam_num    nPlies        tPly      fibAng     matID  matName
               (-)       (-)         (m)       (deg)       (-)  (-)
                 1         1    0.002023      0.0000         7  (web-shell)
                 2         1    0.008047      0.0000         8  (web-core)
                 3         1    0.002023      0.0000         7  (web-shell)

               lamina:  1     
              matName:  (web-shell)
                     s           e11           e22           e12           s11           s22           s12   s11_fcT   s11_fcC   s22_fcT   s22_fcC   s12_fcS
                   (m)         (m/m)         (m/m)         (rad)          (Pa)          (Pa)          (Pa)       (-)       (-)       (-)       (-)       (-)
                0.0000  -3.3525e-003   4.5154e-004   7.4968e-003  -6.4327e+007   3.0709e+005   2.9612e+007    0.0000    0.1294    0.0009   -0.0000    0.2575
                0.0200  -2.6208e-003   3.5300e-004   7.8965e-003  -5.0288e+007   2.4013e+005   3.1191e+007    0.0000    0.1012    0.0007   -0.0000    0.2712
                0.0400  -1.8891e-003   2.5445e-004   8.1988e-003  -3.6248e+007   1.7316e+005   3.2385e+007    0.0000    0.0729    0.0005   -0.0000    0.2816
                0.0600  -1.1574e-003   1.5590e-004   8.4037e-003  -2.2209e+007   1.0620e+005   3.3195e+007    0.0000    0.0447    0.0003   -0.0000    0.2886
                0.0800  -4.2575e-004   5.7357e-005   8.5112e-003  -8.1694e+006   3.9230e+004   3.3619e+007    0.0000    0.0164    0.0001   -0.0000    0.2923
                0.1000   3.0777e-004  -4.1432e-005   8.5214e-003   5.9055e+006  -2.7771e+004   3.3659e+007    0.0175   -0.0000    0.0000    0.0001    0.2927
                0.1200   1.0394e-003  -1.3998e-004   8.4341e-003   1.9945e+007  -9.4737e+004   3.3315e+007    0.0592   -0.0000    0.0000    0.0003    0.2897
                0.1400   1.7711e-003  -2.3853e-004   8.2495e-003   3.3985e+007  -1.6170e+005   3.2586e+007    0.1008   -0.0000    0.0000    0.0005    0.2834
                0.1600   2.5028e-003  -3.3707e-004   7.9675e-003   4.8024e+007  -2.2867e+005   3.1472e+007    0.1425   -0.0000    0.0000    0.0007    0.2737
                0.1799   3.2345e-003  -4.3562e-004   7.5881e-003   6.2063e+007  -2.9563e+005   2.9973e+007    0.1842   -0.0000    0.0000    0.0009    0.2606

               lamina:  2     
              matName:  (web-core)
                     s           e11           e22           e12           s11           s22           s12   s11_fcT   s11_fcC   s22_fcT   s22_fcC   s12_fcS
                   (m)         (m/m)         (m/m)         (rad)          (Pa)          (Pa)          (Pa)       (-)       (-)       (-)       (-)       (-)
                0.0000  -3.3598e-003   4.5251e-004   7.4968e-003  -7.5659e+005  -1.5465e+005   7.3469e+005    0.0000    0.1764    0.0000    0.0360    0.2490
                0.0200  -2.6281e-003   3.5396e-004   7.8965e-003  -5.9183e+005  -1.2097e+005   7.7386e+005    0.0000    0.1380    0.0000    0.0282    0.2623
                0.0400  -1.8964e-003   2.5541e-004   8.1988e-003  -4.2706e+005  -8.7294e+004   8.0348e+005    0.0000    0.0995    0.0000    0.0203    0.2724
                0.0600  -1.1648e-003   1.5686e-004   8.4037e-003  -2.6229e+005  -5.3616e+004   8.2356e+005    0.0000    0.0611    0.0000    0.0125    0.2792
                0.0800  -4.3309e-004   5.8318e-005   8.5112e-003  -9.7529e+004  -1.9938e+004   8.3410e+005    0.0000    0.0227    0.0000    0.0046    0.2827
                0.1000   3.0592e-004  -4.1190e-005   8.5214e-003   6.8892e+004   1.4084e+004   8.3509e+005    0.0161   -0.0000    0.0033   -0.0000    0.2831
                0.1200   1.0376e-003  -1.3974e-004   8.4341e-003   2.3366e+005   4.7762e+004   8.2654e+005    0.0545   -0.0000    0.0111   -0.0000    0.2802
                0.1400   1.7693e-003  -2.3828e-004   8.2495e-003   3.9842e+005   8.1440e+004   8.0845e+005    0.0929   -0.0000    0.0190   -0.0000    0.2741
                0.1600   2.5010e-003  -3.3683e-004   7.9675e-003   5.6319e+005   1.1512e+005   7.8081e+005    0.1313   -0.0000    0.0268   -0.0000    0.2647
                0.1799   3.2326e-003  -4.3538e-004   7.5881e-003   7.2795e+005   1.4880e+005   7.4363e+005    0.1697   -0.0000    0.0347   -0.0000    0.2521

               lamina:  3     
              matName:  (web-shell)
                     s           e11           e22           e12           s11           s22           s12   s11_fcT   s11_fcC   s22_fcT   s22_fcC   s12_fcS
                   (m)         (m/m)         (m/m)         (rad)          (Pa)          (Pa)          (Pa)       (-)       (-)       (-)       (-)       (-)
                0.0000  -3.3616e-003   4.5275e-004   7.4968e-003  -6.4504e+007   3.0727e+005   2.9612e+007    0.0000    0.1298    0.0009   -0.0000    0.2575
                0.0200  -2.6300e-003   3.5420e-004   7.8965e-003  -5.0464e+007   2.4031e+005   3.1191e+007    0.0000    0.1015    0.0007   -0.0000    0.2712
                0.0400  -1.8983e-003   2.5565e-004   8.1988e-003  -3.6425e+007   1.7334e+005   3.2385e+007    0.0000    0.0733    0.0005   -0.0000    0.2816
                0.0600  -1.1666e-003   1.5711e-004   8.4037e-003  -2.2385e+007   1.0638e+005   3.3195e+007    0.0000    0.0450    0.0003   -0.0000    0.2886
                0.0800  -4.3494e-004   5.8560e-005   8.5112e-003  -8.3457e+006   3.9410e+004   3.3619e+007    0.0000    0.0168    0.0001   -0.0000    0.2923
                0.1000   2.9858e-004  -4.0229e-005   8.5214e-003   5.7292e+006  -2.7591e+004   3.3659e+007    0.0170   -0.0000    0.0000    0.0001    0.2927
                0.1200   1.0303e-003  -1.3878e-004   8.4341e-003   1.9769e+007  -9.4557e+004   3.3315e+007    0.0587   -0.0000    0.0000    0.0003    0.2897
                0.1400   1.7619e-003  -2.3732e-004   8.2495e-003   3.3808e+007  -1.6152e+005   3.2586e+007    0.1003   -0.0000    0.0000    0.0005    0.2834
                0.1600   2.4936e-003  -3.3587e-004   7.9675e-003   4.7848e+007  -2.2849e+005   3.1472e+007    0.1420   -0.0000    0.0000    0.0007    0.2737
                0.1799   3.2253e-003  -4.3442e-004   7.5881e-003   6.1887e+007  -2.9545e+005   2.9973e+007    0.1836   -0.0000    0.0000    0.0009    0.2606

            panel:  2     
           lam_num    nPlies        tPly      fibAng     matID  matName
               (-)       (-)         (m)       (deg)       (-)  (-)
                 1         1    0.002023      0.0000         7  (web-shell)
                 2         1    0.008047      0.0000         8  (web-core)
                 3         1    0.002023      0.0000         7  (web-shell)

               lamina:  1     
              matName:  (web-shell)
                     s           e11           e22           e12           s11           s22           s12   s11_fcT   s11_fcC   s22_fcT   s22_fcC   s12_fcS
                   (m)         (m/m)         (m/m)         (rad)          (Pa)          (Pa)          (Pa)       (-)       (-)       (-)       (-)       (-)
                0.0000  -3.2518e-003   4.3798e-004   8.7486e-003  -6.2395e+007   2.9786e+005   3.4557e+007    0.0000    0.1255    0.0009   -0.0000    0.3005
                0.0191  -2.5537e-003   3.4396e-004   9.1175e-003  -4.9000e+007   2.3397e+005   3.6014e+007    0.0000    0.0986    0.0007   -0.0000    0.3132
                0.0382  -1.8556e-003   2.4993e-004   9.3977e-003  -3.5604e+007   1.7007e+005   3.7121e+007    0.0000    0.0716    0.0005   -0.0000    0.3228
                0.0572  -1.1574e-003   1.5590e-004   9.5893e-003  -2.2209e+007   1.0618e+005   3.7878e+007    0.0000    0.0447    0.0003   -0.0000    0.3294
                0.0763  -4.5933e-004   6.1878e-005   9.6922e-003  -8.8136e+006   4.2284e+004   3.8284e+007    0.0000    0.0177    0.0001   -0.0000    0.3329
                0.0954   2.4050e-004  -3.2373e-005   9.7065e-003   4.6148e+006  -2.1643e+004   3.8341e+007    0.0137   -0.0000    0.0000    0.0001    0.3334
                0.1145   9.3861e-004  -1.2640e-004   9.6321e-003   1.8010e+007  -8.5537e+004   3.8047e+007    0.0534   -0.0000    0.0000    0.0003    0.3308
                0.1335   1.6367e-003  -2.2043e-004   9.4691e-003   3.1406e+007  -1.4943e+005   3.7403e+007    0.0932   -0.0000    0.0000    0.0004    0.3252
                0.1526   2.3348e-003  -3.1445e-004   9.2174e-003   4.4801e+007  -2.1332e+005   3.6409e+007    0.1329   -0.0000    0.0000    0.0006    0.3166
                0.1717   3.0330e-003  -4.0848e-004   8.8770e-003   5.8197e+007  -2.7722e+005   3.5064e+007    0.1727   -0.0000    0.0000    0.0008    0.3049

               lamina:  2     
              matName:  (web-core)
                     s           e11           e22           e12           s11           s22           s12   s11_fcT   s11_fcC   s22_fcT   s22_fcC   s12_fcS
                   (m)         (m/m)         (m/m)         (rad)          (Pa)          (Pa)          (Pa)       (-)       (-)       (-)       (-)       (-)
                0.0000  -3.2586e-003   4.3887e-004   8.7486e-003  -7.3380e+005  -1.4999e+005   8.5736e+005    0.0000    0.1710    0.0000    0.0350    0.2906
                0.0191  -2.5605e-003   3.4485e-004   9.1175e-003  -5.7659e+005  -1.1786e+005   8.9351e+005    0.0000    0.1344    0.0000    0.0275    0.3029
                0.0382  -1.8624e-003   2.5082e-004   9.3977e-003  -4.1939e+005  -8.5725e+004   9.2098e+005    0.0000    0.0978    0.0000    0.0200    0.3122
                0.0572  -1.1643e-003   1.5680e-004   9.5893e-003  -2.6218e+005  -5.3592e+004   9.3975e+005    0.0000    0.0611    0.0000    0.0125    0.3186
                0.0763  -4.6614e-004   6.2770e-005   9.6922e-003  -1.0497e+005  -2.1459e+004   9.4984e+005    0.0000    0.0245    0.0000    0.0050    0.3220
                0.0954   2.3879e-004  -3.2149e-005   9.7065e-003   5.3773e+004   1.0994e+004   9.5124e+005    0.0125   -0.0000    0.0026   -0.0000    0.3225
                0.1145   9.3690e-004  -1.2617e-004   9.6321e-003   2.1098e+005   4.3127e+004   9.4395e+005    0.0492   -0.0000    0.0101   -0.0000    0.3200
                0.1335   1.6350e-003  -2.2020e-004   9.4691e-003   3.6819e+005   7.5260e+004   9.2797e+005    0.0858   -0.0000    0.0175   -0.0000    0.3146
                0.1526   2.3331e-003  -3.1423e-004   9.2174e-003   5.2540e+005   1.0739e+005   9.0330e+005    0.1225   -0.0000    0.0250   -0.0000    0.3062
                0.1717   3.0312e-003  -4.0825e-004   8.8770e-003   6.8260e+005   1.3953e+005   8.6995e+005    0.1591   -0.0000    0.0325   -0.0000    0.2949

               lamina:  3     
              matName:  (web-shell)
                     s           e11           e22           e12           s11           s22           s12   s11_fcT   s11_fcC   s22_fcT   s22_fcC   s12_fcS
                   (m)         (m/m)         (m/m)         (rad)          (Pa)          (Pa)          (Pa)       (-)       (-)       (-)       (-)       (-)
                0.0000  -3.2603e-003   4.3910e-004   8.7486e-003  -6.2559e+007   2.9803e+005   3.4557e+007    0.0000    0.1259    0.0009   -0.0000    0.3005
                0.0191  -2.5622e-003   3.4507e-004   9.1175e-003  -4.9164e+007   2.3413e+005   3.6014e+007    0.0000    0.0989    0.0007   -0.0000    0.3132
                0.0382  -1.8641e-003   2.5105e-004   9.3977e-003  -3.5768e+007   1.7024e+005   3.7121e+007    0.0000    0.0720    0.0005   -0.0000    0.3228
                0.0572  -1.1660e-003   1.5702e-004   9.5893e-003  -2.2373e+007   1.0634e+005   3.7878e+007    0.0000    0.0450    0.0003   -0.0000    0.3294
                0.0763  -4.6785e-004   6.2994e-005   9.6922e-003  -8.9772e+006   4.2451e+004   3.8284e+007    0.0000    0.0181    0.0001   -0.0000    0.3329
                0.0954   2.3197e-004  -3.1256e-005   9.7065e-003   4.4511e+006  -2.1476e+004   3.8341e+007    0.0132   -0.0000    0.0000    0.0001    0.3334
                0.1145   9.3009e-004  -1.2528e-004   9.6321e-003   1.7847e+007  -8.5370e+004   3.8047e+007    0.0530   -0.0000    0.0000    0.0003    0.3308
                0.1335   1.6282e-003  -2.1931e-004   9.4691e-003   3.1242e+007  -1.4926e+005   3.7403e+007    0.0927   -0.0000    0.0000    0.0004    0.3252
                0.1526   2.3263e-003  -3.1334e-004   9.2174e-003   4.4638e+007  -2.1316e+005   3.6409e+007    0.1325   -0.0000    0.0000    0.0006    0.3166
                0.1717   3.0244e-003  -4.0736e-004   8.8770e-003   5.8033e+007  -2.7705e+005   3.5064e+007    0.1722   -0.0000    0.0000    0.0008    0.3049

================================================================================
sec        =  27     
zSec       =  7.8030  (m)
nPanelsTop =  3      
nPanelsBot =  3      
nWebs      =  2      

    Top:  panel  nNode   nLam     xc_St    xc_End         b         t         E_eff         G_eff      nu_eff     density  buckleCrit
            (-)    (-)    (-)       (-)       (-)       (m)       (m)          (Pa)          (Pa)         (-)    (kg/m^3)         (-)
              1     17      3    0.0000    0.2300    0.2163    0.0050   1.8620e+010   3.8323e+009      0.1301   1625.0986      0.1455
              2     11      5    0.2300    0.4700    0.1917    0.0059   3.6665e+010   4.0481e+009      0.1444   1624.4851      0.4009
              3     27      3    0.4700    1.0000    0.4363    0.0055   1.7094e+010   3.5226e+009      0.1303   1506.8929      0.6015

            panel:  1     
           lam_num    nPlies        tPly      fibAng     matID  matName
               (-)       (-)         (m)       (deg)       (-)  (-)
                 1         1    0.002433      0.0000         2  (blade-shell)
                 2         1    0.000153      0.0000         5  (LEP-core)
                 3         1    0.002433      0.0000         2  (blade-shell)

               lamina:  1     
              matName:  (blade-shell)
                     s           e11           e22           e12           s11           s22           s12   s11_fcT   s11_fcC   s22_fcT   s22_fcC   s12_fcS
                   (m)         (m/m)         (m/m)         (rad)          (Pa)          (Pa)          (Pa)       (-)       (-)       (-)       (-)       (-)
                0.0000   2.4428e-004  -3.1776e-005   4.1009e-003   4.6902e+006  -3.6603e+002   1.6198e+007    0.0139   -0.0000    0.0000    0.0000    0.1409
                0.0025   1.6841e-004  -2.1906e-005   4.1050e-003   3.2334e+006  -2.5340e+002   1.6215e+007    0.0096   -0.0000    0.0000    0.0000    0.1410
                0.0100  -1.3964e-004   1.8157e-005   4.1076e-003  -2.6810e+006   7.7987e+001   1.6225e+007    0.0000    0.0054    0.0000   -0.0000    0.1411
                0.0192  -4.4391e-004   5.7733e-005   4.0913e-003  -8.5231e+006   4.7427e+002   1.6161e+007    0.0000    0.0171    0.0000   -0.0000    0.1405
                0.0272  -6.6038e-004   8.5888e-005   4.0619e-003  -1.2679e+007   7.5155e+002   1.6044e+007    0.0000    0.0255    0.0000   -0.0000    0.1395
                0.0377  -9.2109e-004   1.1980e-004   4.0035e-003  -1.7685e+007   1.1187e+003   1.5814e+007    0.0000    0.0356    0.0000   -0.0000    0.1375
                0.0485  -1.1534e-003   1.5001e-004   3.9218e-003  -2.2145e+007   1.4388e+003   1.5491e+007    0.0000    0.0446    0.0000   -0.0000    0.1347
                0.0607  -1.3840e-003   1.8001e-004   3.8057e-003  -2.6573e+007   1.7733e+003   1.5033e+007    0.0000    0.0535    0.0000   -0.0000    0.1307
                0.0745  -1.6413e-003   2.1347e-004   3.6478e-003  -3.1512e+007   2.1394e+003   1.4409e+007    0.0000    0.0634    0.0000   -0.0000    0.1253
                0.0886  -1.8427e-003   2.3968e-004   3.4593e-003  -3.5380e+007   2.4263e+003   1.3664e+007    0.0000    0.0712    0.0000   -0.0000    0.1188
                0.1043  -2.0612e-003   2.6809e-004   3.2219e-003  -3.9574e+007   2.7463e+003   1.2726e+007    0.0000    0.0796    0.0000   -0.0000    0.1107
                0.1209  -2.2660e-003   2.9473e-004   2.9416e-003  -4.3506e+007   3.0422e+003   1.1619e+007    0.0000    0.0875    0.0000   -0.0000    0.1010
                0.1384  -2.4446e-003   3.1797e-004   2.6172e-003  -4.6936e+007   3.3037e+003   1.0338e+007    0.0000    0.0944    0.0000   -0.0000    0.0899
                0.1571  -2.6360e-003   3.4286e-004   2.2416e-003  -5.0610e+007   3.5831e+003   8.8545e+006    0.0000    0.1018    0.0000   -0.0000    0.0770
                0.1764  -2.7796e-003   3.6155e-004   1.8271e-003  -5.3369e+007   3.7919e+003   7.2171e+006    0.0000    0.1074    0.0000   -0.0000    0.0628
                0.1968  -2.9181e-003   3.7956e-004   1.3661e-003  -5.6028e+007   3.9961e+003   5.3960e+006    0.0000    0.1127    0.0000   -0.0000    0.0469
                0.2163  -3.0377e-003   3.9512e-004   9.0252e-004  -5.8324e+007   4.1729e+003   3.5650e+006    0.0000    0.1174    0.0000   -0.0000    0.0310

               lamina:  2     
              matName:  (LEP-core)
                     s           e11           e22           e12           s11           s22           s12   s11_fcT   s11_fcC   s22_fcT   s22_fcC   s12_fcS
                   (m)         (m/m)         (m/m)         (rad)          (Pa)          (Pa)          (Pa)       (-)       (-)       (-)       (-)       (-)
                0.0000   2.4887e-004  -3.2372e-005   4.1009e-003   5.6132e+004   1.1725e+004   4.0188e+005    0.0131   -0.0000    0.0027   -0.0000    0.1362
                0.0025   1.7300e-004  -2.2503e-005   4.1050e-003   3.9019e+004   8.1508e+003   4.0229e+005    0.0091   -0.0000    0.0019   -0.0000    0.1364
                0.0100  -5.5119e-005   7.1695e-006   4.1076e-003  -1.2432e+004  -2.5970e+003   4.0255e+005    0.0000    0.0029    0.0000    0.0006    0.1365
                0.0192  -3.2318e-004   4.2038e-005   4.0913e-003  -7.2892e+004  -1.5227e+004   4.0095e+005    0.0000    0.0170    0.0000    0.0035    0.1359
                0.0272  -5.1084e-004   6.6448e-005   4.0619e-003  -1.1522e+005  -2.4068e+004   3.9806e+005    0.0000    0.0269    0.0000    0.0056    0.1349
                0.0377  -7.5856e-004   9.8669e-005   4.0035e-003  -1.7109e+005  -3.5739e+004   3.9234e+005    0.0000    0.0399    0.0000    0.0083    0.1330
                0.0485  -9.7469e-004   1.2678e-004   3.9218e-003  -2.1984e+005  -4.5923e+004   3.8433e+005    0.0000    0.0512    0.0000    0.0107    0.1303
                0.0607  -1.2002e-003   1.5612e-004   3.8057e-003  -2.7070e+005  -5.6547e+004   3.7296e+005    0.0000    0.0631    0.0000    0.0132    0.1264
                0.0745  -1.4471e-003   1.8824e-004   3.6478e-003  -3.2640e+005  -6.8182e+004   3.5749e+005    0.0000    0.0761    0.0000    0.0159    0.1212
                0.0886  -1.6407e-003   2.1341e-004   3.4593e-003  -3.7005e+005  -7.7300e+004   3.3901e+005    0.0000    0.0863    0.0000    0.0180    0.1149
                0.1043  -1.8563e-003   2.4145e-004   3.2219e-003  -4.1867e+005  -8.7457e+004   3.1575e+005    0.0000    0.0976    0.0000    0.0204    0.1070
                0.1209  -2.0558e-003   2.6741e-004   2.9416e-003  -4.6368e+005  -9.6859e+004   2.8827e+005    0.0000    0.1081    0.0000    0.0226    0.0977
                0.1384  -2.2320e-003   2.9033e-004   2.6172e-003  -5.0343e+005  -1.0516e+005   2.5648e+005    0.0000    0.1173    0.0000    0.0245    0.0869
                0.1571  -2.4203e-003   3.1482e-004   2.2416e-003  -5.4590e+005  -1.1403e+005   2.1968e+005    0.0000    0.1272    0.0000    0.0266    0.0745
                0.1764  -2.5610e-003   3.3313e-004   1.8271e-003  -5.7764e+005  -1.2066e+005   1.7906e+005    0.0000    0.1346    0.0000    0.0281    0.0607
                0.1968  -2.6986e-003   3.5103e-004   1.3661e-003  -6.0867e+005  -1.2715e+005   1.3388e+005    0.0000    0.1419    0.0000    0.0296    0.0454
                0.2163  -2.8178e-003   3.6652e-004   9.0252e-004  -6.3554e+005  -1.3276e+005   8.8447e+004    0.0000    0.1481    0.0000    0.0309    0.0300

               lamina:  3     
              matName:  (blade-shell)
                     s           e11           e22           e12           s11           s22           s12   s11_fcT   s11_fcC   s22_fcT   s22_fcC   s12_fcS
                   (m)         (m/m)         (m/m)         (rad)          (Pa)          (Pa)          (Pa)       (-)       (-)       (-)       (-)       (-)
                0.0000   3.2166e-004  -4.1834e-005   4.1009e-003   6.1758e+006  -3.6614e+002   1.6198e+007    0.0183   -0.0000    0.0000    0.0000    0.1409
                0.0025   2.4578e-004  -3.1965e-005   4.1050e-003   4.7190e+006  -2.5351e+002   1.6215e+007    0.0140   -0.0000    0.0000    0.0000    0.1410
                0.0100  -4.9794e-005   6.4772e-006   4.1076e-003  -9.5603e+005   7.7867e+001   1.6225e+007    0.0000    0.0019    0.0000   -0.0000    0.1411
                0.0192  -3.1557e-004   4.1048e-005   4.0913e-003  -6.0589e+006   4.7410e+002   1.6161e+007    0.0000    0.0122    0.0000   -0.0000    0.1405
                0.0272  -5.0142e-004   6.5223e-005   4.0619e-003  -9.6272e+006   7.5134e+002   1.6044e+007    0.0000    0.0194    0.0000   -0.0000    0.1395
                0.0377  -7.4831e-004   9.7338e-005   4.0035e-003  -1.4367e+007   1.1184e+003   1.5814e+007    0.0000    0.0289    0.0000   -0.0000    0.1375
                0.0485  -9.6343e-004   1.2532e-004   3.9218e-003  -1.8498e+007   1.4385e+003   1.5491e+007    0.0000    0.0372    0.0000   -0.0000    0.1347
                0.0607  -1.1886e-003   1.5461e-004   3.8057e-003  -2.2821e+007   1.7731e+003   1.5033e+007    0.0000    0.0459    0.0000   -0.0000    0.1307
                0.0745  -1.4349e-003   1.8665e-004   3.6478e-003  -2.7550e+007   2.1391e+003   1.4409e+007    0.0000    0.0554    0.0000   -0.0000    0.1253
                0.0886  -1.6279e-003   2.1175e-004   3.4593e-003  -3.1256e+007   2.4261e+003   1.3664e+007    0.0000    0.0629    0.0000   -0.0000    0.1188
                0.1043  -1.8433e-003   2.3978e-004   3.2219e-003  -3.5392e+007   2.7460e+003   1.2726e+007    0.0000    0.0712    0.0000   -0.0000    0.1107
                0.1209  -2.0426e-003   2.6569e-004   2.9416e-003  -3.9217e+007   3.0419e+003   1.1619e+007    0.0000    0.0789    0.0000   -0.0000    0.1010
                0.1384  -2.2186e-003   2.8859e-004   2.6172e-003  -4.2597e+007   3.3034e+003   1.0338e+007    0.0000    0.0857    0.0000   -0.0000    0.0899
                0.1571  -2.4067e-003   3.1306e-004   2.2416e-003  -4.6209e+007   3.5828e+003   8.8545e+006    0.0000    0.0930    0.0000   -0.0000    0.0770
                0.1764  -2.5473e-003   3.3134e-004   1.8271e-003  -4.8907e+007   3.7916e+003   7.2171e+006    0.0000    0.0984    0.0000   -0.0000    0.0628
                0.1968  -2.6848e-003   3.4923e-004   1.3661e-003  -5.1548e+007   3.9958e+003   5.3960e+006    0.0000    0.1037    0.0000   -0.0000    0.0469
                0.2163  -2.8039e-003   3.6472e-004   9.0252e-004  -5.3834e+007   4.1726e+003   3.5650e+006    0.0000    0.1083    0.0000   -0.0000    0.0310

            panel:  2     
           lam_num    nPlies        tPly      fibAng     matID  matName
               (-)       (-)         (m)       (deg)       (-)  (-)
                 1         1    0.002433      0.0000         2  (blade-shell)
                 2         1    0.000501      0.0000         3  (spar-uni)
                 3         1    0.000047      0.0000         4  (spar-core)
                 4         1    0.000501      0.0000         3  (spar-uni)
                 5         1    0.002433      0.0000         2  (blade-shell)

               lamina:  1     
              matName:  (blade-shell)
                     s           e11           e22           e12           s11           s22           s12   s11_fcT   s11_fcC   s22_fcT   s22_fcC   s12_fcS
                   (m)         (m/m)         (m/m)         (rad)          (Pa)          (Pa)          (Pa)       (-)       (-)       (-)       (-)       (-)
                0.0000  -3.3080e-003   4.7058e-004   5.0265e-003  -6.3410e+007   7.9189e+005   1.9855e+007    0.0000    0.1276    0.0023   -0.0000    0.1726
                0.0015  -3.3233e-003   4.7271e-004   4.9594e-003  -6.3704e+007   7.9457e+005   1.9590e+007    0.0000    0.1282    0.0024   -0.0000    0.1703
                0.0233  -3.4026e-003   4.8415e-004   3.9616e-003  -6.5223e+007   8.1680e+005   1.5648e+007    0.0000    0.1312    0.0024   -0.0000    0.1361
                0.0458  -3.4857e-003   4.9613e-004   2.9036e-003  -6.6816e+007   8.3975e+005   1.1469e+007    0.0000    0.1344    0.0025   -0.0000    0.0997
                0.0687  -3.5247e-003   5.0176e-004   1.8020e-003  -6.7564e+007   8.5033e+005   7.1179e+006    0.0000    0.1359    0.0025   -0.0000    0.0619
                0.0923  -3.5295e-003   5.0244e-004   6.6268e-004  -6.7656e+007   8.5162e+005   2.6176e+006    0.0000    0.1361    0.0025   -0.0000    0.0228
                0.1163  -3.5338e-003   5.0307e-004   4.9766e-004  -6.7738e+007   8.5296e+005   1.9658e+006    0.0000    0.1363    0.0025   -0.0000    0.0171
                0.1407  -3.4606e-003   4.9252e-004   1.6666e-003  -6.6335e+007   8.3285e+005   6.5831e+006    0.0000    0.1335    0.0025   -0.0000    0.0572
                0.1656  -3.3831e-003   4.8134e-004   2.8253e-003  -6.4850e+007   8.1124e+005   1.1160e+007    0.0000    0.1305    0.0024   -0.0000    0.0970
                0.1907  -3.2846e-003   4.6713e-004   3.9606e-003  -6.2962e+007   7.8376e+005   1.5644e+007    0.0000    0.1267    0.0023   -0.0000    0.1360
                0.1917  -3.2749e-003   4.6579e-004   4.0039e-003  -6.2777e+007   7.8215e+005   1.5815e+007    0.0000    0.1263    0.0023   -0.0000    0.1375

               lamina:  2     
              matName:  (spar-uni)
                     s           e11           e22           e12           s11           s22           s12   s11_fcT   s11_fcC   s22_fcT   s22_fcC   s12_fcS
                   (m)         (m/m)         (m/m)         (rad)          (Pa)          (Pa)          (Pa)       (-)       (-)       (-)       (-)       (-)
                0.0000  -2.8875e-003   4.1574e-004   5.0265e-003  -3.5639e+008  -3.9563e+006   2.3675e+007    0.0000    0.3564    0.0000    0.0660    0.2299
                0.0015  -2.8979e-003   4.1723e-004   4.9594e-003  -3.5767e+008  -3.9706e+006   2.3359e+007    0.0000    0.3577    0.0000    0.0663    0.2268
                0.0233  -2.9769e-003   4.2864e-004   3.9616e-003  -3.6742e+008  -4.0785e+006   1.8659e+007    0.0000    0.3674    0.0000    0.0681    0.1812
                0.0458  -3.0586e-003   4.4044e-004   2.9036e-003  -3.7751e+008  -4.1903e+006   1.3676e+007    0.0000    0.3775    0.0000    0.0700    0.1328
                0.0687  -3.0964e-003   4.4589e-004   1.8020e-003  -3.8218e+008  -4.2420e+006   8.4874e+006    0.0000    0.3822    0.0000    0.0708    0.0824
                0.0923  -3.1010e-003   4.4656e-004   6.6268e-004  -3.8274e+008  -4.2483e+006   3.1212e+006    0.0000    0.3827    0.0000    0.0709    0.0303
                0.1163  -3.1057e-003   4.4724e-004   4.9766e-004  -3.8332e+008  -4.2547e+006   2.3440e+006    0.0000    0.3833    0.0000    0.0710    0.0228
                0.1407  -3.0340e-003   4.3689e-004   1.6666e-003  -3.7447e+008  -4.1567e+006   7.8498e+006    0.0000    0.3745    0.0000    0.0694    0.0762
                0.1656  -2.9572e-003   4.2579e-004   2.8253e-003  -3.6499e+008  -4.0516e+006   1.3307e+007    0.0000    0.3650    0.0000    0.0676    0.1292
                0.1907  -2.8595e-003   4.1168e-004   3.9606e-003  -3.5293e+008  -3.9181e+006   1.8654e+007    0.0000    0.3529    0.0000    0.0654    0.1811
                0.1917  -2.8532e-003   4.1078e-004   4.0039e-003  -3.5215e+008  -3.9094e+006   1.8858e+007    0.0000    0.3522    0.0000    0.0653    0.1831

               lamina:  3     
              matName:  (spar-core)
                     s           e11           e22           e12           s11           s22           s12   s11_fcT   s11_fcC   s22_fcT   s22_fcC   s12_fcS
                   (m)         (m/m)         (m/m)         (rad)          (Pa)          (Pa)          (Pa)       (-)       (-)       (-)       (-)       (-)
                0.0000  -2.8010e-003   4.0446e-004   5.0265e-003  -6.2864e+005  -1.2251e+005   4.9260e+005    0.0000    0.1465    0.0000    0.0286    0.1670
                0.0015  -2.8104e-003   4.0581e-004   4.9594e-003  -6.3074e+005  -1.2292e+005   4.8603e+005    0.0000    0.1470    0.0000    0.0287    0.1648
                0.0233  -2.8893e-003   4.1721e-004   3.9616e-003  -6.4845e+005  -1.2638e+005   3.8823e+005    0.0000    0.1512    0.0000    0.0295    0.1316
                0.0458  -2.9708e-003   4.2898e-004   2.9036e-003  -6.6674e+005  -1.2994e+005   2.8455e+005    0.0000    0.1554    0.0000    0.0303    0.0965
                0.0687  -3.0083e-003   4.3440e-004   1.8020e-003  -6.7516e+005  -1.3158e+005   1.7660e+005    0.0000    0.1574    0.0000    0.0307    0.0599
                0.0923  -3.0129e-003   4.3506e-004   6.6268e-004  -6.7619e+005  -1.3178e+005   6.4943e+004    0.0000    0.1576    0.0000    0.0307    0.0220
                0.1163  -3.0176e-003   4.3575e-004   4.9766e-004  -6.7726e+005  -1.3199e+005   4.8771e+004    0.0000    0.1579    0.0000    0.0308    0.0165
                0.1407  -2.9463e-003   4.2544e-004   1.6666e-003  -6.6124e+005  -1.2887e+005   1.6333e+005    0.0000    0.1541    0.0000    0.0300    0.0554
                0.1656  -2.8696e-003   4.1436e-004   2.8253e-003  -6.4403e+005  -1.2551e+005   2.7688e+005    0.0000    0.1501    0.0000    0.0293    0.0939
                0.1907  -2.7720e-003   4.0027e-004   3.9606e-003  -6.2213e+005  -1.2124e+005   3.8814e+005    0.0000    0.1450    0.0000    0.0283    0.1316
                0.1917  -2.7664e-003   3.9946e-004   4.0039e-003  -6.2087e+005  -1.2100e+005   3.9238e+005    0.0000    0.1447    0.0000    0.0282    0.1330

               lamina:  4     
              matName:  (spar-uni)
                     s           e11           e22           e12           s11           s22           s12   s11_fcT   s11_fcC   s22_fcT   s22_fcC   s12_fcS
                   (m)         (m/m)         (m/m)         (rad)          (Pa)          (Pa)          (Pa)       (-)       (-)       (-)       (-)       (-)
                0.0000  -2.7929e-003   4.0340e-004   5.0265e-003  -3.4471e+008  -3.8161e+006   2.3675e+007    0.0000    0.3447    0.0000    0.0637    0.2299
                0.0015  -2.8022e-003   4.0474e-004   4.9594e-003  -3.4585e+008  -3.8287e+006   2.3359e+007    0.0000    0.3459    0.0000    0.0639    0.2268
                0.0233  -2.8811e-003   4.1614e-004   3.9616e-003  -3.5559e+008  -3.9366e+006   1.8659e+007    0.0000    0.3556    0.0000    0.0657    0.1812
                0.0458  -2.9625e-003   4.2791e-004   2.9036e-003  -3.6565e+008  -4.0479e+006   1.3676e+007    0.0000    0.3656    0.0000    0.0676    0.1328
                0.0687  -3.0000e-003   4.3332e-004   1.8020e-003  -3.7028e+008  -4.0991e+006   8.4874e+006    0.0000    0.3703    0.0000    0.0684    0.0824
                0.0923  -3.0046e-003   4.3398e-004   6.6268e-004  -3.7084e+008  -4.1054e+006   3.1212e+006    0.0000    0.3708    0.0000    0.0685    0.0303
                0.1163  -3.0094e-003   4.3467e-004   4.9766e-004  -3.7143e+008  -4.1119e+006   2.3440e+006    0.0000    0.3714    0.0000    0.0686    0.0228
                0.1407  -2.9380e-003   4.2437e-004   1.6666e-003  -3.6262e+008  -4.0144e+006   7.8498e+006    0.0000    0.3626    0.0000    0.0670    0.0762
                0.1656  -2.8614e-003   4.1329e-004   2.8253e-003  -3.5316e+008  -3.9096e+006   1.3307e+007    0.0000    0.3532    0.0000    0.0653    0.1292
                0.1907  -2.7638e-003   3.9920e-004   3.9606e-003  -3.4112e+008  -3.7763e+006   1.8654e+007    0.0000    0.3411    0.0000    0.0630    0.1811
                0.1917  -2.7582e-003   3.9840e-004   4.0039e-003  -3.4043e+008  -3.7687e+006   1.8858e+007    0.0000    0.3404    0.0000    0.0629    0.1831

               lamina:  5     
              matName:  (blade-shell)
                     s           e11           e22           e12           s11           s22           s12   s11_fcT   s11_fcC   s22_fcT   s22_fcC   s12_fcS
                   (m)         (m/m)         (m/m)         (rad)          (Pa)          (Pa)          (Pa)       (-)       (-)       (-)       (-)       (-)
                0.0000  -2.7064e-003   3.9212e-004   5.0265e-003  -5.1860e+007   7.8690e+005   1.9855e+007    0.0000    0.1043    0.0023   -0.0000    0.1726
                0.0015  -2.7146e-003   3.9333e-004   4.9594e-003  -5.2018e+007   7.8952e+005   1.9590e+007    0.0000    0.1047    0.0023   -0.0000    0.1703
                0.0233  -2.7935e-003   4.0472e-004   3.9616e-003  -5.3530e+007   8.1174e+005   1.5648e+007    0.0000    0.1077    0.0024   -0.0000    0.1361
                0.0458  -2.8747e-003   4.1645e-004   2.9036e-003  -5.5085e+007   8.3469e+005   1.1469e+007    0.0000    0.1108    0.0025   -0.0000    0.0997
                0.0687  -2.9119e-003   4.2183e-004   1.8020e-003  -5.5799e+007   8.4525e+005   7.1179e+006    0.0000    0.1123    0.0025   -0.0000    0.0619
                0.0923  -2.9164e-003   4.2248e-004   6.6268e-004  -5.5886e+007   8.4653e+005   2.6176e+006    0.0000    0.1124    0.0025   -0.0000    0.0228
                0.1163  -2.9213e-003   4.2318e-004   4.9766e-004  -5.5979e+007   8.4788e+005   1.9658e+006    0.0000    0.1126    0.0025   -0.0000    0.0171
                0.1407  -2.8503e-003   4.1292e-004   1.6666e-003  -5.4617e+007   8.2778e+005   6.5831e+006    0.0000    0.1099    0.0025   -0.0000    0.0572
                0.1656  -2.7737e-003   4.0186e-004   2.8253e-003  -5.3151e+007   8.0619e+005   1.1160e+007    0.0000    0.1069    0.0024   -0.0000    0.0970
                0.1907  -2.6763e-003   3.8779e-004   3.9606e-003  -5.1284e+007   7.7871e+005   1.5644e+007    0.0000    0.1032    0.0023   -0.0000    0.1360
                0.1917  -2.6715e-003   3.8708e-004   4.0039e-003  -5.1191e+007   7.7715e+005   1.5815e+007    0.0000    0.1030    0.0023   -0.0000    0.1375

            panel:  3     
           lam_num    nPlies        tPly      fibAng     matID  matName
               (-)       (-)         (m)       (deg)       (-)  (-)
                 1         1    0.002433      0.0000         2  (blade-shell)
                 2         1    0.000607      0.0000         6  (TEP-core)
                 3         1    0.002433      0.0000         2  (blade-shell)

               lamina:  1     
              matName:  (blade-shell)
                     s           e11           e22           e12           s11           s22           s12   s11_fcT   s11_fcC   s22_fcT   s22_fcC   s12_fcS
                   (m)         (m/m)         (m/m)         (rad)          (Pa)          (Pa)          (Pa)       (-)       (-)       (-)       (-)       (-)
                0.0000  -2.9973e-003   3.9049e-004   1.4221e-003  -5.7547e+007   1.6280e+004   5.6175e+006    0.0000    0.1158    0.0000   -0.0000    0.0488
                0.0243  -2.8615e-003   3.7279e-004   8.5758e-004  -5.4939e+007   1.5482e+004   3.3875e+006    0.0000    0.1105    0.0000   -0.0000    0.0295
                0.0497  -2.7188e-003   3.5420e-004   2.9866e-004  -5.2200e+007   1.4649e+004   1.1797e+006    0.0000    0.1050    0.0000   -0.0000    0.0103
                0.0752  -2.5441e-003   3.3143e-004   2.2684e-004  -4.8844e+007   1.3630e+004   8.9602e+005    0.0000    0.0983    0.0000   -0.0000    0.0078
                0.1006  -2.3563e-003   3.0697e-004   7.1160e-004  -4.5240e+007   1.2531e+004   2.8108e+006    0.0000    0.0910    0.0000   -0.0000    0.0244
                0.1257  -2.1689e-003   2.8255e-004   1.1498e-003  -4.1642e+007   1.1436e+004   4.5416e+006    0.0000    0.0838    0.0000   -0.0000    0.0395
                0.1506  -1.9559e-003   2.5479e-004   1.5418e-003  -3.7552e+007   1.0191e+004   6.0901e+006    0.0000    0.0756    0.0000   -0.0000    0.0530
                0.1750  -1.7477e-003   2.2766e-004   1.8821e-003  -3.3554e+007   8.9694e+003   7.4344e+006    0.0000    0.0675    0.0000   -0.0000    0.0646
                0.1989  -1.5390e-003   2.0046e-004   2.1716e-003  -2.9547e+007   7.7466e+003   8.5777e+006    0.0000    0.0595    0.0000   -0.0000    0.0746
                0.2222  -1.3292e-003   1.7312e-004   2.4115e-003  -2.5519e+007   6.5161e+003   9.5253e+006    0.0000    0.0513    0.0000   -0.0000    0.0828
                0.2446  -1.1267e-003   1.4674e-004   2.6033e-003  -2.1632e+007   5.3266e+003   1.0283e+007    0.0000    0.0435    0.0000   -0.0000    0.0894
                0.2662  -9.3307e-004   1.2151e-004   2.7507e-003  -1.7914e+007   4.1890e+003   1.0865e+007    0.0000    0.0360    0.0000   -0.0000    0.0945
                0.2869  -7.4835e-004   9.7445e-005   2.8577e-003  -1.4368e+007   3.1036e+003   1.1288e+007    0.0000    0.0289    0.0000   -0.0000    0.0982
                0.3064  -5.7469e-004   7.4817e-005   2.9289e-003  -1.1034e+007   2.0809e+003   1.1569e+007    0.0000    0.0222    0.0000   -0.0000    0.1006
                0.3248  -4.1848e-004   5.4462e-005   2.9696e-003  -8.0346e+006   1.1610e+003   1.1730e+007    0.0000    0.0162    0.0000   -0.0000    0.1020
                0.3420  -2.7235e-004   3.5421e-005   2.9850e-003  -5.2291e+006   3.0079e+002   1.1791e+007    0.0000    0.0105    0.0000   -0.0000    0.1025
                0.3580  -1.4295e-004   1.8560e-005   2.9803e-003  -2.7448e+006  -4.7587e+002   1.1772e+007    0.0000    0.0055    0.0000    0.0000    0.1024
                0.3725   1.7054e-004  -2.2228e-005   2.9606e-003   3.2741e+006  -1.1464e+003   1.1694e+007    0.0097   -0.0000    0.0000    0.0000    0.1017
                0.3857   2.7396e-004  -3.5705e-005   2.9304e-003   5.2598e+006  -1.7542e+003   1.1575e+007    0.0156   -0.0000    0.0000    0.0000    0.1007
                0.3974   3.5832e-004  -4.6697e-005   2.8940e-003   6.8795e+006  -2.2502e+003   1.1431e+007    0.0204   -0.0000    0.0000    0.0000    0.0994
                0.4076   4.3115e-004  -5.6187e-005   2.8553e-003   8.2777e+006  -2.6780e+003   1.1278e+007    0.0246   -0.0000    0.0000    0.0000    0.0981
                0.4163   4.9230e-004  -6.4155e-005   2.8172e-003   9.4518e+006  -3.0374e+003   1.1128e+007    0.0280   -0.0000    0.0000    0.0000    0.0968
                0.4235   5.4010e-004  -7.0383e-005   2.7825e-003   1.0369e+007  -3.3184e+003   1.0991e+007    0.0308   -0.0000    0.0000    0.0000    0.0956
                0.4291   5.7736e-004  -7.5238e-005   2.7534e-003   1.1085e+007  -3.5371e+003   1.0876e+007    0.0329   -0.0000    0.0000    0.0000    0.0946
                0.4331   6.0520e-004  -7.8865e-005   2.7314e-003   1.1619e+007  -3.7004e+003   1.0789e+007    0.0345   -0.0000    0.0000    0.0000    0.0938
                0.4355   6.2246e-004  -8.1115e-005   2.7177e-003   1.1951e+007  -3.8016e+003   1.0735e+007    0.0355   -0.0000    0.0000    0.0000    0.0933
                0.4363   6.2824e-004  -8.1868e-005   2.7131e-003   1.2062e+007  -3.8356e+003   1.0717e+007    0.0358   -0.0000    0.0000    0.0000    0.0932

               lamina:  2     
              matName:  (TEP-core)
                     s           e11           e22           e12           s11           s22           s12   s11_fcT   s11_fcC   s22_fcT   s22_fcC   s12_fcS
                   (m)         (m/m)         (m/m)         (rad)          (Pa)          (Pa)          (Pa)       (-)       (-)       (-)       (-)       (-)
                0.0000  -2.7945e-003   3.6412e-004   1.4221e-003  -6.3024e+005  -1.3152e+005   1.3937e+005    0.0000    0.1469    0.0000    0.0307    0.0472
                0.0243  -2.6587e-003   3.4642e-004   8.5758e-004  -5.9961e+005  -1.2512e+005   8.4043e+004    0.0000    0.1398    0.0000    0.0292    0.0285
                0.0497  -2.5168e-003   3.2793e-004   2.9866e-004  -5.6761e+005  -1.1845e+005   2.9268e+004    0.0000    0.1323    0.0000    0.0276    0.0099
                0.0752  -2.3432e-003   3.0531e-004   2.2684e-004  -5.2847e+005  -1.1028e+005   2.2230e+004    0.0000    0.1232    0.0000    0.0257    0.0075
                0.1006  -2.1560e-003   2.8092e-004   7.1160e-004  -4.8624e+005  -1.0147e+005   6.9737e+004    0.0000    0.1133    0.0000    0.0237    0.0236
                0.1257  -1.9695e-003   2.5662e-004   1.1498e-003  -4.4418e+005  -9.2690e+004   1.1268e+005    0.0000    0.1035    0.0000    0.0216    0.0382
                0.1506  -1.7574e-003   2.2898e-004   1.5418e-003  -3.9635e+005  -8.2708e+004   1.5110e+005    0.0000    0.0924    0.0000    0.0193    0.0512
                0.1750  -1.5494e-003   2.0188e-004   1.8821e-003  -3.4943e+005  -7.2918e+004   1.8445e+005    0.0000    0.0815    0.0000    0.0170    0.0625
                0.1989  -1.3411e-003   1.7474e-004   2.1716e-003  -3.0247e+005  -6.3118e+004   2.1281e+005    0.0000    0.0705    0.0000    0.0147    0.0721
                0.2222  -1.1316e-003   1.4744e-004   2.4115e-003  -2.5521e+005  -5.3257e+004   2.3632e+005    0.0000    0.0595    0.0000    0.0124    0.0801
                0.2446  -9.2909e-004   1.2105e-004   2.6033e-003  -2.0954e+005  -4.3727e+004   2.5513e+005    0.0000    0.0488    0.0000    0.0102    0.0865
                0.2662  -7.3542e-004   9.5819e-005   2.7507e-003  -1.6586e+005  -3.4612e+004   2.6957e+005    0.0000    0.0387    0.0000    0.0081    0.0914
                0.2869  -5.5063e-004   7.1741e-005   2.8577e-003  -1.2419e+005  -2.5916e+004   2.8005e+005    0.0000    0.0289    0.0000    0.0060    0.0949
                0.3064  -3.7656e-004   4.9059e-005   2.9289e-003  -8.4926e+004  -1.7723e+004   2.8704e+005    0.0000    0.0198    0.0000    0.0041    0.0973
                0.3248  -2.1999e-004   2.8657e-005   2.9696e-003  -4.9614e+004  -1.0355e+004   2.9102e+005    0.0000    0.0116    0.0000    0.0024    0.0987
                0.3420  -7.3565e-005   9.5782e-006   2.9850e-003  -1.6592e+004  -3.4639e+003   2.9253e+005    0.0000    0.0039    0.0000    0.0008    0.0992
                0.3580   1.0617e-004  -1.3827e-005   2.9803e-003   2.3946e+004   4.9985e+003   2.9207e+005    0.0056   -0.0000    0.0012   -0.0000    0.0990
                0.3725   2.2037e-004  -2.8707e-005   2.9606e-003   4.9701e+004   1.0373e+004   2.9014e+005    0.0116   -0.0000    0.0024   -0.0000    0.0984
                0.3857   3.2392e-004  -4.2199e-005   2.9304e-003   7.3053e+004   1.5246e+004   2.8718e+005    0.0170   -0.0000    0.0036   -0.0000    0.0973
                0.3974   4.0843e-004  -5.3211e-005   2.8940e-003   9.2113e+004   1.9223e+004   2.8361e+005    0.0215   -0.0000    0.0045   -0.0000    0.0961
                0.4076   4.8129e-004  -6.2705e-005   2.8553e-003   1.0855e+005   2.2652e+004   2.7981e+005    0.0253   -0.0000    0.0053   -0.0000    0.0949
                0.4163   5.4252e-004  -7.0683e-005   2.8172e-003   1.2236e+005   2.5534e+004   2.7608e+005    0.0285   -0.0000    0.0060   -0.0000    0.0936
                0.4235   5.9038e-004  -7.6920e-005   2.7825e-003   1.3315e+005   2.7786e+004   2.7268e+005    0.0310   -0.0000    0.0065   -0.0000    0.0924
                0.4291   6.2760e-004  -8.1769e-005   2.7534e-003   1.4154e+005   2.9538e+004   2.6983e+005    0.0330   -0.0000    0.0069   -0.0000    0.0915
                0.4331   6.5535e-004  -8.5386e-005   2.7314e-003   1.4780e+005   3.0844e+004   2.6768e+005    0.0345   -0.0000    0.0072   -0.0000    0.0907
                0.4355   6.7257e-004  -8.7629e-005   2.7177e-003   1.5169e+005   3.1654e+004   2.6634e+005    0.0354   -0.0000    0.0074   -0.0000    0.0903
                0.4363   6.7835e-004  -8.8382e-005   2.7131e-003   1.5299e+005   3.1926e+004   2.6588e+005    0.0357   -0.0000    0.0074   -0.0000    0.0901

               lamina:  3     
              matName:  (blade-shell)
                     s           e11           e22           e12           s11           s22           s12   s11_fcT   s11_fcC   s22_fcT   s22_fcC   s12_fcS
                   (m)         (m/m)         (m/m)         (rad)          (Pa)          (Pa)          (Pa)       (-)       (-)       (-)       (-)       (-)
                0.0000  -2.7439e-003   3.5753e-004   1.4221e-003  -5.2680e+007   1.6263e+004   5.6175e+006    0.0000    0.1060    0.0000   -0.0000    0.0488
                0.0243  -2.6080e-003   3.3984e-004   8.5758e-004  -5.0072e+007   1.5466e+004   3.3875e+006    0.0000    0.1007    0.0000   -0.0000    0.0295
                0.0497  -2.4663e-003   3.2137e-004   2.9866e-004  -4.7351e+007   1.4633e+004   1.1797e+006    0.0000    0.0953    0.0000   -0.0000    0.0103
                0.0752  -2.2931e-003   2.9880e-004   2.2684e-004  -4.4025e+007   1.3614e+004   8.9602e+005    0.0000    0.0886    0.0000   -0.0000    0.0078
                0.1006  -2.1060e-003   2.7441e-004   7.1160e-004  -4.0433e+007   1.2515e+004   2.8108e+006    0.0000    0.0814    0.0000   -0.0000    0.0244
                0.1257  -1.9197e-003   2.5015e-004   1.1498e-003  -3.6857e+007   1.1420e+004   4.5416e+006    0.0000    0.0742    0.0000   -0.0000    0.0395
                0.1506  -1.7078e-003   2.2254e-004   1.5418e-003  -3.2789e+007   1.0175e+004   6.0901e+006    0.0000    0.0660    0.0000   -0.0000    0.0530
                0.1750  -1.4999e-003   1.9544e-004   1.8821e-003  -2.8796e+007   8.9534e+003   7.4344e+006    0.0000    0.0579    0.0000   -0.0000    0.0646
                0.1989  -1.2918e-003   1.6832e-004   2.1716e-003  -2.4801e+007   7.7306e+003   8.5777e+006    0.0000    0.0499    0.0000   -0.0000    0.0746
                0.2222  -1.0823e-003   1.4103e-004   2.4115e-003  -2.0779e+007   6.5001e+003   9.5253e+006    0.0000    0.0418    0.0000   -0.0000    0.0828
                0.2446  -8.7977e-004   1.1464e-004   2.6033e-003  -1.6891e+007   5.3107e+003   1.0283e+007    0.0000    0.0340    0.0000   -0.0000    0.0894
                0.2662  -6.8609e-004   8.9405e-005   2.7507e-003  -1.3172e+007   4.1731e+003   1.0865e+007    0.0000    0.0265    0.0000   -0.0000    0.0945
                0.2869  -5.0128e-004   6.5325e-005   2.8577e-003  -9.6242e+006   3.0877e+003   1.1288e+007    0.0000    0.0194    0.0000   -0.0000    0.0982
                0.3064  -3.2710e-004   4.2629e-005   2.9289e-003  -6.2801e+006   2.0649e+003   1.1569e+007    0.0000    0.0126    0.0000   -0.0000    0.1006
                0.3248  -1.7044e-004   2.2216e-005   2.9696e-003  -3.2723e+006   1.1450e+003   1.1730e+007    0.0000    0.0066    0.0000   -0.0000    0.1020
                0.3420   1.7484e-004  -2.2715e-005   2.9850e-003   3.3570e+006   2.8477e+002   1.1791e+007    0.0100   -0.0000    0.0000   -0.0000    0.1025
                0.3580   3.0554e-004  -3.9745e-005   2.9803e-003   5.8663e+006  -4.9193e+002   1.1772e+007    0.0174   -0.0000    0.0000    0.0000    0.1024
                0.3725   4.2002e-004  -5.4662e-005   2.9606e-003   8.0642e+006  -1.1625e+003   1.1694e+007    0.0239   -0.0000    0.0000    0.0000    0.1017
                0.3857   5.2405e-004  -6.8218e-005   2.9304e-003   1.0062e+007  -1.7703e+003   1.1575e+007    0.0299   -0.0000    0.0000    0.0000    0.1007
                0.3974   6.0915e-004  -7.9306e-005   2.8940e-003   1.1695e+007  -2.2663e+003   1.1431e+007    0.0347   -0.0000    0.0000    0.0000    0.0994
                0.4076   6.8215e-004  -8.8818e-005   2.8553e-003   1.3097e+007  -2.6942e+003   1.1278e+007    0.0389   -0.0000    0.0000    0.0000    0.0981
                0.4163   7.4370e-004  -9.6838e-005   2.8172e-003   1.4279e+007  -3.0536e+003   1.1128e+007    0.0424   -0.0000    0.0000    0.0000    0.0968
                0.4235   7.9183e-004  -1.0311e-004   2.7825e-003   1.5203e+007  -3.3346e+003   1.0991e+007    0.0451   -0.0000    0.0000    0.0000    0.0956
                0.4291   8.2888e-004  -1.0794e-004   2.7534e-003   1.5914e+007  -3.5533e+003   1.0876e+007    0.0472   -0.0000    0.0000    0.0000    0.0946
                0.4331   8.5629e-004  -1.1151e-004   2.7314e-003   1.6440e+007  -3.7165e+003   1.0789e+007    0.0488   -0.0000    0.0000    0.0000    0.0938
                0.4355   8.7332e-004  -1.1373e-004   2.7177e-003   1.6767e+007  -3.8178e+003   1.0735e+007    0.0498   -0.0000    0.0000    0.0000    0.0933
                0.4363   8.7910e-004  -1.1448e-004   2.7131e-003   1.6878e+007  -3.8517e+003   1.0717e+007    0.0501   -0.0000    0.0000    0.0000    0.0932

  Bottom:  panel  nNode   nLam     xc_St    xc_End         b         t         E_eff         G_eff      nu_eff     density  buckleCrit
            (-)    (-)    (-)       (-)       (-)       (m)       (m)          (Pa)          (Pa)         (-)    (kg/m^3)         (-)
              1     17      3    0.0000    0.2300    0.2064    0.0050   1.8620e+010   3.8323e+009      0.1301   1625.0986      0.0417
              2     11      5    0.2300    0.4700    0.1918    0.0059   3.6665e+010   4.0481e+009      0.1444   1624.4851      0.0129
              3     27      3    0.4700    1.0000    0.4323    0.0055   1.7094e+010   3.5226e+009      0.1303   1506.8929      0.1966

            panel:  1     
           lam_num    nPlies        tPly      fibAng     matID  matName
               (-)       (-)         (m)       (deg)       (-)  (-)
                 1         1    0.002433      0.0000         2  (blade-shell)
                 2         1    0.000153      0.0000         5  (LEP-core)
                 3         1    0.002433      0.0000         2  (blade-shell)

               lamina:  1     
              matName:  (blade-shell)
                     s           e11           e22           e12           s11           s22           s12   s11_fcT   s11_fcC   s22_fcT   s22_fcC   s12_fcS
                   (m)         (m/m)         (m/m)         (rad)          (Pa)          (Pa)          (Pa)       (-)       (-)       (-)       (-)       (-)
                0.0000   2.7124e-004  -3.5277e-005   4.1009e-003   5.2079e+006  -2.8859e+002   1.6198e+007    0.0155   -0.0000    0.0000    0.0000    0.1409
                0.0023   3.3949e-004  -4.4153e-005   4.0967e-003   6.5181e+006  -3.8990e+002   1.6182e+007    0.0193   -0.0000    0.0000    0.0000    0.1407
                0.0090   5.5278e-004  -7.1896e-005   4.0769e-003   1.0613e+007  -6.8655e+002   1.6104e+007    0.0315   -0.0000    0.0000    0.0000    0.1400
                0.0173   8.3016e-004  -1.0797e-004   4.0368e-003   1.5939e+007  -1.0377e+003   1.5946e+007    0.0473   -0.0000    0.0000    0.0000    0.1387
                0.0245   1.0242e-003  -1.3321e-004   3.9892e-003   1.9665e+007  -1.2796e+003   1.5757e+007    0.0584   -0.0000    0.0000    0.0000    0.1370
                0.0341   1.2559e-003  -1.6335e-004   3.9104e-003   2.4113e+007  -1.6017e+003   1.5446e+007    0.0716   -0.0000    0.0000    0.0000    0.1343
                0.0441   1.4536e-003  -1.8906e-004   3.8117e-003   2.7909e+007  -1.8692e+003   1.5056e+007    0.0828   -0.0000    0.0000    0.0000    0.1309
                0.0555   1.6434e-003  -2.1375e-004   3.6807e-003   3.1552e+007  -2.1431e+003   1.4539e+007    0.0936   -0.0000    0.0000    0.0000    0.1264
                0.0683   1.8542e-003  -2.4117e-004   3.5120e-003   3.5600e+007  -2.4427e+003   1.3872e+007    0.1056   -0.0000    0.0000    0.0000    0.1206
                0.0818   2.0154e-003  -2.6213e-004   3.3141e-003   3.8695e+007  -2.6721e+003   1.3091e+007    0.1148   -0.0000    0.0000    0.0000    0.1138
                0.0968   2.1901e-003  -2.8486e-004   3.0725e-003   4.2049e+007  -2.9281e+003   1.2136e+007    0.1248   -0.0000    0.0000    0.0000    0.1055
                0.1128   2.3519e-003  -3.0591e-004   2.7921e-003   4.5156e+007  -3.1623e+003   1.1029e+007    0.1340   -0.0000    0.0000    0.0000    0.0959
                0.1298   2.4906e-003  -3.2396e-004   2.4715e-003   4.7820e+007  -3.3655e+003   9.7626e+006    0.1419   -0.0000    0.0000    0.0000    0.0849
                0.1480   2.6391e-003  -3.4327e-004   2.1068e-003   5.0670e+007  -3.5828e+003   8.3220e+006    0.1504   -0.0000    0.0000    0.0000    0.0724
                0.1670   2.7485e-003  -3.5750e-004   1.7054e-003   5.2771e+007  -3.7422e+003   6.7361e+006    0.1566   -0.0000    0.0000    0.0000    0.0586
                0.1871   2.8535e-003  -3.7116e-004   1.2633e-003   5.4787e+007  -3.8972e+003   4.9901e+006    0.1626   -0.0000    0.0000    0.0000    0.0434
                0.2064   2.9433e-003  -3.8283e-004   8.2227e-004   5.6510e+007  -4.0299e+003   3.2480e+006    0.1677   -0.0000    0.0000    0.0000    0.0282

               lamina:  2     
              matName:  (LEP-core)
                     s           e11           e22           e12           s11           s22           s12   s11_fcT   s11_fcC   s22_fcT   s22_fcC   s12_fcS
                   (m)         (m/m)         (m/m)         (rad)          (Pa)          (Pa)          (Pa)       (-)       (-)       (-)       (-)       (-)
                0.0000   1.9669e-004  -2.5584e-005   4.1009e-003   4.4362e+004   9.2669e+003   4.0188e+005    0.0103   -0.0000    0.0022   -0.0000    0.1362
                0.0023   2.6493e-004  -3.4461e-005   4.0967e-003   5.9754e+004   1.2482e+004   4.0148e+005    0.0139   -0.0000    0.0029   -0.0000    0.1361
                0.0090   4.6517e-004  -6.0507e-005   4.0769e-003   1.0492e+005   2.1916e+004   3.9954e+005    0.0245   -0.0000    0.0051   -0.0000    0.1354
                0.0173   7.0294e-004  -9.1435e-005   4.0368e-003   1.5855e+005   3.3119e+004   3.9561e+005    0.0370   -0.0000    0.0077   -0.0000    0.1341
                0.0245   8.6680e-004  -1.1275e-004   3.9892e-003   1.9550e+005   4.0839e+004   3.9094e+005    0.0456   -0.0000    0.0095   -0.0000    0.1325
                0.0341   1.0842e-003  -1.4103e-004   3.9104e-003   2.4455e+005   5.1084e+004   3.8322e+005    0.0570   -0.0000    0.0119   -0.0000    0.1299
                0.0441   1.2649e-003  -1.6453e-004   3.8117e-003   2.8530e+005   5.9596e+004   3.7355e+005    0.0665   -0.0000    0.0139   -0.0000    0.1266
                0.0555   1.4496e-003  -1.8856e-004   3.6807e-003   3.2696e+005   6.8298e+004   3.6071e+005    0.0762   -0.0000    0.0159   -0.0000    0.1223
                0.0683   1.6517e-003  -2.1484e-004   3.5120e-003   3.7253e+005   7.7818e+004   3.4418e+005    0.0868   -0.0000    0.0181   -0.0000    0.1167
                0.0818   1.8064e-003  -2.3497e-004   3.3141e-003   4.0744e+005   8.5111e+004   3.2478e+005    0.0950   -0.0000    0.0198   -0.0000    0.1101
                0.0968   1.9789e-003  -2.5741e-004   3.0725e-003   4.4634e+005   9.3237e+004   3.0110e+005    0.1040   -0.0000    0.0217   -0.0000    0.1021
                0.1128   2.1368e-003  -2.7795e-004   2.7921e-003   4.8195e+005   1.0068e+005   2.7363e+005    0.1123   -0.0000    0.0235   -0.0000    0.0928
                0.1298   2.2738e-003  -2.9577e-004   2.4715e-003   5.1285e+005   1.0713e+005   2.4221e+005    0.1195   -0.0000    0.0250   -0.0000    0.0821
                0.1480   2.4202e-003  -3.1481e-004   2.1068e-003   5.4587e+005   1.1403e+005   2.0647e+005    0.1272   -0.0000    0.0266   -0.0000    0.0700
                0.1670   2.5276e-003  -3.2878e-004   1.7054e-003   5.7010e+005   1.1909e+005   1.6712e+005    0.1329   -0.0000    0.0278   -0.0000    0.0567
                0.1871   2.6321e-003  -3.4237e-004   1.2633e-003   5.9366e+005   1.2401e+005   1.2380e+005    0.1384   -0.0000    0.0289   -0.0000    0.0420
                0.2064   2.7215e-003  -3.5400e-004   8.2227e-004   6.1383e+005   1.2822e+005   8.0583e+004    0.1431   -0.0000    0.0299   -0.0000    0.0273

               lamina:  3     
              matName:  (blade-shell)
                     s           e11           e22           e12           s11           s22           s12   s11_fcT   s11_fcC   s22_fcT   s22_fcC   s12_fcS
                   (m)         (m/m)         (m/m)         (rad)          (Pa)          (Pa)          (Pa)       (-)       (-)       (-)       (-)       (-)
                0.0000   1.9199e-004  -2.4973e-005   4.1009e-003   3.6862e+006  -2.8849e+002   1.6198e+007    0.0109   -0.0000    0.0000    0.0000    0.1409
                0.0023   2.6023e-004  -3.3850e-005   4.0967e-003   4.9964e+006  -3.8979e+002   1.6182e+007    0.0148   -0.0000    0.0000    0.0000    0.1407
                0.0090   4.5965e-004  -5.9789e-005   4.0769e-003   8.8251e+006  -6.8643e+002   1.6104e+007    0.0262   -0.0000    0.0000    0.0000    0.1400
                0.0173   6.9492e-004  -9.0393e-005   4.0368e-003   1.3342e+007  -1.0375e+003   1.5946e+007    0.0396   -0.0000    0.0000    0.0000    0.1387
                0.0245   8.5687e-004  -1.1146e-004   3.9892e-003   1.6452e+007  -1.2794e+003   1.5757e+007    0.0488   -0.0000    0.0000    0.0000    0.1370
                0.0341   1.0734e-003  -1.3963e-004   3.9104e-003   2.0609e+007  -1.6015e+003   1.5446e+007    0.0612   -0.0000    0.0000    0.0000    0.1343
                0.0441   1.2530e-003  -1.6299e-004   3.8117e-003   2.4058e+007  -1.8689e+003   1.5056e+007    0.0714   -0.0000    0.0000    0.0000    0.1309
                0.0555   1.4374e-003  -1.8697e-004   3.6807e-003   2.7598e+007  -2.1428e+003   1.4539e+007    0.0819   -0.0000    0.0000    0.0000    0.1264
                0.0683   1.6389e-003  -2.1318e-004   3.5120e-003   3.1467e+007  -2.4424e+003   1.3872e+007    0.0934   -0.0000    0.0000    0.0000    0.1206
                0.0818   1.7933e-003  -2.3326e-004   3.3141e-003   3.4431e+007  -2.6718e+003   1.3091e+007    0.1022   -0.0000    0.0000    0.0000    0.1138
                0.0968   1.9656e-003  -2.5568e-004   3.0725e-003   3.7740e+007  -2.9278e+003   1.2136e+007    0.1120   -0.0000    0.0000    0.0000    0.1055
                0.1128   2.1233e-003  -2.7619e-004   2.7921e-003   4.0766e+007  -3.1620e+003   1.1029e+007    0.1210   -0.0000    0.0000    0.0000    0.0959
                0.1298   2.2601e-003  -2.9399e-004   2.4715e-003   4.3394e+007  -3.3652e+003   9.7626e+006    0.1288   -0.0000    0.0000    0.0000    0.0849
                0.1480   2.4064e-003  -3.1302e-004   2.1068e-003   4.6202e+007  -3.5825e+003   8.3220e+006    0.1371   -0.0000    0.0000    0.0000    0.0724
                0.1670   2.5137e-003  -3.2697e-004   1.7054e-003   4.8263e+007  -3.7419e+003   6.7361e+006    0.1432   -0.0000    0.0000    0.0000    0.0586
                0.1871   2.6181e-003  -3.4056e-004   1.2633e-003   5.0268e+007  -3.8969e+003   4.9901e+006    0.1492   -0.0000    0.0000    0.0000    0.0434
                0.2064   2.7075e-003  -3.5218e-004   8.2227e-004   5.1984e+007  -4.0296e+003   3.2480e+006    0.1543   -0.0000    0.0000    0.0000    0.0282

            panel:  2     
           lam_num    nPlies        tPly      fibAng     matID  matName
               (-)       (-)         (m)       (deg)       (-)  (-)
                 1         1    0.002433      0.0000         2  (blade-shell)
                 2         1    0.000501      0.0000         3  (spar-uni)
                 3         1    0.000047      0.0000         4  (spar-core)
                 4         1    0.000501      0.0000         3  (spar-uni)
                 5         1    0.002433      0.0000         2  (blade-shell)

               lamina:  1     
              matName:  (blade-shell)
                     s           e11           e22           e12           s11           s22           s12   s11_fcT   s11_fcC   s22_fcT   s22_fcC   s12_fcS
                   (m)         (m/m)         (m/m)         (rad)          (Pa)          (Pa)          (Pa)       (-)       (-)       (-)       (-)       (-)
                0.0000   3.2157e-003  -4.5719e-004   5.0194e-003   6.1641e+007  -7.6477e+005   1.9827e+007    0.1829   -0.0000    0.0000    0.0023    0.1724
                0.0015   3.2266e-003  -4.5872e-004   4.9547e-003   6.1850e+007  -7.6681e+005   1.9571e+007    0.1835   -0.0000    0.0000    0.0023    0.1702
                0.0232   3.2814e-003  -4.6663e-004   4.0071e-003   6.2901e+007  -7.8220e+005   1.5828e+007    0.1867   -0.0000    0.0000    0.0023    0.1376
                0.0455   3.3388e-003  -4.7490e-004   3.0088e-003   6.4000e+007  -7.9810e+005   1.1885e+007    0.1899   -0.0000    0.0000    0.0024    0.1033
                0.0684   3.3590e-003  -4.7781e-004   1.9705e-003   6.4388e+007  -8.0359e+005   7.7836e+006    0.1911   -0.0000    0.0000    0.0024    0.0677
                0.0920   3.3507e-003  -4.7661e-004   8.9960e-004   6.4228e+007  -8.0126e+005   3.5534e+006    0.1906   -0.0000    0.0000    0.0024    0.0309
                0.1161   3.3416e-003  -4.7531e-004   1.8752e-004   6.4054e+007  -7.9890e+005   7.4071e+005    0.1901   -0.0000    0.0000    0.0024    0.0064
                0.1406   3.2656e-003  -4.6436e-004   1.2828e-003   6.2598e+007  -7.7797e+005   5.0670e+006    0.1858   -0.0000    0.0000    0.0023    0.0441
                0.1655   3.1859e-003  -4.5286e-004   2.3659e-003   6.1070e+007  -7.5571e+005   9.3454e+006    0.1812   -0.0000    0.0000    0.0022    0.0813
                0.1907   3.0892e-003  -4.3891e-004   3.4257e-003   5.9218e+007  -7.2868e+005   1.3531e+007    0.1757   -0.0000    0.0000    0.0022    0.1177
                0.1918   3.0808e-003  -4.3774e-004   3.4673e-003   5.9057e+007  -7.2716e+005   1.3696e+007    0.1752   -0.0000    0.0000    0.0022    0.1191

               lamina:  2     
              matName:  (spar-uni)
                     s           e11           e22           e12           s11           s22           s12   s11_fcT   s11_fcC   s22_fcT   s22_fcC   s12_fcS
                   (m)         (m/m)         (m/m)         (rad)          (Pa)          (Pa)          (Pa)       (-)       (-)       (-)       (-)       (-)
                0.0000   2.7918e-003  -4.0191e-004   5.0194e-003   3.4458e+008   3.8256e+006   2.3642e+007    0.1741   -0.0000    0.0639   -0.0000    0.2295
                0.0015   2.7996e-003  -4.0303e-004   4.9547e-003   3.4554e+008   3.8363e+006   2.3337e+007    0.1746   -0.0000    0.0640   -0.0000    0.2266
                0.0232   2.8543e-003  -4.1093e-004   4.0071e-003   3.5229e+008   3.9110e+006   1.8874e+007    0.1780   -0.0000    0.0653   -0.0000    0.1832
                0.0455   2.9109e-003  -4.1910e-004   3.0088e-003   3.5927e+008   3.9884e+006   1.4171e+007    0.1815   -0.0000    0.0666   -0.0000    0.1376
                0.0684   2.9305e-003  -4.2193e-004   1.9705e-003   3.6170e+008   4.0152e+006   9.2812e+006    0.1828   -0.0000    0.0670   -0.0000    0.0901
                0.0920   2.9222e-003  -4.2073e-004   8.9960e-004   3.6067e+008   4.0039e+006   4.2371e+006    0.1822   -0.0000    0.0668   -0.0000    0.0411
                0.1161   2.9137e-003  -4.1951e-004   1.8752e-004   3.5962e+008   3.9923e+006   8.8322e+005    0.1817   -0.0000    0.0666   -0.0000    0.0086
                0.1406   2.8391e-003  -4.0874e-004   1.2828e-003   3.5042e+008   3.8903e+006   6.0419e+006    0.1771   -0.0000    0.0649   -0.0000    0.0587
                0.1655   2.7600e-003  -3.9731e-004   2.3659e-003   3.4065e+008   3.7822e+006   1.1143e+007    0.1721   -0.0000    0.0631   -0.0000    0.1082
                0.1907   2.6639e-003  -3.8344e-004   3.4257e-003   3.2879e+008   3.6509e+006   1.6135e+007    0.1661   -0.0000    0.0609   -0.0000    0.1566
                0.1918   2.6581e-003  -3.8260e-004   3.4673e-003   3.2807e+008   3.6428e+006   1.6331e+007    0.1658   -0.0000    0.0608   -0.0000    0.1586

               lamina:  3     
              matName:  (spar-core)
                     s           e11           e22           e12           s11           s22           s12   s11_fcT   s11_fcC   s22_fcT   s22_fcC   s12_fcS
                   (m)         (m/m)         (m/m)         (rad)          (Pa)          (Pa)          (Pa)       (-)       (-)       (-)       (-)       (-)
                0.0000   2.7046e-003  -3.9054e-004   5.0194e-003   6.0700e+005   1.1830e+005   4.9190e+005    0.1415   -0.0000    0.0276   -0.0000    0.1667
                0.0015   2.7117e-003  -3.9157e-004   4.9547e-003   6.0861e+005   1.1861e+005   4.8556e+005    0.1419   -0.0000    0.0276   -0.0000    0.1646
                0.0232   2.7664e-003  -3.9946e-004   4.0071e-003   6.2087e+005   1.2100e+005   3.9270e+005    0.1447   -0.0000    0.0282   -0.0000    0.1331
                0.0455   2.8228e-003  -4.0761e-004   3.0088e-003   6.3354e+005   1.2347e+005   2.9486e+005    0.1477   -0.0000    0.0288   -0.0000    0.1000
                0.0684   2.8423e-003  -4.1043e-004   1.9705e-003   6.3792e+005   1.2432e+005   1.9311e+005    0.1487   -0.0000    0.0290   -0.0000    0.0655
                0.0920   2.8340e-003  -4.0923e-004   8.9960e-004   6.3605e+005   1.2396e+005   8.8161e+004    0.1483   -0.0000    0.0289   -0.0000    0.0299
                0.1161   2.8257e-003  -4.0802e-004   1.8752e-004   6.3418e+005   1.2359e+005   1.8377e+004    0.1478   -0.0000    0.0288   -0.0000    0.0062
                0.1406   2.7514e-003  -3.9730e-004   1.2828e-003   6.1751e+005   1.2034e+005   1.2571e+005    0.1439   -0.0000    0.0281   -0.0000    0.0426
                0.1655   2.6724e-003  -3.8588e-004   2.3659e-003   5.9977e+005   1.1689e+005   2.3186e+005    0.1398   -0.0000    0.0272   -0.0000    0.0786
                0.1907   2.5764e-003  -3.7202e-004   3.4257e-003   5.7823e+005   1.1269e+005   3.3572e+005    0.1348   -0.0000    0.0263   -0.0000    0.1138
                0.1918   2.5711e-003  -3.7126e-004   3.4673e-003   5.7704e+005   1.1246e+005   3.3980e+005    0.1345   -0.0000    0.0262   -0.0000    0.1152

               lamina:  4     
              matName:  (spar-uni)
                     s           e11           e22           e12           s11           s22           s12   s11_fcT   s11_fcC   s22_fcT   s22_fcC   s12_fcS
                   (m)         (m/m)         (m/m)         (rad)          (Pa)          (Pa)          (Pa)       (-)       (-)       (-)       (-)       (-)
                0.0000   2.6964e-003  -3.8947e-004   5.0194e-003   3.3280e+008   3.6842e+006   2.3642e+007    0.1682   -0.0000    0.0615   -0.0000    0.2295
                0.0015   2.7035e-003  -3.9050e-004   4.9547e-003   3.3368e+008   3.6939e+006   2.3337e+007    0.1686   -0.0000    0.0617   -0.0000    0.2266
                0.0232   2.7582e-003  -3.9839e-004   4.0071e-003   3.4042e+008   3.7686e+006   1.8874e+007    0.1720   -0.0000    0.0629   -0.0000    0.1832
                0.0455   2.8146e-003  -4.0654e-004   3.0088e-003   3.4739e+008   3.8457e+006   1.4171e+007    0.1755   -0.0000    0.0642   -0.0000    0.1376
                0.0684   2.8341e-003  -4.0935e-004   1.9705e-003   3.4979e+008   3.8723e+006   9.2812e+006    0.1768   -0.0000    0.0646   -0.0000    0.0901
                0.0920   2.8258e-003  -4.0815e-004   8.9960e-004   3.4877e+008   3.8610e+006   4.2371e+006    0.1762   -0.0000    0.0645   -0.0000    0.0411
                0.1161   2.8174e-003  -4.0695e-004   1.8752e-004   3.4774e+008   3.8496e+006   8.8322e+005    0.1757   -0.0000    0.0643   -0.0000    0.0086
                0.1406   2.7432e-003  -3.9623e-004   1.2828e-003   3.3857e+008   3.7481e+006   6.0419e+006    0.1711   -0.0000    0.0626   -0.0000    0.0587
                0.1655   2.6642e-003  -3.8481e-004   2.3659e-003   3.2882e+008   3.6401e+006   1.1143e+007    0.1662   -0.0000    0.0608   -0.0000    0.1082
                0.1907   2.5682e-003  -3.7096e-004   3.4257e-003   3.1698e+008   3.5090e+006   1.6135e+007    0.1602   -0.0000    0.0586   -0.0000    0.1566
                0.1918   2.5629e-003  -3.7019e-004   3.4673e-003   3.1633e+008   3.5018e+006   1.6331e+007    0.1598   -0.0000    0.0585   -0.0000    0.1586

               lamina:  5     
              matName:  (blade-shell)
                     s           e11           e22           e12           s11           s22           s12   s11_fcT   s11_fcC   s22_fcT   s22_fcC   s12_fcS
                   (m)         (m/m)         (m/m)         (rad)          (Pa)          (Pa)          (Pa)       (-)       (-)       (-)       (-)       (-)
                0.0000   2.6092e-003  -3.7810e-004   5.0194e-003   4.9998e+007  -7.5974e+005   1.9827e+007    0.1484   -0.0000    0.0000    0.0023    0.1724
                0.0015   2.6157e-003  -3.7904e-004   4.9547e-003   5.0122e+007  -7.6174e+005   1.9571e+007    0.1487   -0.0000    0.0000    0.0023    0.1702
                0.0232   2.6703e-003  -3.8693e-004   4.0071e-003   5.1168e+007  -7.7713e+005   1.5828e+007    0.1518   -0.0000    0.0000    0.0023    0.1376
                0.0455   2.7265e-003  -3.9505e-004   3.0088e-003   5.2246e+007  -7.9302e+005   1.1885e+007    0.1550   -0.0000    0.0000    0.0024    0.1033
                0.0684   2.7459e-003  -3.9785e-004   1.9705e-003   5.2618e+007  -7.9851e+005   7.7836e+006    0.1561   -0.0000    0.0000    0.0024    0.0677
                0.0920   2.7376e-003  -3.9665e-004   8.9960e-004   5.2458e+007  -7.9617e+005   3.5534e+006    0.1557   -0.0000    0.0000    0.0024    0.0309
                0.1161   2.7294e-003  -3.9547e-004   1.8752e-004   5.2301e+007  -7.9382e+005   7.4071e+005    0.1552   -0.0000    0.0000    0.0024    0.0064
                0.1406   2.6554e-003  -3.8478e-004   1.2828e-003   5.0884e+007  -7.7291e+005   5.0670e+006    0.1510   -0.0000    0.0000    0.0023    0.0441
                0.1655   2.5765e-003  -3.7338e-004   2.3659e-003   4.9372e+007  -7.5065e+005   9.3454e+006    0.1465   -0.0000    0.0000    0.0022    0.0813
                0.1907   2.4807e-003  -3.5954e-004   3.4257e-003   4.7535e+007  -7.2363e+005   1.3531e+007    0.1411   -0.0000    0.0000    0.0021    0.1177
                0.1918   2.4759e-003  -3.5885e-004   3.4673e-003   4.7444e+007  -7.2215e+005   1.3696e+007    0.1408   -0.0000    0.0000    0.0021    0.1191

            panel:  3     
           lam_num    nPlies        tPly      fibAng     matID  matName
               (-)       (-)         (m)       (deg)       (-)  (-)
                 1         1    0.002433      0.0000         2  (blade-shell)
                 2         1    0.000607      0.0000         6  (TEP-core)
                 3         1    0.002433      0.0000         2  (blade-shell)

               lamina:  1     
              matName:  (blade-shell)
                     s           e11           e22           e12           s11           s22           s12   s11_fcT   s11_fcC   s22_fcT   s22_fcC   s12_fcS
                   (m)         (m/m)         (m/m)         (rad)          (Pa)          (Pa)          (Pa)       (-)       (-)       (-)       (-)       (-)
                0.0000   2.8026e-003  -3.6511e-004   2.2036e-003   5.3808e+007  -1.5133e+004   8.7041e+006    0.1597   -0.0000    0.0000    0.0000    0.0757
                0.0244   2.6766e-003  -3.4870e-004   1.6770e-003   5.1389e+007  -1.4393e+004   6.6241e+006    0.1525   -0.0000    0.0000    0.0000    0.0576
                0.0499   2.5445e-003  -3.3148e-004   1.1546e-003   4.8852e+007  -1.3620e+004   4.5608e+006    0.1450   -0.0000    0.0000    0.0000    0.0397
                0.0754   2.3912e-003  -3.1151e-004   6.6291e-004   4.5910e+007  -1.2724e+004   2.6185e+006    0.1362   -0.0000    0.0000    0.0000    0.0228
                0.1007   2.2296e-003  -2.9046e-004   2.0711e-004   4.2808e+007  -1.1777e+004   8.1810e+005    0.1270   -0.0000    0.0000    0.0000    0.0071
                0.1258   2.0693e-003  -2.6956e-004   2.0890e-004   3.9729e+007  -1.0837e+004   8.2515e+005    0.1179   -0.0000    0.0000    0.0000    0.0072
                0.1506   1.8999e-003  -2.4750e-004   5.8485e-004   3.6478e+007  -9.8445e+003   2.3102e+006    0.1082   -0.0000    0.0000    0.0000    0.0201
                0.1749   1.7343e-003  -2.2591e-004   9.1887e-004   3.3297e+007  -8.8710e+003   3.6296e+006    0.0988   -0.0000    0.0000    0.0000    0.0316
                0.1986   1.5752e-003  -2.0518e-004   1.2117e-003   3.0243e+007  -7.9357e+003   4.7862e+006    0.0897   -0.0000    0.0000    0.0000    0.0416
                0.2215   1.4241e-003  -1.8549e-004   1.4652e-003   2.7342e+007  -7.0474e+003   5.7877e+006    0.0811   -0.0000    0.0000    0.0000    0.0503
                0.2438   1.2784e-003  -1.6650e-004   1.6822e-003   2.4544e+007  -6.1884e+003   6.6448e+006    0.0728   -0.0000    0.0000    0.0000    0.0578
                0.2650   1.1539e-003  -1.5028e-004   1.8653e-003   2.2154e+007  -5.4536e+003   7.3678e+006    0.0657   -0.0000    0.0000    0.0000    0.0641
                0.2853   1.0388e-003  -1.3529e-004   2.0190e-003   1.9944e+007  -4.7760e+003   7.9751e+006    0.0592   -0.0000    0.0000    0.0000    0.0693
                0.3045   9.3403e-004  -1.2164e-004   2.1470e-003   1.7933e+007  -4.1560e+003   8.4805e+006    0.0532   -0.0000    0.0000    0.0000    0.0737
                0.3225   8.5681e-004  -1.1157e-004   2.2527e-003   1.6450e+007  -3.6986e+003   8.8983e+006    0.0488   -0.0000    0.0000    0.0000    0.0774
                0.3394   7.8447e-004  -1.0215e-004   2.3408e-003   1.5061e+007  -3.2712e+003   9.2462e+006    0.0447   -0.0000    0.0000    0.0000    0.0804
                0.3550   7.3218e-004  -9.5335e-005   2.4140e-003   1.4057e+007  -2.9600e+003   9.5354e+006    0.0417   -0.0000    0.0000    0.0000    0.0829
                0.3692   6.9652e-004  -9.0688e-005   2.4755e-003   1.3373e+007  -2.7488e+003   9.7781e+006    0.0397   -0.0000    0.0000    0.0000    0.0850
                0.3821   6.6432e-004  -8.6493e-005   2.5276e-003   1.2755e+007  -2.5572e+003   9.9839e+006    0.0378   -0.0000    0.0000    0.0000    0.0868
                0.3936   6.5738e-004  -8.5589e-005   2.5721e-003   1.2621e+007  -2.5149e+003   1.0160e+007    0.0375   -0.0000    0.0000    0.0000    0.0883
                0.4037   6.5357e-004  -8.5092e-005   2.6104e-003   1.2548e+007  -2.4923e+003   1.0311e+007    0.0372   -0.0000    0.0000    0.0000    0.0897
                0.4123   6.5540e-004  -8.5330e-005   2.6432e-003   1.2583e+007  -2.5038e+003   1.0441e+007    0.0373   -0.0000    0.0000    0.0000    0.0908
                0.4194   6.6980e-004  -8.7207e-005   2.6709e-003   1.2860e+007  -2.5906e+003   1.0550e+007    0.0382   -0.0000    0.0000    0.0000    0.0917
                0.4249   6.8097e-004  -8.8662e-005   2.6932e-003   1.3074e+007  -2.6587e+003   1.0638e+007    0.0388   -0.0000    0.0000    0.0000    0.0925
                0.4290   6.9578e-004  -9.0592e-005   2.7101e-003   1.3359e+007  -2.7535e+003   1.0705e+007    0.0396   -0.0000    0.0000    0.0000    0.0931
                0.4315   7.0778e-004  -9.2157e-005   2.7206e-003   1.3589e+007  -2.8294e+003   1.0746e+007    0.0403   -0.0000    0.0000    0.0000    0.0934
                0.4323   7.1198e-004  -9.2704e-005   2.7241e-003   1.3670e+007  -2.8541e+003   1.0760e+007    0.0406   -0.0000    0.0000    0.0000    0.0936

               lamina:  2     
              matName:  (TEP-core)
                     s           e11           e22           e12           s11           s22           s12   s11_fcT   s11_fcC   s22_fcT   s22_fcC   s12_fcS
                   (m)         (m/m)         (m/m)         (rad)          (Pa)          (Pa)          (Pa)       (-)       (-)       (-)       (-)       (-)
                0.0000   2.5993e-003  -3.3868e-004   2.2036e-003   5.8621e+005   1.2233e+005   2.1595e+005    0.1366   -0.0000    0.0285   -0.0000    0.0732
                0.0244   2.4733e-003  -3.2227e-004   1.6770e-003   5.5781e+005   1.1640e+005   1.6434e+005    0.1300   -0.0000    0.0271   -0.0000    0.0557
                0.0499   2.3416e-003  -3.0511e-004   1.1546e-003   5.2811e+005   1.1020e+005   1.1315e+005    0.1231   -0.0000    0.0257   -0.0000    0.0384
                0.0754   2.1891e-003  -2.8523e-004   6.6291e-004   4.9371e+005   1.0302e+005   6.4965e+004    0.1151   -0.0000    0.0240   -0.0000    0.0220
                0.1007   2.0278e-003  -2.6421e-004   2.0711e-004   4.5732e+005   9.5432e+004   2.0297e+004    0.1066   -0.0000    0.0222   -0.0000    0.0069
                0.1258   1.8677e-003  -2.4336e-004   2.0890e-004   4.2123e+005   8.7901e+004   2.0472e+004    0.0982   -0.0000    0.0205   -0.0000    0.0069
                0.1506   1.6987e-003  -2.2133e-004   5.8485e-004   3.8311e+005   7.9946e+004   5.7315e+004    0.0893   -0.0000    0.0186   -0.0000    0.0194
                0.1749   1.5330e-003  -1.9974e-004   9.1887e-004   3.4573e+005   7.2146e+004   9.0050e+004    0.0806   -0.0000    0.0168   -0.0000    0.0305
                0.1986   1.3737e-003  -1.7899e-004   1.2117e-003   3.0982e+005   6.4653e+004   1.1875e+005    0.0722   -0.0000    0.0151   -0.0000    0.0403
                0.2215   1.2225e-003  -1.5929e-004   1.4652e-003   2.7572e+005   5.7536e+004   1.4359e+005    0.0643   -0.0000    0.0134   -0.0000    0.0487
                0.2438   1.0763e-003  -1.4024e-004   1.6822e-003   2.4274e+005   5.0656e+004   1.6486e+005    0.0566   -0.0000    0.0118   -0.0000    0.0559
                0.2650   9.5128e-004  -1.2395e-004   1.8653e-003   2.1454e+005   4.4771e+004   1.8280e+005    0.0500   -0.0000    0.0104   -0.0000    0.0620
                0.2853   8.3594e-004  -1.0892e-004   2.0190e-003   1.8853e+005   3.9343e+004   1.9786e+005    0.0439   -0.0000    0.0092   -0.0000    0.0671
                0.3045   7.3046e-004  -9.5172e-005   2.1470e-003   1.6474e+005   3.4379e+004   2.1040e+005    0.0384   -0.0000    0.0080   -0.0000    0.0713
                0.3225   6.5266e-004  -8.5034e-005   2.2527e-003   1.4719e+005   3.0717e+004   2.2077e+005    0.0343   -0.0000    0.0072   -0.0000    0.0748
                0.3394   5.7994e-004  -7.5559e-005   2.3408e-003   1.3079e+005   2.7295e+004   2.2940e+005    0.0305   -0.0000    0.0064   -0.0000    0.0778
                0.3550   5.2702e-004  -6.8664e-005   2.4140e-003   1.1886e+005   2.4804e+004   2.3657e+005    0.0277   -0.0000    0.0058   -0.0000    0.0802
                0.3692   4.9110e-004  -6.3983e-005   2.4755e-003   1.1076e+005   2.3114e+004   2.4260e+005    0.0258   -0.0000    0.0054   -0.0000    0.0822
                0.3821   4.5852e-004  -5.9738e-005   2.5276e-003   1.0341e+005   2.1581e+004   2.4770e+005    0.0241   -0.0000    0.0050   -0.0000    0.0840
                0.3936   4.5134e-004  -5.8802e-005   2.5721e-003   1.0179e+005   2.1243e+004   2.5206e+005    0.0237   -0.0000    0.0050   -0.0000    0.0854
                0.4037   4.4750e-004  -5.8301e-005   2.6104e-003   1.0092e+005   2.1062e+004   2.5581e+005    0.0235   -0.0000    0.0049   -0.0000    0.0867
                0.4123   4.4944e-004  -5.8555e-005   2.6432e-003   1.0136e+005   2.1153e+004   2.5904e+005    0.0236   -0.0000    0.0049   -0.0000    0.0878
                0.4194   4.6418e-004  -6.0475e-005   2.6709e-003   1.0469e+005   2.1847e+004   2.6175e+005    0.0244   -0.0000    0.0051   -0.0000    0.0887
                0.4249   4.7574e-004  -6.1982e-005   2.6932e-003   1.0729e+005   2.2391e+004   2.6393e+005    0.0250   -0.0000    0.0052   -0.0000    0.0895
                0.4290   4.9174e-004  -6.4067e-005   2.7101e-003   1.1090e+005   2.3144e+004   2.6559e+005    0.0259   -0.0000    0.0054   -0.0000    0.0900
                0.4315   5.0457e-004  -6.5738e-005   2.7206e-003   1.1380e+005   2.3748e+004   2.6662e+005    0.0265   -0.0000    0.0055   -0.0000    0.0904
                0.4323   5.0877e-004  -6.6285e-005   2.7241e-003   1.1474e+005   2.3945e+004   2.6696e+005    0.0267   -0.0000    0.0056   -0.0000    0.0905

               lamina:  3     
              matName:  (blade-shell)
                     s           e11           e22           e12           s11           s22           s12   s11_fcT   s11_fcC   s22_fcT   s22_fcC   s12_fcS
                   (m)         (m/m)         (m/m)         (rad)          (Pa)          (Pa)          (Pa)       (-)       (-)       (-)       (-)       (-)
                0.0000   2.5485e-003  -3.3208e-004   2.2036e-003   4.8930e+007  -1.5116e+004   8.7041e+006    0.1452   -0.0000    0.0000    0.0000    0.0757
                0.0244   2.4226e-003  -3.1567e-004   1.6770e-003   4.6511e+007  -1.4376e+004   6.6241e+006    0.1380   -0.0000    0.0000    0.0000    0.0576
                0.0499   2.2910e-003  -2.9852e-004   1.1546e-003   4.3985e+007  -1.3603e+004   4.5608e+006    0.1305   -0.0000    0.0000    0.0000    0.0397
                0.0754   2.1386e-003  -2.7867e-004   6.6291e-004   4.1060e+007  -1.2708e+004   2.6185e+006    0.1218   -0.0000    0.0000    0.0000    0.0228
                0.1007   1.9774e-003  -2.5766e-004   2.0711e-004   3.7964e+007  -1.1761e+004   8.1810e+005    0.1127   -0.0000    0.0000    0.0000    0.0071
                0.1258   1.8174e-003  -2.3682e-004   2.0890e-004   3.4893e+007  -1.0821e+004   8.2515e+005    0.1035   -0.0000    0.0000    0.0000    0.0072
                0.1506   1.6485e-003  -2.1480e-004   5.8485e-004   3.1649e+007  -9.8283e+003   2.3102e+006    0.0939   -0.0000    0.0000    0.0000    0.0201
                0.1749   1.4827e-003  -1.9321e-004   9.1887e-004   2.8467e+007  -8.8548e+003   3.6296e+006    0.0845   -0.0000    0.0000    0.0000    0.0316
                0.1986   1.3235e-003  -1.7245e-004   1.2117e-003   2.5409e+007  -7.9195e+003   4.7862e+006    0.0754   -0.0000    0.0000    0.0000    0.0416
                0.2215   1.1722e-003  -1.5275e-004   1.4652e-003   2.2505e+007  -7.0312e+003   5.7877e+006    0.0668   -0.0000    0.0000    0.0000    0.0503
                0.2438   1.0259e-003  -1.3368e-004   1.6822e-003   1.9696e+007  -6.1721e+003   6.6448e+006    0.0584   -0.0000    0.0000    0.0000    0.0578
                0.2650   9.0071e-004  -1.1737e-004   1.8653e-003   1.7293e+007  -5.4373e+003   7.3678e+006    0.0513   -0.0000    0.0000    0.0000    0.0641
                0.2853   7.8531e-004  -1.0233e-004   2.0190e-003   1.5077e+007  -4.7596e+003   7.9751e+006    0.0447   -0.0000    0.0000    0.0000    0.0693
                0.3045   6.7965e-004  -8.8566e-005   2.1470e-003   1.3049e+007  -4.1396e+003   8.4805e+006    0.0387   -0.0000    0.0000    0.0000    0.0737
                0.3225   6.0170e-004  -7.8410e-005   2.2527e-003   1.1552e+007  -3.6821e+003   8.8983e+006    0.0343   -0.0000    0.0000    0.0000    0.0774
                0.3394   5.2889e-004  -6.8922e-005   2.3408e-003   1.0154e+007  -3.2548e+003   9.2462e+006    0.0301   -0.0000    0.0000    0.0000    0.0804
                0.3550   4.7581e-004  -6.2006e-005   2.4140e-003   9.1352e+006  -2.9435e+003   9.5354e+006    0.0271   -0.0000    0.0000    0.0000    0.0829
                0.3692   4.3982e-004  -5.7317e-005   2.4755e-003   8.4442e+006  -2.7323e+003   9.7781e+006    0.0251   -0.0000    0.0000    0.0000    0.0850
                0.3821   4.0715e-004  -5.3059e-005   2.5276e-003   7.8169e+006  -2.5406e+003   9.9839e+006    0.0232   -0.0000    0.0000    0.0000    0.0868
                0.3936   3.9990e-004  -5.2115e-005   2.5721e-003   7.6778e+006  -2.4982e+003   1.0160e+007    0.0228   -0.0000    0.0000    0.0000    0.0883
                0.4037   3.9606e-004  -5.1614e-005   2.6104e-003   7.6040e+006  -2.4757e+003   1.0311e+007    0.0226   -0.0000    0.0000    0.0000    0.0897
                0.4123   3.9803e-004  -5.1871e-005   2.6432e-003   7.6419e+006  -2.4872e+003   1.0441e+007    0.0227   -0.0000    0.0000    0.0000    0.0908
                0.4194   4.1285e-004  -5.3802e-005   2.6709e-003   7.9264e+006  -2.5740e+003   1.0550e+007    0.0235   -0.0000    0.0000    0.0000    0.0917
                0.4249   4.2451e-004  -5.5322e-005   2.6932e-003   8.1503e+006  -2.6422e+003   1.0638e+007    0.0242   -0.0000    0.0000    0.0000    0.0925
                0.4290   4.4081e-004  -5.7446e-005   2.7101e-003   8.4633e+006  -2.7371e+003   1.0705e+007    0.0251   -0.0000    0.0000    0.0000    0.0931
                0.4315   4.5384e-004  -5.9144e-005   2.7206e-003   8.7134e+006  -2.8130e+003   1.0746e+007    0.0259   -0.0000    0.0000    0.0000    0.0934
                0.4323   4.5804e-004  -5.9691e-005   2.7241e-003   8.7941e+006  -2.8377e+003   1.0760e+007    0.0261   -0.0000    0.0000    0.0000    0.0936

     Web:  panel  nNode   nLam     xc_St    xc_End         b         t         E_eff         G_eff      nu_eff     density  buckleCrit
            (-)    (-)    (-)       (-)       (-)       (m)       (m)          (Pa)          (Pa)         (-)    (kg/m^3)         (-)
              1     10      3    0.2300    0.2300    0.1695    0.0121   6.5707e+009   1.3870e+009      0.1347    691.8994      0.0045
              2     10      3    0.4700    0.4700    0.1624    0.0121   6.5707e+009   1.3870e+009      0.1347    691.8994      0.0050

            panel:  1     
           lam_num    nPlies        tPly      fibAng     matID  matName
               (-)       (-)         (m)       (deg)       (-)  (-)
                 1         1    0.002023      0.0000         7  (web-shell)
                 2         1    0.008047      0.0000         8  (web-core)
                 3         1    0.002023      0.0000         7  (web-shell)

               lamina:  1     
              matName:  (web-shell)
                     s           e11           e22           e12           s11           s22           s12   s11_fcT   s11_fcC   s22_fcT   s22_fcC   s12_fcS
                   (m)         (m/m)         (m/m)         (rad)          (Pa)          (Pa)          (Pa)       (-)       (-)       (-)       (-)       (-)
                0.0000  -2.7299e-003   3.6769e-004   6.1383e-003  -5.2382e+007   2.5006e+005   2.4246e+007    0.0000    0.1054    0.0007   -0.0000    0.2108
                0.0188  -2.1334e-003   2.8735e-004   6.5246e-003  -4.0936e+007   1.9547e+005   2.5772e+007    0.0000    0.0824    0.0006   -0.0000    0.2241
                0.0377  -1.5369e-003   2.0700e-004   6.8166e-003  -2.9489e+007   1.4087e+005   2.6925e+007    0.0000    0.0593    0.0004   -0.0000    0.2341
                0.0565  -9.4033e-004   1.2666e-004   7.0142e-003  -1.8043e+007   8.6274e+004   2.7706e+007    0.0000    0.0363    0.0003   -0.0000    0.2409
                0.0753  -3.4381e-004   4.6317e-005   7.1176e-003  -6.5970e+006   3.1678e+004   2.8115e+007    0.0000    0.0133    0.0001   -0.0000    0.2445
                0.0942   2.5420e-004  -3.4221e-005   7.1267e-003   4.8776e+006  -2.2948e+004   2.8151e+007    0.0145   -0.0000    0.0000    0.0001    0.2448
                0.1130   8.5073e-004  -1.1456e-004   7.0415e-003   1.6324e+007  -7.7544e+004   2.7814e+007    0.0484   -0.0000    0.0000    0.0002    0.2419
                0.1318   1.4473e-003  -1.9491e-004   6.8621e-003   2.7770e+007  -1.3214e+005   2.7105e+007    0.0824   -0.0000    0.0000    0.0004    0.2357
                0.1507   2.0438e-003  -2.7525e-004   6.5883e-003   3.9216e+007  -1.8674e+005   2.6024e+007    0.1164   -0.0000    0.0000    0.0006    0.2263
                0.1695   2.6403e-003  -3.5560e-004   6.2203e-003   5.0663e+007  -2.4133e+005   2.4570e+007    0.1503   -0.0000    0.0000    0.0007    0.2137

               lamina:  2     
              matName:  (web-core)
                     s           e11           e22           e12           s11           s22           s12   s11_fcT   s11_fcC   s22_fcT   s22_fcC   s12_fcS
                   (m)         (m/m)         (m/m)         (rad)          (Pa)          (Pa)          (Pa)       (-)       (-)       (-)       (-)       (-)
                0.0000  -2.7358e-003   3.6846e-004   6.1383e-003  -6.1607e+005  -1.2593e+005   6.0156e+005    0.0000    0.1436    0.0000    0.0294    0.2039
                0.0188  -2.1393e-003   2.8812e-004   6.5246e-003  -4.8174e+005  -9.8469e+004   6.3941e+005    0.0000    0.1123    0.0000    0.0230    0.2167
                0.0377  -1.5427e-003   2.0777e-004   6.8166e-003  -3.4741e+005  -7.1012e+004   6.6802e+005    0.0000    0.0810    0.0000    0.0166    0.2264
                0.0565  -9.4621e-004   1.2743e-004   7.0142e-003  -2.1308e+005  -4.3555e+004   6.8739e+005    0.0000    0.0497    0.0000    0.0102    0.2330
                0.0753  -3.4968e-004   4.7086e-005   7.1176e-003  -7.8745e+004  -1.6098e+004   6.9753e+005    0.0000    0.0184    0.0000    0.0038    0.2364
                0.0942   2.5272e-004  -3.4027e-005   7.1267e-003   5.6911e+004   1.1635e+004   6.9842e+005    0.0133   -0.0000    0.0027   -0.0000    0.2368
                0.1130   8.4925e-004  -1.1437e-004   7.0415e-003   1.9124e+005   3.9092e+004   6.9007e+005    0.0446   -0.0000    0.0091   -0.0000    0.2339
                0.1318   1.4458e-003  -1.9472e-004   6.8621e-003   3.2557e+005   6.6549e+004   6.7248e+005    0.0759   -0.0000    0.0155   -0.0000    0.2280
                0.1507   2.0423e-003  -2.7506e-004   6.5883e-003   4.5991e+005   9.4006e+004   6.4566e+005    0.1072   -0.0000    0.0219   -0.0000    0.2189
                0.1695   2.6388e-003  -3.5540e-004   6.2203e-003   5.9424e+005   1.2146e+005   6.0959e+005    0.1385   -0.0000    0.0283   -0.0000    0.2066

               lamina:  3     
              matName:  (web-shell)
                     s           e11           e22           e12           s11           s22           s12   s11_fcT   s11_fcC   s22_fcT   s22_fcC   s12_fcS
                   (m)         (m/m)         (m/m)         (rad)          (Pa)          (Pa)          (Pa)       (-)       (-)       (-)       (-)       (-)
                0.0000  -2.7373e-003   3.6866e-004   6.1383e-003  -5.2523e+007   2.5021e+005   2.4246e+007    0.0000    0.1057    0.0007   -0.0000    0.2108
                0.0188  -2.1407e-003   2.8831e-004   6.5246e-003  -4.1077e+007   1.9561e+005   2.5772e+007    0.0000    0.0826    0.0006   -0.0000    0.2241
                0.0377  -1.5442e-003   2.0797e-004   6.8166e-003  -2.9631e+007   1.4101e+005   2.6925e+007    0.0000    0.0596    0.0004   -0.0000    0.2341
                0.0565  -9.4768e-004   1.2762e-004   7.0142e-003  -1.8184e+007   8.6418e+004   2.7706e+007    0.0000    0.0366    0.0003   -0.0000    0.2409
                0.0753  -3.5116e-004   4.7280e-005   7.1176e-003  -6.7380e+006   3.1822e+004   2.8115e+007    0.0000    0.0136    0.0001   -0.0000    0.2445
                0.0942   2.4685e-004  -3.3258e-005   7.1267e-003   4.7365e+006  -2.2804e+004   2.8151e+007    0.0141   -0.0000    0.0000    0.0001    0.2448
                0.1130   8.4338e-004  -1.1360e-004   7.0415e-003   1.6183e+007  -7.7400e+004   2.7814e+007    0.0480   -0.0000    0.0000    0.0002    0.2419
                0.1318   1.4399e-003  -1.9395e-004   6.8621e-003   2.7629e+007  -1.3200e+005   2.7105e+007    0.0820   -0.0000    0.0000    0.0004    0.2357
                0.1507   2.0364e-003  -2.7429e-004   6.5883e-003   3.9075e+007  -1.8659e+005   2.6024e+007    0.1160   -0.0000    0.0000    0.0006    0.2263
                0.1695   2.6330e-003  -3.5463e-004   6.2203e-003   5.0521e+007  -2.4119e+005   2.4570e+007    0.1499   -0.0000    0.0000    0.0007    0.2137

            panel:  2     
           lam_num    nPlies        tPly      fibAng     matID  matName
               (-)       (-)         (m)       (deg)       (-)  (-)
                 1         1    0.002023      0.0000         7  (web-shell)
                 2         1    0.008047      0.0000         8  (web-core)
                 3         1    0.002023      0.0000         7  (web-shell)

               lamina:  1     
              matName:  (web-shell)
                     s           e11           e22           e12           s11           s22           s12   s11_fcT   s11_fcC   s22_fcT   s22_fcC   s12_fcS
                   (m)         (m/m)         (m/m)         (rad)          (Pa)          (Pa)          (Pa)       (-)       (-)       (-)       (-)       (-)
                0.0000  -2.6675e-003   3.5928e-004   7.3482e-003  -5.1184e+007   2.4433e+005   2.9025e+007    0.0000    0.1030    0.0007   -0.0000    0.2524
                0.0180  -2.0959e-003   2.8229e-004   7.7092e-003  -4.0216e+007   1.9201e+005   3.0451e+007    0.0000    0.0809    0.0006   -0.0000    0.2648
                0.0361  -1.5242e-003   2.0530e-004   7.9837e-003  -2.9247e+007   1.3969e+005   3.1535e+007    0.0000    0.0588    0.0004   -0.0000    0.2742
                0.0541  -9.5258e-004   1.2831e-004   8.1715e-003  -1.8278e+007   8.7373e+004   3.2278e+007    0.0000    0.0368    0.0003   -0.0000    0.2807
                0.0722  -3.8095e-004   5.1318e-005   8.2728e-003  -7.3096e+006   3.5055e+004   3.2678e+007    0.0000    0.0147    0.0001   -0.0000    0.2842
                0.0902   1.9201e-004  -2.5847e-005   8.2875e-003   3.6844e+006  -1.7290e+004   3.2736e+007    0.0109   -0.0000    0.0000    0.0001    0.2847
                0.1083   7.6365e-004  -1.0284e-004   8.2156e-003   1.4653e+007  -6.9608e+004   3.2452e+007    0.0435   -0.0000    0.0000    0.0002    0.2822
                0.1263   1.3353e-003  -1.7983e-004   8.0572e-003   2.5622e+007  -1.2193e+005   3.1826e+007    0.0760   -0.0000    0.0000    0.0004    0.2767
                0.1444   1.9069e-003  -2.5682e-004   7.8121e-003   3.6590e+007  -1.7424e+005   3.0858e+007    0.1086   -0.0000    0.0000    0.0005    0.2683
                0.1624   2.4786e-003  -3.3381e-004   7.4805e-003   4.7559e+007  -2.2656e+005   2.9548e+007    0.1411   -0.0000    0.0000    0.0007    0.2569

               lamina:  2     
              matName:  (web-core)
                     s           e11           e22           e12           s11           s22           s12   s11_fcT   s11_fcC   s22_fcT   s22_fcC   s12_fcS
                   (m)         (m/m)         (m/m)         (rad)          (Pa)          (Pa)          (Pa)       (-)       (-)       (-)       (-)       (-)
                0.0000  -2.6728e-003   3.5997e-004   7.3482e-003  -6.0188e+005  -1.2302e+005   7.2012e+005    0.0000    0.1403    0.0000    0.0287    0.2441
                0.0180  -2.1011e-003   2.8298e-004   7.7092e-003  -4.7315e+005  -9.6713e+004   7.5550e+005    0.0000    0.1103    0.0000    0.0225    0.2561
                0.0361  -1.5295e-003   2.0599e-004   7.9837e-003  -3.4442e+005  -7.0402e+004   7.8240e+005    0.0000    0.0803    0.0000    0.0164    0.2652
                0.0541  -9.5784e-004   1.2900e-004   8.1715e-003  -2.1570e+005  -4.4090e+004   8.0081e+005    0.0000    0.0503    0.0000    0.0103    0.2715
                0.0722  -3.8620e-004   5.2007e-005   8.2728e-003  -8.6970e+004  -1.7779e+004   8.1074e+005    0.0000    0.0203    0.0000    0.0041    0.2748
                0.0902   1.9069e-004  -2.5674e-005   8.2875e-003   4.2942e+004   8.7795e+003   8.1218e+005    0.0100   -0.0000    0.0020   -0.0000    0.2753
                0.1083   7.6233e-004  -1.0267e-004   8.2156e-003   1.7167e+005   3.5091e+004   8.0513e+005    0.0400   -0.0000    0.0082   -0.0000    0.2729
                0.1263   1.3340e-003  -1.7966e-004   8.0572e-003   3.0040e+005   6.1403e+004   7.8960e+005    0.0700   -0.0000    0.0143   -0.0000    0.2677
                0.1444   1.9056e-003  -2.5665e-004   7.8121e-003   4.2912e+005   8.7714e+004   7.6559e+005    0.1000   -0.0000    0.0204   -0.0000    0.2595
                0.1624   2.4772e-003  -3.3364e-004   7.4805e-003   5.5785e+005   1.1403e+005   7.3309e+005    0.1300   -0.0000    0.0266   -0.0000    0.2485

               lamina:  3     
              matName:  (web-shell)
                     s           e11           e22           e12           s11           s22           s12   s11_fcT   s11_fcC   s22_fcT   s22_fcC   s12_fcS
                   (m)         (m/m)         (m/m)         (rad)          (Pa)          (Pa)          (Pa)       (-)       (-)       (-)       (-)       (-)
                0.0000  -2.6741e-003   3.6015e-004   7.3482e-003  -5.1310e+007   2.4446e+005   2.9025e+007    0.0000    0.1032    0.0007   -0.0000    0.2524
                0.0180  -2.1024e-003   2.8316e-004   7.7092e-003  -4.0342e+007   1.9214e+005   3.0451e+007    0.0000    0.0812    0.0006   -0.0000    0.2648
                0.0361  -1.5308e-003   2.0616e-004   7.9837e-003  -2.9373e+007   1.3982e+005   3.1535e+007    0.0000    0.0591    0.0004   -0.0000    0.2742
                0.0541  -9.5916e-004   1.2917e-004   8.1715e-003  -1.8405e+007   8.7502e+004   3.2278e+007    0.0000    0.0370    0.0003   -0.0000    0.2807
                0.0722  -3.8753e-004   5.2180e-005   8.2728e-003  -7.4359e+006   3.5184e+004   3.2678e+007    0.0000    0.0150    0.0001   -0.0000    0.2842
                0.0902   1.8543e-004  -2.4985e-005   8.2875e-003   3.5581e+006  -1.7161e+004   3.2736e+007    0.0106   -0.0000    0.0000    0.0001    0.2847
                0.1083   7.5707e-004  -1.0198e-004   8.2156e-003   1.4527e+007  -6.9479e+004   3.2452e+007    0.0431   -0.0000    0.0000    0.0002    0.2822
                0.1263   1.3287e-003  -1.7897e-004   8.0572e-003   2.5495e+007  -1.2180e+005   3.1826e+007    0.0757   -0.0000    0.0000    0.0004    0.2767
                0.1444   1.9003e-003  -2.5596e-004   7.8121e-003   3.6464e+007  -1.7412e+005   3.0858e+007    0.1082   -0.0000    0.0000    0.0005    0.2683
                0.1624   2.4720e-003  -3.3295e-004   7.4805e-003   4.7433e+007  -2.2643e+005   2.9548e+007    0.1407   -0.0000    0.0000    0.0007    0.2569

================================================================================
sec        =  28     
zSec       =  8.1000  (m)
nPanelsTop =  3      
nPanelsBot =  3      
nWebs      =  2      

    Top:  panel  nNode   nLam     xc_St    xc_End         b         t         E_eff         G_eff      nu_eff     density  buckleCrit
            (-)    (-)    (-)       (-)       (-)       (m)       (m)          (Pa)          (Pa)         (-)    (kg/m^3)         (-)
              1     17      3    0.0000    0.2281    0.2016    0.0046   1.8600e+010   3.8283e+009      0.1301   1623.5403      0.1046
              2     11      5    0.2281    0.4719    0.1830    0.0052   3.1467e+010   4.0059e+009      0.1399   1632.7549      0.3368
              3     27      3    0.4719    1.0000    0.4081    0.0049   1.7578e+010   3.6208e+009      0.1302   1544.3704      0.5219

            panel:  1     
           lam_num    nPlies        tPly      fibAng     matID  matName
               (-)       (-)         (m)       (deg)       (-)  (-)
                 1         1    0.002251      0.0000         2  (blade-shell)
                 2         1    0.000147      0.0000         5  (LEP-core)
                 3         1    0.002251      0.0000         2  (blade-shell)

               lamina:  1     
              matName:  (blade-shell)
                     s           e11           e22           e12           s11           s22           s12   s11_fcT   s11_fcC   s22_fcT   s22_fcC   s12_fcS
                   (m)         (m/m)         (m/m)         (rad)          (Pa)          (Pa)          (Pa)       (-)       (-)       (-)       (-)       (-)
                0.0000   1.9111e-004  -2.4859e-005   3.2215e-003   3.6693e+006  -2.9655e+002   1.2725e+007    0.0109   -0.0000    0.0000    0.0000    0.1107
                0.0024   1.3415e-004  -1.7450e-005   3.2257e-003   2.5757e+006  -2.0896e+002   1.2742e+007    0.0076   -0.0000    0.0000    0.0000    0.1108
                0.0094  -9.5940e-005   1.2475e-005   3.2290e-003  -1.8421e+006   4.8792e+001   1.2754e+007    0.0000    0.0037    0.0000   -0.0000    0.1109
                0.0181  -3.2413e-004   4.2156e-005   3.2147e-003  -6.2233e+006   3.5719e+002   1.2698e+007    0.0000    0.0125    0.0000   -0.0000    0.1104
                0.0255  -4.8655e-004   6.3280e-005   3.1879e-003  -9.3416e+006   5.7312e+002   1.2592e+007    0.0000    0.0188    0.0000   -0.0000    0.1095
                0.0354  -6.8232e-004   8.8746e-005   3.1342e-003  -1.3100e+007   8.5890e+002   1.2380e+007    0.0000    0.0264    0.0000   -0.0000    0.1077
                0.0455  -8.5680e-004   1.1144e-004   3.0585e-003  -1.6450e+007   1.1082e+003   1.2081e+007    0.0000    0.0331    0.0000   -0.0000    0.1051
                0.0570  -1.0302e-003   1.3399e-004   2.9508e-003  -1.9779e+007   1.3688e+003   1.1656e+007    0.0000    0.0398    0.0000   -0.0000    0.1014
                0.0700  -1.2235e-003   1.5914e-004   2.8039e-003  -2.3491e+007   1.6540e+003   1.1076e+007    0.0000    0.0473    0.0000   -0.0000    0.0963
                0.0832  -1.3750e-003   1.7885e-004   2.6283e-003  -2.6401e+007   1.8777e+003   1.0382e+007    0.0000    0.0531    0.0000   -0.0000    0.0903
                0.0979  -1.5394e-003   2.0023e-004   2.4068e-003  -2.9556e+007   2.1270e+003   9.5069e+006    0.0000    0.0595    0.0000   -0.0000    0.0827
                0.1135  -1.6936e-003   2.2029e-004   2.1450e-003  -3.2517e+007   2.3579e+003   8.4729e+006    0.0000    0.0654    0.0000   -0.0000    0.0737
                0.1300  -1.8282e-003   2.3780e-004   1.8419e-003  -3.5101e+007   2.5620e+003   7.2755e+006    0.0000    0.0706    0.0000   -0.0000    0.0633
                0.1475  -1.9723e-003   2.5655e-004   1.4907e-003  -3.7869e+007   2.7801e+003   5.8884e+006    0.0000    0.0762    0.0000   -0.0000    0.0512
                0.1656  -2.0808e-003   2.7065e-004   1.1029e-003  -3.9950e+007   2.9433e+003   4.3564e+006    0.0000    0.0804    0.0000   -0.0000    0.0379
                0.1847  -2.1853e-003   2.8425e-004   6.7126e-004  -4.1958e+007   3.1031e+003   2.6515e+006    0.0000    0.0844    0.0000   -0.0000    0.0231
                0.2016  -2.2685e-003   2.9506e-004   2.7300e-004  -4.3554e+007   3.2303e+003   1.0783e+006    0.0000    0.0876    0.0000   -0.0000    0.0094

               lamina:  2     
              matName:  (LEP-core)
                     s           e11           e22           e12           s11           s22           s12   s11_fcT   s11_fcC   s22_fcT   s22_fcC   s12_fcS
                   (m)         (m/m)         (m/m)         (rad)          (Pa)          (Pa)          (Pa)       (-)       (-)       (-)       (-)       (-)
                0.0000   1.9461e-004  -2.5314e-005   3.2215e-003   4.3893e+004   9.1687e+003   3.1571e+005    0.0102   -0.0000    0.0021   -0.0000    0.1070
                0.0024   1.3765e-004  -1.7905e-005   3.2257e-003   3.1046e+004   6.4852e+003   3.1612e+005    0.0072   -0.0000    0.0015   -0.0000    0.1072
                0.0094  -3.3701e-005   4.3836e-006   3.2290e-003  -7.6012e+003  -1.5878e+003   3.1644e+005    0.0000    0.0018    0.0000    0.0004    0.1073
                0.0181  -2.3511e-004   3.0583e-005   3.2147e-003  -5.3029e+004  -1.1077e+004   3.1504e+005    0.0000    0.0124    0.0000    0.0026    0.1068
                0.0255  -3.7622e-004   4.8938e-005   3.1879e-003  -8.4855e+004  -1.7725e+004   3.1241e+005    0.0000    0.0198    0.0000    0.0041    0.1059
                0.0354  -5.6237e-004   7.3152e-005   3.1342e-003  -1.2684e+005  -2.6496e+004   3.0715e+005    0.0000    0.0296    0.0000    0.0062    0.1041
                0.0455  -7.2490e-004   9.4293e-005   3.0585e-003  -1.6350e+005  -3.4153e+004   2.9974e+005    0.0000    0.0381    0.0000    0.0080    0.1016
                0.0570  -8.9446e-004   1.1635e-004   2.9508e-003  -2.0174e+005  -4.2142e+004   2.8918e+005    0.0000    0.0470    0.0000    0.0098    0.0980
                0.0700  -1.0802e-003   1.4051e-004   2.8039e-003  -2.4363e+005  -5.0891e+004   2.7479e+005    0.0000    0.0568    0.0000    0.0119    0.0931
                0.0832  -1.2258e-003   1.5945e-004   2.6283e-003  -2.7648e+005  -5.7754e+004   2.5757e+005    0.0000    0.0644    0.0000    0.0135    0.0873
                0.0979  -1.3881e-003   1.8056e-004   2.4068e-003  -3.1308e+005  -6.5399e+004   2.3587e+005    0.0000    0.0730    0.0000    0.0152    0.0800
                0.1135  -1.5384e-003   2.0011e-004   2.1450e-003  -3.4697e+005  -7.2478e+004   2.1021e+005    0.0000    0.0809    0.0000    0.0169    0.0713
                0.1300  -1.6712e-003   2.1738e-004   1.8419e-003  -3.7693e+005  -7.8735e+004   1.8051e+005    0.0000    0.0879    0.0000    0.0184    0.0612
                0.1475  -1.8130e-003   2.3584e-004   1.4907e-003  -4.0893e+005  -8.5420e+004   1.4609e+005    0.0000    0.0953    0.0000    0.0199    0.0495
                0.1656  -1.9193e-003   2.4966e-004   1.1029e-003  -4.3289e+005  -9.0425e+004   1.0808e+005    0.0000    0.1009    0.0000    0.0211    0.0366
                0.1847  -2.0232e-003   2.6318e-004   6.7126e-004  -4.5633e+005  -9.5322e+004   6.5784e+004    0.0000    0.1064    0.0000    0.0222    0.0223
                0.2016  -2.1059e-003   2.7394e-004   2.7300e-004  -4.7499e+005  -9.9220e+004   2.6754e+004    0.0000    0.1107    0.0000    0.0231    0.0091

               lamina:  3     
              matName:  (blade-shell)
                     s           e11           e22           e12           s11           s22           s12   s11_fcT   s11_fcC   s22_fcT   s22_fcC   s12_fcS
                   (m)         (m/m)         (m/m)         (rad)          (Pa)          (Pa)          (Pa)       (-)       (-)       (-)       (-)       (-)
                0.0000   2.4817e-004  -3.2278e-005   3.2215e-003   4.7649e+006  -2.9663e+002   1.2725e+007    0.0141   -0.0000    0.0000    0.0000    0.1107
                0.0024   1.9121e-004  -2.4869e-005   3.2257e-003   3.6713e+006  -2.0905e+002   1.2742e+007    0.0109   -0.0000    0.0000    0.0000    0.1108
                0.0094   3.2601e-005  -4.2357e-006   3.2290e-003   6.2595e+005   4.8694e+001   1.2754e+007    0.0019   -0.0000    0.0000   -0.0000    0.1109
                0.0181  -2.2930e-004   2.9827e-005   3.2147e-003  -4.4025e+006   3.5705e+002   1.2698e+007    0.0000    0.0089    0.0000   -0.0000    0.1104
                0.0255  -3.6902e-004   4.8001e-005   3.1879e-003  -7.0850e+006   5.7295e+002   1.2592e+007    0.0000    0.0143    0.0000   -0.0000    0.1095
                0.0354  -5.5454e-004   7.2134e-005   3.1342e-003  -1.0647e+007   8.5871e+002   1.2380e+007    0.0000    0.0214    0.0000   -0.0000    0.1077
                0.0455  -7.1629e-004   9.3174e-005   3.0585e-003  -1.3753e+007   1.1080e+003   1.2081e+007    0.0000    0.0277    0.0000   -0.0000    0.1051
                0.0570  -8.8560e-004   1.1520e-004   2.9508e-003  -1.7003e+007   1.3685e+003   1.1656e+007    0.0000    0.0342    0.0000   -0.0000    0.1014
                0.0700  -1.0708e-003   1.3929e-004   2.8039e-003  -2.0559e+007   1.6537e+003   1.1076e+007    0.0000    0.0414    0.0000   -0.0000    0.0963
                0.0832  -1.2161e-003   1.5819e-004   2.6283e-003  -2.3349e+007   1.8774e+003   1.0382e+007    0.0000    0.0470    0.0000   -0.0000    0.0903
                0.0979  -1.3782e-003   1.7928e-004   2.4068e-003  -2.6462e+007   2.1268e+003   9.5069e+006    0.0000    0.0532    0.0000   -0.0000    0.0827
                0.1135  -1.5282e-003   1.9879e-004   2.1450e-003  -2.9342e+007   2.3577e+003   8.4729e+006    0.0000    0.0590    0.0000   -0.0000    0.0737
                0.1300  -1.6609e-003   2.1605e-004   1.8419e-003  -3.1889e+007   2.5618e+003   7.2755e+006    0.0000    0.0642    0.0000   -0.0000    0.0633
                0.1475  -1.8026e-003   2.3449e-004   1.4907e-003  -3.4611e+007   2.7798e+003   5.8884e+006    0.0000    0.0696    0.0000   -0.0000    0.0512
                0.1656  -1.9087e-003   2.4829e-004   1.1029e-003  -3.6647e+007   2.9431e+003   4.3564e+006    0.0000    0.0737    0.0000   -0.0000    0.0379
                0.1847  -2.0126e-003   2.6180e-004   6.7126e-004  -3.8642e+007   3.1028e+003   2.6515e+006    0.0000    0.0778    0.0000   -0.0000    0.0231
                0.2016  -2.0953e-003   2.7256e-004   2.7300e-004  -4.0230e+007   3.2300e+003   1.0783e+006    0.0000    0.0809    0.0000   -0.0000    0.0094

            panel:  2     
           lam_num    nPlies        tPly      fibAng     matID  matName
               (-)       (-)         (m)       (deg)       (-)  (-)
                 1         1    0.002251      0.0000         2  (blade-shell)
                 2         1    0.000309      0.0000         3  (spar-uni)
                 3         1    0.000047      0.0000         4  (spar-core)
                 4         1    0.000309      0.0000         3  (spar-uni)
                 5         1    0.002251      0.0000         2  (blade-shell)

               lamina:  1     
              matName:  (blade-shell)
                     s           e11           e22           e12           s11           s22           s12   s11_fcT   s11_fcC   s22_fcT   s22_fcC   s12_fcS
                   (m)         (m/m)         (m/m)         (rad)          (Pa)          (Pa)          (Pa)       (-)       (-)       (-)       (-)       (-)
                0.0000  -2.4061e-003   3.3355e-004   4.0010e-003  -4.6145e+007   4.0532e+005   1.5804e+007    0.0000    0.0928    0.0012   -0.0000    0.1374
                0.0029  -2.4241e-003   3.3603e-004   3.8876e-003  -4.6489e+007   4.0812e+005   1.5356e+007    0.0000    0.0935    0.0012   -0.0000    0.1335
                0.0234  -2.4844e-003   3.4446e-004   3.0756e-003  -4.7645e+007   4.1969e+005   1.2149e+007    0.0000    0.0959    0.0012   -0.0000    0.1056
                0.0445  -2.5473e-003   3.5325e-004   2.2137e-003  -4.8852e+007   4.3164e+005   8.7439e+006    0.0000    0.0983    0.0013   -0.0000    0.0760
                0.0660  -2.5772e-003   3.5742e-004   1.3157e-003  -4.9425e+007   4.3723e+005   5.1969e+006    0.0000    0.0994    0.0013   -0.0000    0.0452
                0.0882  -2.5815e-003   3.5803e-004   3.8680e-004  -4.9509e+007   4.3805e+005   1.5279e+006    0.0000    0.0996    0.0013   -0.0000    0.0133
                0.1107  -2.5857e-003   3.5861e-004   5.5983e-004  -4.9588e+007   4.3889e+005   2.2113e+006    0.0000    0.0998    0.0013   -0.0000    0.0192
                0.1336  -2.5318e-003   3.5109e-004   1.5139e-003  -4.8555e+007   4.2871e+005   5.9800e+006    0.0000    0.0977    0.0013   -0.0000    0.0520
                0.1570  -2.4746e-003   3.4309e-004   2.4599e-003  -4.7458e+007   4.1775e+005   9.7166e+006    0.0000    0.0955    0.0012   -0.0000    0.0845
                0.1806  -2.4016e-003   3.3288e-004   3.3870e-003  -4.6057e+007   4.0378e+005   1.3379e+007    0.0000    0.0927    0.0012   -0.0000    0.1163
                0.1830  -2.3885e-003   3.3107e-004   3.4797e-003  -4.5807e+007   4.0170e+005   1.3745e+007    0.0000    0.0922    0.0012   -0.0000    0.1195

               lamina:  2     
              matName:  (spar-uni)
                     s           e11           e22           e12           s11           s22           s12   s11_fcT   s11_fcC   s22_fcT   s22_fcC   s12_fcS
                   (m)         (m/m)         (m/m)         (rad)          (Pa)          (Pa)          (Pa)       (-)       (-)       (-)       (-)       (-)
                0.0000  -2.1343e-003   2.9817e-004   4.0010e-003  -2.6345e+008  -2.9997e+006   1.8845e+007    0.0000    0.2635    0.0000    0.0501    0.1830
                0.0029  -2.1492e-003   3.0025e-004   3.8876e-003  -2.6529e+008  -3.0206e+006   1.8311e+007    0.0000    0.2653    0.0000    0.0504    0.1778
                0.0234  -2.2092e-003   3.0864e-004   3.0756e-003  -2.7269e+008  -3.1048e+006   1.4486e+007    0.0000    0.2727    0.0000    0.0518    0.1406
                0.0445  -2.2712e-003   3.1731e-004   2.2137e-003  -2.8035e+008  -3.1919e+006   1.0426e+007    0.0000    0.2803    0.0000    0.0533    0.1012
                0.0660  -2.3003e-003   3.2138e-004   1.3157e-003  -2.8393e+008  -3.2327e+006   6.1968e+006    0.0000    0.2839    0.0000    0.0540    0.0602
                0.0882  -2.3045e-003   3.2197e-004   3.8680e-004  -2.8446e+008  -3.2386e+006   1.8218e+006    0.0000    0.2845    0.0000    0.0541    0.0177
                0.1107  -2.3088e-003   3.2258e-004   5.5983e-004  -2.8499e+008  -3.2447e+006   2.6368e+006    0.0000    0.2850    0.0000    0.0542    0.0256
                0.1336  -2.2560e-003   3.1518e-004   1.5139e-003  -2.7846e+008  -3.1705e+006   7.1306e+006    0.0000    0.2785    0.0000    0.0529    0.0692
                0.1570  -2.1992e-003   3.0724e-004   2.4599e-003  -2.7146e+008  -3.0907e+006   1.1586e+007    0.0000    0.2715    0.0000    0.0516    0.1125
                0.1806  -2.1267e-003   2.9710e-004   3.3870e-003  -2.6251e+008  -2.9890e+006   1.5953e+007    0.0000    0.2625    0.0000    0.0499    0.1549
                0.1830  -2.1157e-003   2.9556e-004   3.4797e-003  -2.6115e+008  -2.9735e+006   1.6389e+007    0.0000    0.2612    0.0000    0.0496    0.1591

               lamina:  3     
              matName:  (spar-core)
                     s           e11           e22           e12           s11           s22           s12   s11_fcT   s11_fcC   s22_fcT   s22_fcC   s12_fcS
                   (m)         (m/m)         (m/m)         (rad)          (Pa)          (Pa)          (Pa)       (-)       (-)       (-)       (-)       (-)
                0.0000  -2.0970e-003   2.9332e-004   4.0010e-003  -4.7138e+005  -9.3960e+004   3.9210e+005    0.0000    0.1099    0.0000    0.0219    0.1329
                0.0029  -2.1115e-003   2.9534e-004   3.8876e-003  -4.7464e+005  -9.4608e+004   3.8099e+005    0.0000    0.1106    0.0000    0.0221    0.1291
                0.0234  -2.1714e-003   3.0372e-004   3.0756e-003  -4.8810e+005  -9.7293e+004   3.0141e+005    0.0000    0.1138    0.0000    0.0227    0.1022
                0.0445  -2.2333e-003   3.1238e-004   2.2137e-003  -5.0202e+005  -1.0007e+005   2.1694e+005    0.0000    0.1170    0.0000    0.0233    0.0735
                0.0660  -2.2623e-003   3.1643e-004   1.3157e-003  -5.0852e+005  -1.0136e+005   1.2894e+005    0.0000    0.1185    0.0000    0.0236    0.0437
                0.0882  -2.2665e-003   3.1702e-004   3.8680e-004  -5.0947e+005  -1.0155e+005   3.7906e+004    0.0000    0.1188    0.0000    0.0237    0.0128
                0.1107  -2.2709e-003   3.1763e-004   5.5983e-004  -5.1046e+005  -1.0175e+005   5.4863e+004    0.0000    0.1190    0.0000    0.0237    0.0186
                0.1336  -2.2181e-003   3.1025e-004   1.5139e-003  -4.9860e+005  -9.9384e+004   1.4837e+005    0.0000    0.1162    0.0000    0.0232    0.0503
                0.1570  -2.1614e-003   3.0232e-004   2.4599e-003  -4.8585e+005  -9.6843e+004   2.4107e+005    0.0000    0.1133    0.0000    0.0226    0.0817
                0.1806  -2.0890e-003   2.9220e-004   3.3870e-003  -4.6958e+005  -9.3601e+004   3.3192e+005    0.0000    0.1095    0.0000    0.0218    0.1125
                0.1830  -2.0783e-003   2.9069e-004   3.4797e-003  -4.6717e+005  -9.3119e+004   3.4101e+005    0.0000    0.1089    0.0000    0.0217    0.1156

               lamina:  4     
              matName:  (spar-uni)
                     s           e11           e22           e12           s11           s22           s12   s11_fcT   s11_fcC   s22_fcT   s22_fcC   s12_fcS
                   (m)         (m/m)         (m/m)         (rad)          (Pa)          (Pa)          (Pa)       (-)       (-)       (-)       (-)       (-)
                0.0000  -2.0914e-003   2.9258e-004   4.0010e-003  -2.5815e+008  -2.9359e+006   1.8845e+007    0.0000    0.2581    0.0000    0.0490    0.1830
                0.0029  -2.1058e-003   2.9460e-004   3.8876e-003  -2.5993e+008  -2.9561e+006   1.8311e+007    0.0000    0.2599    0.0000    0.0494    0.1778
                0.0234  -2.1657e-003   3.0298e-004   3.0756e-003  -2.6732e+008  -3.0402e+006   1.4486e+007    0.0000    0.2673    0.0000    0.0508    0.1406
                0.0445  -2.2276e-003   3.1163e-004   2.2137e-003  -2.7496e+008  -3.1271e+006   1.0426e+007    0.0000    0.2750    0.0000    0.0522    0.1012
                0.0660  -2.2565e-003   3.1568e-004   1.3157e-003  -2.7853e+008  -3.1677e+006   6.1968e+006    0.0000    0.2785    0.0000    0.0529    0.0602
                0.0882  -2.2607e-003   3.1627e-004   3.8680e-004  -2.7905e+008  -3.1737e+006   1.8218e+006    0.0000    0.2791    0.0000    0.0530    0.0177
                0.1107  -2.2651e-003   3.1688e-004   5.5983e-004  -2.7959e+008  -3.1798e+006   2.6368e+006    0.0000    0.2796    0.0000    0.0531    0.0256
                0.1336  -2.2124e-003   3.0951e-004   1.5139e-003  -2.7308e+008  -3.1058e+006   7.1306e+006    0.0000    0.2731    0.0000    0.0518    0.0692
                0.1570  -2.1556e-003   3.0157e-004   2.4599e-003  -2.6608e+008  -3.0261e+006   1.1586e+007    0.0000    0.2661    0.0000    0.0505    0.1125
                0.1806  -2.0833e-003   2.9145e-004   3.3870e-003  -2.5715e+008  -2.9246e+006   1.5953e+007    0.0000    0.2572    0.0000    0.0488    0.1549
                0.1830  -2.0726e-003   2.8995e-004   3.4797e-003  -2.5583e+008  -2.9095e+006   1.6389e+007    0.0000    0.2558    0.0000    0.0486    0.1591

               lamina:  5     
              matName:  (blade-shell)
                     s           e11           e22           e12           s11           s22           s12   s11_fcT   s11_fcC   s22_fcT   s22_fcC   s12_fcS
                   (m)         (m/m)         (m/m)         (rad)          (Pa)          (Pa)          (Pa)       (-)       (-)       (-)       (-)       (-)
                0.0000  -2.0541e-003   2.8773e-004   4.0010e-003  -3.9386e+007   4.0421e+005   1.5804e+007    0.0000    0.0792    0.0012   -0.0000    0.1374
                0.0029  -2.0681e-003   2.8969e-004   3.8876e-003  -3.9654e+007   4.0699e+005   1.5356e+007    0.0000    0.0798    0.0012   -0.0000    0.1335
                0.0234  -2.1279e-003   2.9806e-004   3.0756e-003  -4.0802e+007   4.1856e+005   1.2149e+007    0.0000    0.0821    0.0012   -0.0000    0.1056
                0.0445  -2.1897e-003   3.0670e-004   2.2137e-003  -4.1986e+007   4.3051e+005   8.7439e+006    0.0000    0.0845    0.0013   -0.0000    0.0760
                0.0660  -2.2185e-003   3.1073e-004   1.3157e-003  -4.2539e+007   4.3610e+005   5.1969e+006    0.0000    0.0856    0.0013   -0.0000    0.0452
                0.0882  -2.2227e-003   3.1132e-004   3.8680e-004  -4.2619e+007   4.3691e+005   1.5279e+006    0.0000    0.0858    0.0013   -0.0000    0.0133
                0.1107  -2.2271e-003   3.1194e-004   5.5983e-004  -4.2704e+007   4.3776e+005   2.2113e+006    0.0000    0.0859    0.0013   -0.0000    0.0192
                0.1336  -2.1745e-003   3.0458e-004   1.5139e-003  -4.1695e+007   4.2757e+005   5.9800e+006    0.0000    0.0839    0.0013   -0.0000    0.0520
                0.1570  -2.1179e-003   2.9665e-004   2.4599e-003  -4.0609e+007   4.1662e+005   9.7166e+006    0.0000    0.0817    0.0012   -0.0000    0.0845
                0.1806  -2.0456e-003   2.8654e-004   3.3870e-003  -3.9223e+007   4.0265e+005   1.3379e+007    0.0000    0.0789    0.0012   -0.0000    0.1163
                0.1830  -2.0352e-003   2.8508e-004   3.4797e-003  -3.9023e+007   4.0058e+005   1.3745e+007    0.0000    0.0785    0.0012   -0.0000    0.1195

            panel:  3     
           lam_num    nPlies        tPly      fibAng     matID  matName
               (-)       (-)         (m)       (deg)       (-)  (-)
                 1         1    0.002251      0.0000         2  (blade-shell)
                 2         1    0.000421      0.0000         6  (TEP-core)
                 3         1    0.002251      0.0000         2  (blade-shell)

               lamina:  1     
              matName:  (blade-shell)
                     s           e11           e22           e12           s11           s22           s12   s11_fcT   s11_fcC   s22_fcT   s22_fcC   s12_fcS
                   (m)         (m/m)         (m/m)         (rad)          (Pa)          (Pa)          (Pa)       (-)       (-)       (-)       (-)       (-)
                0.0000  -2.2471e-003   2.9259e-004   1.4462e-003  -4.3143e+007   9.1492e+003   5.7126e+006    0.0000    0.0868    0.0000   -0.0000    0.0497
                0.0214  -2.1525e-003   2.8027e-004   9.4957e-004  -4.1327e+007   8.7330e+003   3.7508e+006    0.0000    0.0832    0.0000   -0.0000    0.0326
                0.0452  -2.0463e-003   2.6644e-004   4.2273e-004  -3.9288e+007   8.2685e+003   1.6698e+006    0.0000    0.0791    0.0000   -0.0000    0.0145
                0.0691  -1.9160e-003   2.4947e-004   7.3046e-005  -3.6786e+007   7.6997e+003   2.8853e+005    0.0000    0.0740    0.0000   -0.0000    0.0025
                0.0930  -1.7760e-003   2.3124e-004   5.3083e-004  -3.4098e+007   7.0854e+003   2.0968e+006    0.0000    0.0686    0.0000   -0.0000    0.0182
                0.1165  -1.6362e-003   2.1304e-004   9.4516e-004  -3.1414e+007   6.4737e+003   3.7334e+006    0.0000    0.0632    0.0000   -0.0000    0.0325
                0.1399  -1.4771e-003   1.9232e-004   1.3164e-003  -2.8360e+007   5.7774e+003   5.1999e+006    0.0000    0.0571    0.0000   -0.0000    0.0452
                0.1629  -1.3217e-003   1.7208e-004   1.6394e-003  -2.5376e+007   5.0942e+003   6.4755e+006    0.0000    0.0511    0.0000   -0.0000    0.0563
                0.1853  -1.1659e-003   1.5179e-004   1.9147e-003  -2.2384e+007   4.4103e+003   7.5632e+006    0.0000    0.0450    0.0000   -0.0000    0.0658
                0.2071  -1.0092e-003   1.3138e-004   2.1437e-003  -1.9376e+007   3.7220e+003   8.4677e+006    0.0000    0.0390    0.0000   -0.0000    0.0736
                0.2282  -8.5798e-004   1.1169e-004   2.3277e-003  -1.6473e+007   3.0566e+003   9.1946e+006    0.0000    0.0331    0.0000   -0.0000    0.0800
                0.2485  -7.1339e-004   9.2865e-005   2.4700e-003  -1.3697e+007   2.4204e+003   9.7567e+006    0.0000    0.0276    0.0000   -0.0000    0.0848
                0.2678  -5.7546e-004   7.4902e-005   2.5745e-003  -1.1049e+007   1.8132e+003   1.0169e+007    0.0000    0.0222    0.0000   -0.0000    0.0884
                0.2862  -4.4578e-004   5.8015e-005   2.6454e-003  -8.5588e+006   1.2412e+003   1.0449e+007    0.0000    0.0172    0.0000   -0.0000    0.0909
                0.3035  -3.2916e-004   4.2828e-005   2.6874e-003  -6.3197e+006   7.2684e+002   1.0615e+007    0.0000    0.0127    0.0000   -0.0000    0.0923
                0.3196  -2.2007e-004   2.8621e-005   2.7058e-003  -4.2252e+006   2.4583e+002   1.0688e+007    0.0000    0.0085    0.0000   -0.0000    0.0929
                0.3346  -1.2349e-004   1.6044e-005   2.7050e-003  -2.3710e+006  -1.8563e+002   1.0685e+007    0.0000    0.0048    0.0000    0.0000    0.0929
                0.3482   1.1328e-004  -1.4755e-005   2.6899e-003   2.1750e+006  -5.6039e+002   1.0625e+007    0.0065   -0.0000    0.0000    0.0000    0.0924
                0.3606   1.9046e-004  -2.4806e-005   2.6647e-003   3.6568e+006  -9.0010e+002   1.0526e+007    0.0109   -0.0000    0.0000    0.0000    0.0915
                0.3716   2.5339e-004  -3.3001e-005   2.6335e-003   4.8649e+006  -1.1771e+003   1.0402e+007    0.0144   -0.0000    0.0000    0.0000    0.0905
                0.3812   3.0770e-004  -4.0074e-005   2.5997e-003   5.9077e+006  -1.4161e+003   1.0269e+007    0.0175   -0.0000    0.0000    0.0000    0.0893
                0.3894   3.5330e-004  -4.6012e-005   2.5662e-003   6.7832e+006  -1.6168e+003   1.0137e+007    0.0201   -0.0000    0.0000    0.0000    0.0881
                0.3961   3.8893e-004  -5.0652e-005   2.5355e-003   7.4673e+006  -1.7737e+003   1.0015e+007    0.0222   -0.0000    0.0000    0.0000    0.0871
                0.4013   4.1671e-004  -5.4269e-005   2.5097e-003   8.0005e+006  -1.8958e+003   9.9133e+006    0.0237   -0.0000    0.0000    0.0000    0.0862
                0.4051   4.3746e-004  -5.6972e-005   2.4902e-003   8.3990e+006  -1.9870e+003   9.8362e+006    0.0249   -0.0000    0.0000    0.0000    0.0855
                0.4074   4.5034e-004  -5.8648e-005   2.4780e-003   8.6462e+006  -2.0436e+003   9.7879e+006    0.0257   -0.0000    0.0000    0.0000    0.0851
                0.4081   4.5465e-004  -5.9210e-005   2.4738e-003   8.7289e+006  -2.0626e+003   9.7715e+006    0.0259   -0.0000    0.0000    0.0000    0.0850

               lamina:  2     
              matName:  (TEP-core)
                     s           e11           e22           e12           s11           s22           s12   s11_fcT   s11_fcC   s22_fcT   s22_fcC   s12_fcS
                   (m)         (m/m)         (m/m)         (rad)          (Pa)          (Pa)          (Pa)       (-)       (-)       (-)       (-)       (-)
                0.0000  -2.0929e-003   2.7254e-004   1.4462e-003  -4.7202e+005  -9.8533e+004   1.4173e+005    0.0000    0.1100    0.0000    0.0230    0.0480
                0.0214  -1.9983e-003   2.6022e-004   9.4957e-004  -4.5068e+005  -9.4079e+004   9.3058e+004    0.0000    0.1051    0.0000    0.0219    0.0315
                0.0452  -1.8926e-003   2.4647e-004   4.2273e-004  -4.2686e+005  -8.9106e+004   4.1427e+004    0.0000    0.0995    0.0000    0.0208    0.0140
                0.0691  -1.7633e-003   2.2962e-004   7.3046e-005  -3.9768e+005  -8.3015e+004   7.1586e+003    0.0000    0.0927    0.0000    0.0194    0.0024
                0.0930  -1.6236e-003   2.1143e-004   5.3083e-004  -3.6618e+005  -7.6440e+004   5.2021e+004    0.0000    0.0854    0.0000    0.0178    0.0176
                0.1165  -1.4845e-003   1.9332e-004   9.4516e-004  -3.3481e+005  -6.9891e+004   9.2626e+004    0.0000    0.0780    0.0000    0.0163    0.0314
                0.1399  -1.3262e-003   1.7270e-004   1.3164e-003  -2.9910e+005  -6.2437e+004   1.2901e+005    0.0000    0.0697    0.0000    0.0146    0.0437
                0.1629  -1.1709e-003   1.5248e-004   1.6394e-003  -2.6408e+005  -5.5126e+004   1.6066e+005    0.0000    0.0616    0.0000    0.0128    0.0545
                0.1853  -1.0154e-003   1.3223e-004   1.9147e-003  -2.2901e+005  -4.7806e+004   1.8764e+005    0.0000    0.0534    0.0000    0.0111    0.0636
                0.2071  -8.5894e-004   1.1185e-004   2.1437e-003  -1.9372e+005  -4.0439e+004   2.1008e+005    0.0000    0.0452    0.0000    0.0094    0.0712
                0.2282  -7.0771e-004   9.2159e-005   2.3277e-003  -1.5961e+005  -3.3319e+004   2.2812e+005    0.0000    0.0372    0.0000    0.0078    0.0773
                0.2485  -5.6309e-004   7.3325e-005   2.4700e-003  -1.2700e+005  -2.6511e+004   2.4206e+005    0.0000    0.0296    0.0000    0.0062    0.0821
                0.2678  -4.2509e-004   5.5355e-005   2.5745e-003  -9.5874e+004  -2.0014e+004   2.5230e+005    0.0000    0.0223    0.0000    0.0047    0.0855
                0.2862  -2.9510e-004   3.8427e-005   2.6454e-003  -6.6557e+004  -1.3894e+004   2.5925e+005    0.0000    0.0155    0.0000    0.0032    0.0879
                0.3035  -1.7821e-004   2.3204e-005   2.6874e-003  -4.0193e+004  -8.3908e+003   2.6337e+005    0.0000    0.0094    0.0000    0.0020    0.0893
                0.3196  -6.8897e-005   8.9689e-006   2.7058e-003  -1.5539e+004  -3.2444e+003   2.6516e+005    0.0000    0.0036    0.0000    0.0008    0.0899
                0.3346   5.6454e-005  -7.3486e-006   2.7050e-003   1.2733e+004   2.6586e+003   2.6509e+005    0.0030   -0.0000    0.0006   -0.0000    0.0899
                0.3482   1.4166e-004  -1.8444e-005   2.6899e-003   3.1949e+004   6.6699e+003   2.6361e+005    0.0074   -0.0000    0.0016   -0.0000    0.0894
                0.3606   2.1891e-004  -2.8504e-005   2.6647e-003   4.9372e+004   1.0307e+004   2.6114e+005    0.0115   -0.0000    0.0024   -0.0000    0.0885
                0.3716   2.8192e-004  -3.6709e-005   2.6335e-003   6.3582e+004   1.3273e+004   2.5808e+005    0.0148   -0.0000    0.0031   -0.0000    0.0875
                0.3812   3.3625e-004  -4.3785e-005   2.5997e-003   7.5836e+004   1.5831e+004   2.5477e+005    0.0177   -0.0000    0.0037   -0.0000    0.0864
                0.3894   3.8190e-004  -4.9729e-005   2.5662e-003   8.6131e+004   1.7980e+004   2.5149e+005    0.0201   -0.0000    0.0042   -0.0000    0.0853
                0.3961   4.1756e-004  -5.4374e-005   2.5355e-003   9.4176e+004   1.9660e+004   2.4848e+005    0.0220   -0.0000    0.0046   -0.0000    0.0842
                0.4013   4.4531e-004  -5.7988e-005   2.5097e-003   1.0043e+005   2.0966e+004   2.4595e+005    0.0234   -0.0000    0.0049   -0.0000    0.0834
                0.4051   4.6602e-004  -6.0684e-005   2.4902e-003   1.0510e+005   2.1941e+004   2.4404e+005    0.0245   -0.0000    0.0051   -0.0000    0.0827
                0.4074   4.7887e-004  -6.2357e-005   2.4780e-003   1.0800e+005   2.2546e+004   2.4284e+005    0.0252   -0.0000    0.0053   -0.0000    0.0823
                0.4081   4.8318e-004  -6.2919e-005   2.4738e-003   1.0897e+005   2.2749e+004   2.4243e+005    0.0254   -0.0000    0.0053   -0.0000    0.0822

               lamina:  3     
              matName:  (blade-shell)
                     s           e11           e22           e12           s11           s22           s12   s11_fcT   s11_fcC   s22_fcT   s22_fcC   s12_fcS
                   (m)         (m/m)         (m/m)         (rad)          (Pa)          (Pa)          (Pa)       (-)       (-)       (-)       (-)       (-)
                0.0000  -2.0641e-003   2.6879e-004   1.4462e-003  -3.9629e+007   9.1439e+003   5.7126e+006    0.0000    0.0797    0.0000   -0.0000    0.0497
                0.0214  -1.9695e-003   2.5648e-004   9.4957e-004  -3.7812e+007   8.7276e+003   3.7508e+006    0.0000    0.0761    0.0000   -0.0000    0.0326
                0.0452  -1.8639e-003   2.4273e-004   4.2273e-004  -3.5786e+007   8.2631e+003   1.6698e+006    0.0000    0.0720    0.0000   -0.0000    0.0145
                0.0691  -1.7347e-003   2.2591e-004   7.3046e-005  -3.3306e+007   7.6944e+003   2.8853e+005    0.0000    0.0670    0.0000   -0.0000    0.0025
                0.0930  -1.5951e-003   2.0773e-004   5.3083e-004  -3.0626e+007   7.0801e+003   2.0968e+006    0.0000    0.0616    0.0000   -0.0000    0.0182
                0.1165  -1.4562e-003   1.8963e-004   9.4516e-004  -2.7958e+007   6.4684e+003   3.7334e+006    0.0000    0.0563    0.0000   -0.0000    0.0325
                0.1399  -1.2980e-003   1.6903e-004   1.3164e-003  -2.4920e+007   5.7721e+003   5.1999e+006    0.0000    0.0501    0.0000   -0.0000    0.0452
                0.1629  -1.1427e-003   1.4881e-004   1.6394e-003  -2.1939e+007   5.0889e+003   6.4755e+006    0.0000    0.0441    0.0000   -0.0000    0.0563
                0.1853  -9.8729e-004   1.2857e-004   1.9147e-003  -1.8955e+007   4.4051e+003   7.5632e+006    0.0000    0.0381    0.0000   -0.0000    0.0658
                0.2071  -8.3086e-004   1.0820e-004   2.1437e-003  -1.5952e+007   3.7168e+003   8.4677e+006    0.0000    0.0321    0.0000   -0.0000    0.0736
                0.2282  -6.7962e-004   8.8507e-005   2.3277e-003  -1.3048e+007   3.0514e+003   9.1946e+006    0.0000    0.0263    0.0000   -0.0000    0.0800
                0.2485  -5.3499e-004   6.9673e-005   2.4700e-003  -1.0272e+007   2.4151e+003   9.7567e+006    0.0000    0.0207    0.0000   -0.0000    0.0848
                0.2678  -3.9699e-004   5.1701e-005   2.5745e-003  -7.6220e+006   1.8080e+003   1.0169e+007    0.0000    0.0153    0.0000   -0.0000    0.0884
                0.2862  -2.6694e-004   3.4766e-005   2.6454e-003  -5.1251e+006   1.2360e+003   1.0449e+007    0.0000    0.0103    0.0000   -0.0000    0.0909
                0.3035  -1.5000e-004   1.9537e-005   2.6874e-003  -2.8799e+006   7.2157e+002   1.0615e+007    0.0000    0.0058    0.0000   -0.0000    0.0923
                0.3196   1.1053e-004  -1.4356e-005   2.7058e-003   2.1221e+006   2.4055e+002   1.0688e+007    0.0063   -0.0000    0.0000   -0.0000    0.0929
                0.3346   2.0806e-004  -2.7058e-005   2.7050e-003   3.9947e+006  -1.9092e+002   1.0685e+007    0.0119   -0.0000    0.0000    0.0000    0.0929
                0.3482   2.9348e-004  -3.8181e-005   2.6899e-003   5.6347e+006  -5.6570e+002   1.0625e+007    0.0167   -0.0000    0.0000    0.0000    0.0924
                0.3606   3.7110e-004  -4.8289e-005   2.6647e-003   7.1250e+006  -9.0542e+002   1.0526e+007    0.0211   -0.0000    0.0000    0.0000    0.0915
                0.3716   4.3455e-004  -5.6552e-005   2.6335e-003   8.3432e+006  -1.1825e+003   1.0402e+007    0.0248   -0.0000    0.0000    0.0000    0.0905
                0.3812   4.8899e-004  -6.3641e-005   2.5997e-003   9.3884e+006  -1.4215e+003   1.0269e+007    0.0279   -0.0000    0.0000    0.0000    0.0893
                0.3894   5.3488e-004  -6.9617e-005   2.5662e-003   1.0269e+007  -1.6222e+003   1.0137e+007    0.0305   -0.0000    0.0000    0.0000    0.0881
                0.3961   5.7075e-004  -7.4288e-005   2.5355e-003   1.0958e+007  -1.7790e+003   1.0015e+007    0.0325   -0.0000    0.0000    0.0000    0.0871
                0.4013   5.9837e-004  -7.7885e-005   2.5097e-003   1.1488e+007  -1.9012e+003   9.9133e+006    0.0341   -0.0000    0.0000    0.0000    0.0862
                0.4051   6.1881e-004  -8.0548e-005   2.4902e-003   1.1881e+007  -1.9924e+003   9.8362e+006    0.0353   -0.0000    0.0000    0.0000    0.0855
                0.4074   6.3152e-004  -8.2202e-005   2.4780e-003   1.2125e+007  -2.0489e+003   9.7879e+006    0.0360   -0.0000    0.0000    0.0000    0.0851
                0.4081   6.3583e-004  -8.2764e-005   2.4738e-003   1.2208e+007  -2.0679e+003   9.7715e+006    0.0362   -0.0000    0.0000    0.0000    0.0850

  Bottom:  panel  nNode   nLam     xc_St    xc_End         b         t         E_eff         G_eff      nu_eff     density  buckleCrit
            (-)    (-)    (-)       (-)       (-)       (m)       (m)          (Pa)          (Pa)         (-)    (kg/m^3)         (-)
              1     17      3    0.0000    0.2281    0.1923    0.0046   1.8600e+010   3.8283e+009      0.1301   1623.5403      0.0266
              2     11      5    0.2281    0.4719    0.1830    0.0052   3.1467e+010   4.0059e+009      0.1399   1632.7549      0.0149
              3     27      3    0.4719    1.0000    0.4043    0.0049   1.7578e+010   3.6208e+009      0.1302   1544.3704      0.1906

            panel:  1     
           lam_num    nPlies        tPly      fibAng     matID  matName
               (-)       (-)         (m)       (deg)       (-)  (-)
                 1         1    0.002251      0.0000         2  (blade-shell)
                 2         1    0.000147      0.0000         5  (LEP-core)
                 3         1    0.002251      0.0000         2  (blade-shell)

               lamina:  1     
              matName:  (blade-shell)
                     s           e11           e22           e12           s11           s22           s12   s11_fcT   s11_fcC   s22_fcT   s22_fcC   s12_fcS
                   (m)         (m/m)         (m/m)         (rad)          (Pa)          (Pa)          (Pa)       (-)       (-)       (-)       (-)       (-)
                0.0000   2.1129e-004  -2.7480e-005   3.2215e-003   4.0568e+006  -2.3715e+002   1.2725e+007    0.0120   -0.0000    0.0000    0.0000    0.1107
                0.0021   2.6247e-004  -3.4138e-005   3.2174e-003   5.0394e+006  -3.1584e+002   1.2709e+007    0.0150   -0.0000    0.0000    0.0000    0.1105
                0.0084   4.2234e-004  -5.4932e-005   3.1981e-003   8.1088e+006  -5.4637e+002   1.2632e+007    0.0241   -0.0000    0.0000    0.0000    0.1098
                0.0162   6.3003e-004  -8.1946e-005   3.1595e-003   1.2096e+007  -8.1933e+002   1.2480e+007    0.0359   -0.0000    0.0000    0.0000    0.1085
                0.0230   7.7523e-004  -1.0083e-004   3.1140e-003   1.4884e+007  -1.0072e+003   1.2300e+007    0.0442   -0.0000    0.0000    0.0000    0.1070
                0.0321   9.4872e-004  -1.2340e-004   3.0390e-003   1.8215e+007  -1.2573e+003   1.2004e+007    0.0541   -0.0000    0.0000    0.0000    0.1044
                0.0414   1.0966e-003  -1.4264e-004   2.9453e-003   2.1055e+007  -1.4648e+003   1.1634e+007    0.0625   -0.0000    0.0000    0.0000    0.1012
                0.0521   1.2386e-003  -1.6111e-004   2.8212e-003   2.3782e+007  -1.6773e+003   1.1144e+007    0.0706   -0.0000    0.0000    0.0000    0.0969
                0.0642   1.3964e-003  -1.8162e-004   2.6617e-003   2.6810e+007  -1.9096e+003   1.0514e+007    0.0796   -0.0000    0.0000    0.0000    0.0914
                0.0768   1.5168e-003  -1.9729e-004   2.4748e-003   2.9123e+007  -2.0873e+003   9.7753e+006    0.0864   -0.0000    0.0000    0.0000    0.0850
                0.0909   1.6474e-003  -2.1428e-004   2.2468e-003   3.1630e+007  -2.2855e+003   8.8748e+006    0.0939   -0.0000    0.0000    0.0000    0.0772
                0.1059   1.7683e-003  -2.3001e-004   1.9825e-003   3.3951e+007  -2.4668e+003   7.8308e+006    0.1007   -0.0000    0.0000    0.0000    0.0681
                0.1219   1.8718e-003  -2.4347e-004   1.6805e-003   3.5939e+007  -2.6239e+003   6.6382e+006    0.1066   -0.0000    0.0000    0.0000    0.0577
                0.1390   1.9826e-003  -2.5788e-004   1.3372e-003   3.8066e+007  -2.7919e+003   5.2821e+006    0.1130   -0.0000    0.0000    0.0000    0.0459
                0.1568   2.0640e-003  -2.6848e-004   9.5955e-004   3.9629e+007  -2.9148e+003   3.7902e+006    0.1176   -0.0000    0.0000    0.0000    0.0330
                0.1757   2.1422e-003  -2.7864e-004   5.4392e-004   4.1129e+007  -3.0343e+003   2.1485e+006    0.1220   -0.0000    0.0000    0.0000    0.0187
                0.1923   2.2035e-003  -2.8661e-004   1.6355e-004   4.2307e+007  -3.1282e+003   6.4604e+005    0.1255   -0.0000    0.0000    0.0000    0.0056

               lamina:  2     
              matName:  (LEP-core)
                     s           e11           e22           e12           s11           s22           s12   s11_fcT   s11_fcC   s22_fcT   s22_fcC   s12_fcS
                   (m)         (m/m)         (m/m)         (rad)          (Pa)          (Pa)          (Pa)       (-)       (-)       (-)       (-)       (-)
                0.0000   1.5598e-004  -2.0289e-005   3.2215e-003   3.5180e+004   7.3487e+003   3.1571e+005    0.0082   -0.0000    0.0017   -0.0000    0.1070
                0.0021   2.0716e-004  -2.6946e-005   3.2174e-003   4.6723e+004   9.7600e+003   3.1531e+005    0.0109   -0.0000    0.0023   -0.0000    0.1069
                0.0084   3.5738e-004  -4.6487e-005   3.1981e-003   8.0606e+004   1.6838e+004   3.1341e+005    0.0188   -0.0000    0.0039   -0.0000    0.1062
                0.0162   5.3583e-004  -6.9700e-005   3.1595e-003   1.2085e+005   2.5245e+004   3.0963e+005    0.0282   -0.0000    0.0059   -0.0000    0.1050
                0.0230   6.5872e-004  -8.5685e-005   3.1140e-003   1.4857e+005   3.1035e+004   3.0517e+005    0.0346   -0.0000    0.0072   -0.0000    0.1034
                0.0321   8.2171e-004  -1.0689e-004   3.0390e-003   1.8533e+005   3.8714e+004   2.9782e+005    0.0432   -0.0000    0.0090   -0.0000    0.1010
                0.0414   9.5707e-004  -1.2449e-004   2.9453e-003   2.1586e+005   4.5091e+004   2.8864e+005    0.0503   -0.0000    0.0105   -0.0000    0.0978
                0.0521   1.0953e-003  -1.4248e-004   2.8212e-003   2.4705e+005   5.1606e+004   2.7648e+005    0.0576   -0.0000    0.0120   -0.0000    0.0937
                0.0642   1.2466e-003  -1.6216e-004   2.6617e-003   2.8117e+005   5.8733e+004   2.6084e+005    0.0655   -0.0000    0.0137   -0.0000    0.0884
                0.0768   1.3624e-003  -1.7721e-004   2.4748e-003   3.0728e+005   6.4187e+004   2.4253e+005    0.0716   -0.0000    0.0150   -0.0000    0.0822
                0.0909   1.4913e-003  -1.9399e-004   2.2468e-003   3.3636e+005   7.0263e+004   2.2018e+005    0.0784   -0.0000    0.0164   -0.0000    0.0746
                0.1059   1.6093e-003  -2.0933e-004   1.9825e-003   3.6297e+005   7.5821e+004   1.9428e+005    0.0846   -0.0000    0.0177   -0.0000    0.0659
                0.1219   1.7115e-003  -2.2263e-004   1.6805e-003   3.8603e+005   8.0637e+004   1.6469e+005    0.0900   -0.0000    0.0188   -0.0000    0.0558
                0.1390   1.8208e-003  -2.3685e-004   1.3372e-003   4.1068e+005   8.5785e+004   1.3105e+005    0.0957   -0.0000    0.0200   -0.0000    0.0444
                0.1568   1.9008e-003  -2.4725e-004   9.5955e-004   4.2872e+005   8.9554e+004   9.4036e+004    0.0999   -0.0000    0.0209   -0.0000    0.0319
                0.1757   1.9785e-003  -2.5736e-004   5.4392e-004   4.4625e+005   9.3216e+004   5.3304e+004    0.1040   -0.0000    0.0217   -0.0000    0.0181
                0.1923   2.0396e-003  -2.6531e-004   1.6355e-004   4.6002e+005   9.6093e+004   1.6028e+004    0.1072   -0.0000    0.0224   -0.0000    0.0054

               lamina:  3     
              matName:  (blade-shell)
                     s           e11           e22           e12           s11           s22           s12   s11_fcT   s11_fcC   s22_fcT   s22_fcC   s12_fcS
                   (m)         (m/m)         (m/m)         (rad)          (Pa)          (Pa)          (Pa)       (-)       (-)       (-)       (-)       (-)
                0.0000   1.5237e-004  -1.9820e-005   3.2215e-003   2.9254e+006  -2.3706e+002   1.2725e+007    0.0087   -0.0000    0.0000    0.0000    0.1107
                0.0021   2.0354e-004  -2.6477e-005   3.2174e-003   3.9080e+006  -3.1575e+002   1.2709e+007    0.0116   -0.0000    0.0000    0.0000    0.1105
                0.0084   3.5314e-004  -4.5936e-005   3.1981e-003   6.7802e+006  -5.4626e+002   1.2632e+007    0.0201   -0.0000    0.0000    0.0000    0.1098
                0.0162   5.2968e-004  -6.8900e-005   3.1595e-003   1.0170e+007  -8.1919e+002   1.2480e+007    0.0302   -0.0000    0.0000    0.0000    0.1085
                0.0230   6.5112e-004  -8.4697e-005   3.1140e-003   1.2501e+007  -1.0070e+003   1.2300e+007    0.0371   -0.0000    0.0000    0.0000    0.1070
                0.0321   8.1341e-004  -1.0581e-004   3.0390e-003   1.5617e+007  -1.2571e+003   1.2004e+007    0.0463   -0.0000    0.0000    0.0000    0.1044
                0.0414   9.4796e-004  -1.2331e-004   2.9453e-003   1.8201e+007  -1.4646e+003   1.1634e+007    0.0540   -0.0000    0.0000    0.0000    0.1012
                0.0521   1.0860e-003  -1.4126e-004   2.8212e-003   2.0851e+007  -1.6771e+003   1.1144e+007    0.0619   -0.0000    0.0000    0.0000    0.0969
                0.0642   1.2368e-003  -1.6089e-004   2.6617e-003   2.3747e+007  -1.9093e+003   1.0514e+007    0.0705   -0.0000    0.0000    0.0000    0.0914
                0.0768   1.3523e-003  -1.7590e-004   2.4748e-003   2.5963e+007  -2.0871e+003   9.7753e+006    0.0770   -0.0000    0.0000    0.0000    0.0850
                0.0909   1.4811e-003  -1.9266e-004   2.2468e-003   2.8437e+007  -2.2853e+003   8.8748e+006    0.0844   -0.0000    0.0000    0.0000    0.0772
                0.1059   1.5989e-003  -2.0798e-004   1.9825e-003   3.0699e+007  -2.4665e+003   7.8308e+006    0.0911   -0.0000    0.0000    0.0000    0.0681
                0.1219   1.7011e-003  -2.2127e-004   1.6805e-003   3.2660e+007  -2.6237e+003   6.6382e+006    0.0969   -0.0000    0.0000    0.0000    0.0577
                0.1390   1.8102e-003  -2.3547e-004   1.3372e-003   3.4756e+007  -2.7916e+003   5.2821e+006    0.1031   -0.0000    0.0000    0.0000    0.0459
                0.1568   1.8901e-003  -2.4587e-004   9.5955e-004   3.6290e+007  -2.9146e+003   3.7902e+006    0.1077   -0.0000    0.0000    0.0000    0.0330
                0.1757   1.9678e-003  -2.5597e-004   5.4392e-004   3.7782e+007  -3.0340e+003   2.1485e+006    0.1121   -0.0000    0.0000    0.0000    0.0187
                0.1923   2.0289e-003  -2.6391e-004   1.6355e-004   3.8954e+007  -3.1279e+003   6.4604e+005    0.1156   -0.0000    0.0000    0.0000    0.0056

            panel:  2     
           lam_num    nPlies        tPly      fibAng     matID  matName
               (-)       (-)         (m)       (deg)       (-)  (-)
                 1         1    0.002251      0.0000         2  (blade-shell)
                 2         1    0.000309      0.0000         3  (spar-uni)
                 3         1    0.000047      0.0000         4  (spar-core)
                 4         1    0.000309      0.0000         3  (spar-uni)
                 5         1    0.002251      0.0000         2  (blade-shell)

               lamina:  1     
              matName:  (blade-shell)
                     s           e11           e22           e12           s11           s22           s12   s11_fcT   s11_fcC   s22_fcT   s22_fcC   s12_fcS
                   (m)         (m/m)         (m/m)         (rad)          (Pa)          (Pa)          (Pa)       (-)       (-)       (-)       (-)       (-)
                0.0000   2.3423e-003  -3.2460e-004   3.9634e-003   4.4922e+007  -3.9250e+005   1.5655e+007    0.1333   -0.0000    0.0000    0.0012    0.1361
                0.0029   2.3552e-003  -3.2638e-004   3.8547e-003   4.5169e+007  -3.9458e+005   1.5226e+007    0.1340   -0.0000    0.0000    0.0012    0.1324
                0.0232   2.3957e-003  -3.3205e-004   3.0817e-003   4.5946e+007  -4.0235e+005   1.2173e+007    0.1363   -0.0000    0.0000    0.0012    0.1058
                0.0442   2.4379e-003  -3.3794e-004   2.2670e-003   4.6754e+007  -4.1039e+005   8.9546e+006    0.1387   -0.0000    0.0000    0.0012    0.0779
                0.0657   2.4522e-003  -3.3993e-004   1.4200e-003   4.7028e+007  -4.1307e+005   5.6091e+006    0.1395   -0.0000    0.0000    0.0012    0.0488
                0.0879   2.4451e-003  -3.3895e-004   5.4701e-004   4.6893e+007  -4.1171e+005   2.1607e+006    0.1391   -0.0000    0.0000    0.0012    0.0188
                0.1105   2.4376e-003  -3.3790e-004   3.3899e-004   4.6748e+007  -4.1034e+005   1.3390e+006    0.1387   -0.0000    0.0000    0.0012    0.0116
                0.1335   2.3799e-003  -3.2984e-004   1.2312e-003   4.5643e+007  -3.9942e+005   4.8633e+006    0.1354   -0.0000    0.0000    0.0012    0.0423
                0.1569   2.3194e-003  -3.2138e-004   2.1129e-003   4.4482e+007  -3.8781e+005   8.3460e+006    0.1320   -0.0000    0.0000    0.0012    0.0726
                0.1806   2.2460e-003  -3.1112e-004   2.9749e-003   4.3075e+007  -3.7374e+005   1.1751e+007    0.1278   -0.0000    0.0000    0.0011    0.1022
                0.1830   2.2340e-003  -3.0946e-004   3.0618e-003   4.2845e+007  -3.7177e+005   1.2094e+007    0.1271   -0.0000    0.0000    0.0011    0.1052

               lamina:  2     
              matName:  (spar-uni)
                     s           e11           e22           e12           s11           s22           s12   s11_fcT   s11_fcC   s22_fcT   s22_fcC   s12_fcS
                   (m)         (m/m)         (m/m)         (rad)          (Pa)          (Pa)          (Pa)       (-)       (-)       (-)       (-)       (-)
                0.0000   2.0682e-003  -2.8892e-004   3.9634e-003   2.5529e+008   2.9069e+006   1.8667e+007    0.1290   -0.0000    0.0485   -0.0000    0.1812
                0.0029   2.0792e-003  -2.9046e-004   3.8547e-003   2.5665e+008   2.9224e+006   1.8156e+007    0.1297   -0.0000    0.0488   -0.0000    0.1763
                0.0232   2.1195e-003  -2.9609e-004   3.0817e-003   2.6162e+008   2.9789e+006   1.4515e+007    0.1322   -0.0000    0.0497   -0.0000    0.1409
                0.0442   2.1612e-003  -3.0192e-004   2.2670e-003   2.6677e+008   3.0374e+006   1.0677e+007    0.1348   -0.0000    0.0507   -0.0000    0.1037
                0.0657   2.1751e-003  -3.0387e-004   1.4200e-003   2.6849e+008   3.0570e+006   6.6883e+006    0.1357   -0.0000    0.0510   -0.0000    0.0649
                0.0879   2.1681e-003  -3.0289e-004   5.4701e-004   2.6762e+008   3.0471e+006   2.5764e+006    0.1352   -0.0000    0.0509   -0.0000    0.0250
                0.1105   2.1609e-003  -3.0189e-004   3.3899e-004   2.6674e+008   3.0371e+006   1.5966e+006    0.1348   -0.0000    0.0507   -0.0000    0.0155
                0.1335   2.1042e-003  -2.9396e-004   1.2312e-003   2.5974e+008   2.9575e+006   5.7990e+006    0.1312   -0.0000    0.0494   -0.0000    0.0563
                0.1569   2.0441e-003  -2.8554e-004   2.1129e-003   2.5231e+008   2.8730e+006   9.9518e+006    0.1275   -0.0000    0.0480   -0.0000    0.0966
                0.1806   1.9712e-003  -2.7534e-004   2.9749e-003   2.4331e+008   2.7706e+006   1.4012e+007    0.1229   -0.0000    0.0463   -0.0000    0.1360
                0.1830   1.9607e-003  -2.7389e-004   3.0618e-003   2.4202e+008   2.7560e+006   1.4421e+007    0.1223   -0.0000    0.0460   -0.0000    0.1400

               lamina:  3     
              matName:  (spar-core)
                     s           e11           e22           e12           s11           s22           s12   s11_fcT   s11_fcC   s22_fcT   s22_fcC   s12_fcS
                   (m)         (m/m)         (m/m)         (rad)          (Pa)          (Pa)          (Pa)       (-)       (-)       (-)       (-)       (-)
                0.0000   2.0306e-003  -2.8402e-004   3.9634e-003   4.5645e+005   9.0984e+004   3.8841e+005    0.1064   -0.0000    0.0212   -0.0000    0.1317
                0.0029   2.0414e-003  -2.8553e-004   3.8547e-003   4.5887e+005   9.1466e+004   3.7776e+005    0.1070   -0.0000    0.0213   -0.0000    0.1281
                0.0232   2.0816e-003  -2.9116e-004   3.0817e-003   4.6792e+005   9.3269e+004   3.0200e+005    0.1091   -0.0000    0.0217   -0.0000    0.1024
                0.0442   2.1232e-003  -2.9698e-004   2.2670e-003   4.7727e+005   9.5133e+004   2.2216e+005    0.1113   -0.0000    0.0222   -0.0000    0.0753
                0.0657   2.1371e-003  -2.9892e-004   1.4200e-003   4.8039e+005   9.5755e+004   1.3916e+005    0.1120   -0.0000    0.0223   -0.0000    0.0472
                0.0879   2.1301e-003  -2.9794e-004   5.4701e-004   4.7881e+005   9.5440e+004   5.3607e+004    0.1116   -0.0000    0.0222   -0.0000    0.0182
                0.1105   2.1230e-003  -2.9695e-004   3.3899e-004   4.7722e+005   9.5123e+004   3.3221e+004    0.1112   -0.0000    0.0222   -0.0000    0.0113
                0.1335   2.0664e-003  -2.8904e-004   1.2312e-003   4.6450e+005   9.2589e+004   1.2066e+005    0.1083   -0.0000    0.0216   -0.0000    0.0409
                0.1569   2.0063e-003  -2.8062e-004   2.1129e-003   4.5098e+005   8.9894e+004   2.0707e+005    0.1051   -0.0000    0.0210   -0.0000    0.0702
                0.1806   1.9334e-003  -2.7043e-004   2.9749e-003   4.3461e+005   8.6631e+004   2.9154e+005    0.1013   -0.0000    0.0202   -0.0000    0.0988
                0.1830   1.9232e-003  -2.6901e-004   3.0618e-003   4.3232e+005   8.6173e+004   3.0006e+005    0.1008   -0.0000    0.0201   -0.0000    0.1017

               lamina:  4     
              matName:  (spar-uni)
                     s           e11           e22           e12           s11           s22           s12   s11_fcT   s11_fcC   s22_fcT   s22_fcC   s12_fcS
                   (m)         (m/m)         (m/m)         (rad)          (Pa)          (Pa)          (Pa)       (-)       (-)       (-)       (-)       (-)
                0.0000   2.0249e-003  -2.8328e-004   3.9634e-003   2.4994e+008   2.8426e+006   1.8667e+007    0.1263   -0.0000    0.0475   -0.0000    0.1812
                0.0029   2.0356e-003  -2.8478e-004   3.8547e-003   2.5127e+008   2.8576e+006   1.8156e+007    0.1270   -0.0000    0.0477   -0.0000    0.1763
                0.0232   2.0759e-003  -2.9041e-004   3.0817e-003   2.5623e+008   2.9141e+006   1.4515e+007    0.1295   -0.0000    0.0487   -0.0000    0.1409
                0.0442   2.1175e-003  -2.9623e-004   2.2670e-003   2.6137e+008   2.9725e+006   1.0677e+007    0.1321   -0.0000    0.0496   -0.0000    0.1037
                0.0657   2.1313e-003  -2.9817e-004   1.4200e-003   2.6308e+008   2.9920e+006   6.6883e+006    0.1329   -0.0000    0.0500   -0.0000    0.0649
                0.0879   2.1243e-003  -2.9719e-004   5.4701e-004   2.6221e+008   2.9821e+006   2.5764e+006    0.1325   -0.0000    0.0498   -0.0000    0.0250
                0.1105   2.1172e-003  -2.9620e-004   3.3899e-004   2.6134e+008   2.9722e+006   1.5966e+006    0.1321   -0.0000    0.0496   -0.0000    0.0155
                0.1335   2.0607e-003  -2.8829e-004   1.2312e-003   2.5436e+008   2.8928e+006   5.7990e+006    0.1285   -0.0000    0.0483   -0.0000    0.0563
                0.1569   2.0005e-003  -2.7988e-004   2.1129e-003   2.4694e+008   2.8084e+006   9.9518e+006    0.1248   -0.0000    0.0469   -0.0000    0.0966
                0.1806   1.9277e-003  -2.6969e-004   2.9749e-003   2.3795e+008   2.7062e+006   1.4012e+007    0.1202   -0.0000    0.0452   -0.0000    0.1360
                0.1830   1.9175e-003  -2.6827e-004   3.0618e-003   2.3669e+008   2.6919e+006   1.4421e+007    0.1196   -0.0000    0.0449   -0.0000    0.1400

               lamina:  5     
              matName:  (blade-shell)
                     s           e11           e22           e12           s11           s22           s12   s11_fcT   s11_fcC   s22_fcT   s22_fcC   s12_fcS
                   (m)         (m/m)         (m/m)         (rad)          (Pa)          (Pa)          (Pa)       (-)       (-)       (-)       (-)       (-)
                0.0000   1.9873e-003  -2.7839e-004   3.9634e-003   3.8105e+007  -3.9138e+005   1.5655e+007    0.1131   -0.0000    0.0000    0.0012    0.1361
                0.0029   1.9977e-003  -2.7985e-004   3.8547e-003   3.8306e+007  -3.9345e+005   1.5226e+007    0.1137   -0.0000    0.0000    0.0012    0.1324
                0.0232   2.0380e-003  -2.8548e-004   3.0817e-003   3.9077e+007  -4.0122e+005   1.2173e+007    0.1160   -0.0000    0.0000    0.0012    0.1058
                0.0442   2.0795e-003  -2.9129e-004   2.2670e-003   3.9873e+007  -4.0925e+005   8.9546e+006    0.1183   -0.0000    0.0000    0.0012    0.0779
                0.0657   2.0933e-003  -2.9322e-004   1.4200e-003   4.0138e+007  -4.1193e+005   5.6091e+006    0.1191   -0.0000    0.0000    0.0012    0.0488
                0.0879   2.0863e-003  -2.9224e-004   5.4701e-004   4.0004e+007  -4.1058e+005   2.1607e+006    0.1187   -0.0000    0.0000    0.0012    0.0188
                0.1105   2.0793e-003  -2.9126e-004   3.3899e-004   3.9869e+007  -4.0921e+005   1.3390e+006    0.1183   -0.0000    0.0000    0.0012    0.0116
                0.1335   2.0229e-003  -2.8337e-004   1.2312e-003   3.8787e+007  -3.9829e+005   4.8633e+006    0.1151   -0.0000    0.0000    0.0012    0.0423
                0.1569   1.9628e-003  -2.7496e-004   2.1129e-003   3.7635e+007  -3.8668e+005   8.3460e+006    0.1117   -0.0000    0.0000    0.0011    0.0726
                0.1806   1.8900e-003  -2.6478e-004   2.9749e-003   3.6240e+007  -3.7262e+005   1.1751e+007    0.1075   -0.0000    0.0000    0.0011    0.1022
                0.1830   1.8801e-003  -2.6339e-004   3.0618e-003   3.6049e+007  -3.7065e+005   1.2094e+007    0.1070   -0.0000    0.0000    0.0011    0.1052

            panel:  3     
           lam_num    nPlies        tPly      fibAng     matID  matName
               (-)       (-)         (m)       (deg)       (-)  (-)
                 1         1    0.002251      0.0000         2  (blade-shell)
                 2         1    0.000421      0.0000         6  (TEP-core)
                 3         1    0.002251      0.0000         2  (blade-shell)

               lamina:  1     
              matName:  (blade-shell)
                     s           e11           e22           e12           s11           s22           s12   s11_fcT   s11_fcC   s22_fcT   s22_fcC   s12_fcS
                   (m)         (m/m)         (m/m)         (rad)          (Pa)          (Pa)          (Pa)       (-)       (-)       (-)       (-)       (-)
                0.0000   2.0924e-003  -2.7244e-004   2.0556e-003   4.0173e+007  -8.4672e+003   8.1194e+006    0.1192   -0.0000    0.0000    0.0000    0.0706
                0.0214   2.0032e-003  -2.6083e-004   1.5947e-003   3.8461e+007  -8.0748e+003   6.2992e+006    0.1141   -0.0000    0.0000    0.0000    0.0548
                0.0453   1.9032e-003  -2.4781e-004   1.1057e-003   3.6541e+007  -7.6365e+003   4.3674e+006    0.1084   -0.0000    0.0000    0.0000    0.0380
                0.0693   1.7874e-003  -2.3272e-004   6.4558e-004   3.4317e+007  -7.1295e+003   2.5500e+006    0.1018   -0.0000    0.0000    0.0000    0.0222
                0.0931   1.6653e-003  -2.1683e-004   2.1951e-004   3.1973e+007  -6.5934e+003   8.6706e+005    0.0949   -0.0000    0.0000    0.0000    0.0075
                0.1167   1.5442e-003  -2.0105e-004   1.6899e-004   2.9647e+007  -6.0616e+003   6.6749e+005    0.0880   -0.0000    0.0000    0.0000    0.0058
                0.1399   1.4163e-003  -1.8440e-004   5.1965e-004   2.7192e+007  -5.5001e+003   2.0526e+006    0.0807   -0.0000    0.0000    0.0000    0.0178
                0.1627   1.2912e-003  -1.6810e-004   8.3075e-004   2.4790e+007  -4.9495e+003   3.2815e+006    0.0736   -0.0000    0.0000    0.0000    0.0285
                0.1849   1.1710e-003  -1.5246e-004   1.1030e-003   2.2483e+007  -4.4204e+003   4.3569e+006    0.0667   -0.0000    0.0000    0.0000    0.0379
                0.2065   1.0569e-003  -1.3760e-004   1.3383e-003   2.0292e+007  -3.9178e+003   5.2861e+006    0.0602   -0.0000    0.0000    0.0000    0.0460
                0.2274   9.4681e-004  -1.2326e-004   1.5391e-003   1.8178e+007  -3.4319e+003   6.0795e+006    0.0539   -0.0000    0.0000    0.0000    0.0529
                0.2473   8.5271e-004  -1.1101e-004   1.7080e-003   1.6372e+007  -3.0158e+003   6.7466e+006    0.0486   -0.0000    0.0000    0.0000    0.0587
                0.2663   7.6568e-004  -9.9673e-005   1.8494e-003   1.4701e+007  -2.6320e+003   7.3050e+006    0.0436   -0.0000    0.0000    0.0000    0.0635
                0.2844   6.8646e-004  -8.9356e-005   1.9665e-003   1.3180e+007  -2.2808e+003   7.7677e+006    0.0391   -0.0000    0.0000    0.0000    0.0675
                0.3013   6.2792e-004  -8.1732e-005   2.0629e-003   1.2056e+007  -2.0211e+003   8.1484e+006    0.0358   -0.0000    0.0000    0.0000    0.0709
                0.3171   5.7308e-004  -7.4591e-005   2.1427e-003   1.1003e+007  -1.7785e+003   8.4638e+006    0.0326   -0.0000    0.0000    0.0000    0.0736
                0.3317   5.3333e-004  -6.9415e-005   2.2087e-003   1.0240e+007  -1.6013e+003   8.7244e+006    0.0304   -0.0000    0.0000    0.0000    0.0759
                0.3451   5.0610e-004  -6.5869e-005   2.2638e-003   9.7169e+006  -1.4805e+003   8.9421e+006    0.0288   -0.0000    0.0000    0.0000    0.0778
                0.3572   4.8152e-004  -6.2667e-005   2.3103e-003   9.2449e+006  -1.3709e+003   9.1257e+006    0.0274   -0.0000    0.0000    0.0000    0.0794
                0.3680   4.7593e-004  -6.1940e-005   2.3498e-003   9.1378e+006  -1.3454e+003   9.2819e+006    0.0271   -0.0000    0.0000    0.0000    0.0807
                0.3774   4.7274e-004  -6.1524e-005   2.3838e-003   9.0764e+006  -1.3313e+003   9.4161e+006    0.0269   -0.0000    0.0000    0.0000    0.0819
                0.3855   4.7383e-004  -6.1666e-005   2.4129e-003   9.0974e+006  -1.3365e+003   9.5311e+006    0.0270   -0.0000    0.0000    0.0000    0.0829
                0.3922   4.8441e-004  -6.3044e-005   2.4375e-003   9.3005e+006  -1.3842e+003   9.6280e+006    0.0276   -0.0000    0.0000    0.0000    0.0837
                0.3974   4.9261e-004  -6.4112e-005   2.4572e-003   9.4579e+006  -1.4217e+003   9.7060e+006    0.0281   -0.0000    0.0000    0.0000    0.0844
                0.4012   5.0359e-004  -6.5543e-005   2.4722e-003   9.6688e+006  -1.4743e+003   9.7652e+006    0.0287   -0.0000    0.0000    0.0000    0.0849
                0.4035   5.1253e-004  -6.6706e-005   2.4815e-003   9.8403e+006  -1.5165e+003   9.8020e+006    0.0292   -0.0000    0.0000    0.0000    0.0852
                0.4043   5.1565e-004  -6.7113e-005   2.4846e-003   9.9003e+006  -1.5303e+003   9.8142e+006    0.0294   -0.0000    0.0000    0.0000    0.0853

               lamina:  2     
              matName:  (TEP-core)
                     s           e11           e22           e12           s11           s22           s12   s11_fcT   s11_fcC   s22_fcT   s22_fcC   s12_fcS
                   (m)         (m/m)         (m/m)         (rad)          (Pa)          (Pa)          (Pa)       (-)       (-)       (-)       (-)       (-)
                0.0000   1.9379e-003  -2.5236e-004   2.0556e-003   4.3706e+005   9.1235e+004   2.0144e+005    0.1019   -0.0000    0.0213   -0.0000    0.0683
                0.0214   1.8487e-003  -2.4074e-004   1.5947e-003   4.1695e+005   8.7036e+004   1.5628e+005    0.0972   -0.0000    0.0203   -0.0000    0.0530
                0.0453   1.7490e-003  -2.2777e-004   1.1057e-003   3.9447e+005   8.2345e+004   1.0835e+005    0.0920   -0.0000    0.0192   -0.0000    0.0367
                0.0693   1.6338e-003  -2.1275e-004   6.4558e-004   3.6847e+005   7.6917e+004   6.3267e+004    0.0859   -0.0000    0.0179   -0.0000    0.0214
                0.0931   1.5119e-003  -1.9688e-004   2.1951e-004   3.4098e+005   7.1180e+004   2.1512e+004    0.0795   -0.0000    0.0166   -0.0000    0.0073
                0.1167   1.3910e-003  -1.8114e-004   1.6899e-004   3.1372e+005   6.5488e+004   1.6561e+004    0.0731   -0.0000    0.0153   -0.0000    0.0056
                0.1399   1.2633e-003  -1.6452e-004   5.1965e-004   2.8493e+005   5.9478e+004   5.0926e+004    0.0664   -0.0000    0.0139   -0.0000    0.0173
                0.1627   1.1382e-003  -1.4822e-004   8.3075e-004   2.5670e+005   5.3586e+004   8.1414e+004    0.0598   -0.0000    0.0125   -0.0000    0.0276
                0.1849   1.0179e-003  -1.3256e-004   1.1030e-003   2.2958e+005   4.7925e+004   1.0810e+005    0.0535   -0.0000    0.0112   -0.0000    0.0366
                0.2065   9.0371e-004  -1.1768e-004   1.3383e-003   2.0382e+005   4.2547e+004   1.3115e+005    0.0475   -0.0000    0.0099   -0.0000    0.0445
                0.2274   7.9328e-004  -1.0330e-004   1.5391e-003   1.7891e+005   3.7348e+004   1.5083e+005    0.0417   -0.0000    0.0087   -0.0000    0.0511
                0.2473   6.9875e-004  -9.0991e-005   1.7080e-003   1.5759e+005   3.2897e+004   1.6738e+005    0.0367   -0.0000    0.0077   -0.0000    0.0567
                0.2663   6.1153e-004  -7.9633e-005   1.8494e-003   1.3792e+005   2.8791e+004   1.8124e+005    0.0321   -0.0000    0.0067   -0.0000    0.0614
                0.2844   5.3174e-004  -6.9243e-005   1.9665e-003   1.1993e+005   2.5035e+004   1.9272e+005    0.0280   -0.0000    0.0058   -0.0000    0.0653
                0.3013   4.7276e-004  -6.1562e-005   2.0629e-003   1.0662e+005   2.2258e+004   2.0216e+005    0.0249   -0.0000    0.0052   -0.0000    0.0685
                0.3171   4.1763e-004  -5.4383e-005   2.1427e-003   9.4191e+004   1.9663e+004   2.0999e+005    0.0220   -0.0000    0.0046   -0.0000    0.0712
                0.3317   3.7740e-004  -4.9143e-005   2.2087e-003   8.5117e+004   1.7768e+004   2.1645e+005    0.0198   -0.0000    0.0041   -0.0000    0.0734
                0.3451   3.4996e-004  -4.5571e-005   2.2638e-003   7.8930e+004   1.6477e+004   2.2185e+005    0.0184   -0.0000    0.0038   -0.0000    0.0752
                0.3572   3.2508e-004  -4.2331e-005   2.3103e-003   7.3318e+004   1.5306e+004   2.2641e+005    0.0171   -0.0000    0.0036   -0.0000    0.0767
                0.3680   3.1931e-004  -4.1578e-005   2.3498e-003   7.2015e+004   1.5034e+004   2.3028e+005    0.0168   -0.0000    0.0035   -0.0000    0.0781
                0.3774   3.1609e-004  -4.1159e-005   2.3838e-003   7.1290e+004   1.4882e+004   2.3361e+005    0.0166   -0.0000    0.0035   -0.0000    0.0792
                0.3855   3.1726e-004  -4.1312e-005   2.4129e-003   7.1554e+004   1.4937e+004   2.3647e+005    0.0167   -0.0000    0.0035   -0.0000    0.0802
                0.3922   3.2808e-004  -4.2722e-005   2.4375e-003   7.3995e+004   1.5447e+004   2.3887e+005    0.0172   -0.0000    0.0036   -0.0000    0.0810
                0.3974   3.3658e-004  -4.3828e-005   2.4572e-003   7.5911e+004   1.5847e+004   2.4081e+005    0.0177   -0.0000    0.0037   -0.0000    0.0816
                0.4012   3.4846e-004  -4.5375e-005   2.4722e-003   7.8591e+004   1.6406e+004   2.4228e+005    0.0183   -0.0000    0.0038   -0.0000    0.0821
                0.4035   3.5801e-004  -4.6619e-005   2.4815e-003   8.0745e+004   1.6856e+004   2.4319e+005    0.0188   -0.0000    0.0039   -0.0000    0.0824
                0.4043   3.6114e-004  -4.7026e-005   2.4846e-003   8.1450e+004   1.7003e+004   2.4349e+005    0.0190   -0.0000    0.0040   -0.0000    0.0825

               lamina:  3     
              matName:  (blade-shell)
                     s           e11           e22           e12           s11           s22           s12   s11_fcT   s11_fcC   s22_fcT   s22_fcC   s12_fcS
                   (m)         (m/m)         (m/m)         (rad)          (Pa)          (Pa)          (Pa)       (-)       (-)       (-)       (-)       (-)
                0.0000   1.9090e-003  -2.4860e-004   2.0556e-003   3.6652e+007  -8.4618e+003   8.1194e+006    0.1088   -0.0000    0.0000    0.0000    0.0706
                0.0214   1.8198e-003  -2.3699e-004   1.5947e-003   3.4939e+007  -8.0694e+003   6.2992e+006    0.1037   -0.0000    0.0000    0.0000    0.0548
                0.0453   1.7202e-003  -2.2402e-004   1.1057e-003   3.3027e+007  -7.6312e+003   4.3674e+006    0.0980   -0.0000    0.0000    0.0000    0.0380
                0.0693   1.6050e-003  -2.0902e-004   6.4558e-004   3.0816e+007  -7.1242e+003   2.5500e+006    0.0914   -0.0000    0.0000    0.0000    0.0222
                0.0931   1.4832e-003  -1.9315e-004   2.1951e-004   2.8477e+007  -6.5881e+003   8.6706e+005    0.0845   -0.0000    0.0000    0.0000    0.0075
                0.1167   1.3624e-003  -1.7742e-004   1.6899e-004   2.6156e+007  -6.0563e+003   6.6749e+005    0.0776   -0.0000    0.0000    0.0000    0.0058
                0.1399   1.2348e-003  -1.6080e-004   5.1965e-004   2.3707e+007  -5.4948e+003   2.0526e+006    0.0703   -0.0000    0.0000    0.0000    0.0178
                0.1627   1.1096e-003  -1.4450e-004   8.3075e-004   2.1304e+007  -4.9442e+003   3.2815e+006    0.0632   -0.0000    0.0000    0.0000    0.0285
                0.1849   9.8932e-004  -1.2884e-004   1.1030e-003   1.8994e+007  -4.4151e+003   4.3569e+006    0.0564   -0.0000    0.0000    0.0000    0.0379
                0.2065   8.7508e-004  -1.1396e-004   1.3383e-003   1.6801e+007  -3.9125e+003   5.2861e+006    0.0499   -0.0000    0.0000    0.0000    0.0460
                0.2274   7.6458e-004  -9.9571e-005   1.5391e-003   1.4680e+007  -3.4265e+003   6.0795e+006    0.0436   -0.0000    0.0000    0.0000    0.0529
                0.2473   6.6997e-004  -8.7250e-005   1.7080e-003   1.2863e+007  -3.0104e+003   6.7466e+006    0.0382   -0.0000    0.0000    0.0000    0.0587
                0.2663   5.8272e-004  -7.5888e-005   1.8494e-003   1.1188e+007  -2.6266e+003   7.3050e+006    0.0332   -0.0000    0.0000    0.0000    0.0635
                0.2844   5.0283e-004  -6.5484e-005   1.9665e-003   9.6540e+006  -2.2754e+003   7.7677e+006    0.0286   -0.0000    0.0000    0.0000    0.0675
                0.3013   4.4376e-004  -5.7792e-005   2.0629e-003   8.5199e+006  -2.0157e+003   8.1484e+006    0.0253   -0.0000    0.0000    0.0000    0.0709
                0.3171   3.8858e-004  -5.0606e-005   2.1427e-003   7.4605e+006  -1.7730e+003   8.4638e+006    0.0221   -0.0000    0.0000    0.0000    0.0736
                0.3317   3.4825e-004  -4.5355e-005   2.2087e-003   6.6863e+006  -1.5958e+003   8.7244e+006    0.0198   -0.0000    0.0000    0.0000    0.0759
                0.3451   3.2078e-004  -4.1777e-005   2.2638e-003   6.1588e+006  -1.4751e+003   8.9421e+006    0.0183   -0.0000    0.0000    0.0000    0.0778
                0.3572   2.9585e-004  -3.8530e-005   2.3103e-003   5.6801e+006  -1.3655e+003   9.1257e+006    0.0169   -0.0000    0.0000    0.0000    0.0794
                0.3680   2.9003e-004  -3.7773e-005   2.3498e-003   5.5685e+006  -1.3400e+003   9.2819e+006    0.0165   -0.0000    0.0000    0.0000    0.0807
                0.3774   2.8681e-004  -3.7353e-005   2.3838e-003   5.5066e+006  -1.3258e+003   9.4161e+006    0.0163   -0.0000    0.0000    0.0000    0.0819
                0.3855   2.8800e-004  -3.7508e-005   2.4129e-003   5.5294e+006  -1.3310e+003   9.5311e+006    0.0164   -0.0000    0.0000    0.0000    0.0829
                0.3922   2.9887e-004  -3.8923e-005   2.4375e-003   5.7381e+006  -1.3787e+003   9.6280e+006    0.0170   -0.0000    0.0000    0.0000    0.0837
                0.3974   3.0742e-004  -4.0037e-005   2.4572e-003   5.9023e+006  -1.4162e+003   9.7060e+006    0.0175   -0.0000    0.0000    0.0000    0.0844
                0.4012   3.1947e-004  -4.1606e-005   2.4722e-003   6.1336e+006  -1.4689e+003   9.7652e+006    0.0182   -0.0000    0.0000    0.0000    0.0849
                0.4035   3.2913e-004  -4.2865e-005   2.4815e-003   6.3192e+006  -1.5111e+003   9.8020e+006    0.0188   -0.0000    0.0000    0.0000    0.0852
                0.4043   3.3226e-004  -4.3272e-005   2.4846e-003   6.3792e+006  -1.5249e+003   9.8142e+006    0.0189   -0.0000    0.0000    0.0000    0.0853

     Web:  panel  nNode   nLam     xc_St    xc_End         b         t         E_eff         G_eff      nu_eff     density  buckleCrit
            (-)    (-)    (-)       (-)       (-)       (m)       (m)          (Pa)          (Pa)         (-)    (kg/m^3)         (-)
              1     10      3    0.2281    0.2281    0.1588    0.0121   6.5707e+009   1.3870e+009      0.1347    691.8994      0.0021
              2     10      3    0.4719    0.4719    0.1527    0.0121   6.5707e+009   1.3870e+009      0.1347    691.8994      0.0025

            panel:  1     
           lam_num    nPlies        tPly      fibAng     matID  matName
               (-)       (-)         (m)       (deg)       (-)  (-)
                 1         1    0.002023      0.0000         7  (web-shell)
                 2         1    0.008047      0.0000         8  (web-core)
                 3         1    0.002023      0.0000         7  (web-shell)

               lamina:  1     
              matName:  (web-shell)
                     s           e11           e22           e12           s11           s22           s12   s11_fcT   s11_fcC   s22_fcT   s22_fcC   s12_fcS
                   (m)         (m/m)         (m/m)         (rad)          (Pa)          (Pa)          (Pa)       (-)       (-)       (-)       (-)       (-)
                0.0000  -2.0408e-003   2.7487e-004   4.6480e-003  -3.9158e+007   1.8693e+005   1.8359e+007    0.0000    0.0788    0.0006   -0.0000    0.1596
                0.0176  -1.5942e-003   2.1473e-004   5.0077e-003  -3.0590e+007   1.4606e+005   1.9780e+007    0.0000    0.0615    0.0004   -0.0000    0.1720
                0.0353  -1.1477e-003   1.5458e-004   5.2794e-003  -2.2022e+007   1.0519e+005   2.0854e+007    0.0000    0.0443    0.0003   -0.0000    0.1813
                0.0529  -7.0113e-004   9.4441e-005   5.4632e-003  -1.3453e+007   6.4324e+004   2.1580e+007    0.0000    0.0271    0.0002   -0.0000    0.1876
                0.0706  -2.5459e-004   3.4297e-005   5.5589e-003  -4.8850e+006   2.3454e+004   2.1958e+007    0.0000    0.0098    0.0001   -0.0000    0.1909
                0.0882   1.9303e-004  -2.5987e-005   5.5667e-003   3.7039e+006  -1.7436e+004   2.1988e+007    0.0110   -0.0000    0.0000    0.0001    0.1912
                0.1058   6.3957e-004  -8.6130e-005   5.4864e-003   1.2272e+007  -5.8305e+004   2.1671e+007    0.0364   -0.0000    0.0000    0.0002    0.1884
                0.1235   1.0861e-003  -1.4627e-004   5.3181e-003   2.0841e+007  -9.9174e+004   2.1007e+007    0.0618   -0.0000    0.0000    0.0003    0.1827
                0.1411   1.5327e-003  -2.0642e-004   5.0619e-003   2.9409e+007  -1.4004e+005   1.9994e+007    0.0873   -0.0000    0.0000    0.0004    0.1739
                0.1588   1.9792e-003  -2.6656e-004   4.7176e-003   3.7977e+007  -1.8091e+005   1.8635e+007    0.1127   -0.0000    0.0000    0.0005    0.1620

               lamina:  2     
              matName:  (web-core)
                     s           e11           e22           e12           s11           s22           s12   s11_fcT   s11_fcC   s22_fcT   s22_fcC   s12_fcS
                   (m)         (m/m)         (m/m)         (rad)          (Pa)          (Pa)          (Pa)       (-)       (-)       (-)       (-)       (-)
                0.0000  -2.0450e-003   2.7543e-004   4.6480e-003  -4.6052e+005  -9.4131e+004   4.5550e+005    0.0000    0.1073    0.0000    0.0219    0.1544
                0.0176  -1.5985e-003   2.1529e-004   5.0077e-003  -3.5996e+005  -7.3578e+004   4.9075e+005    0.0000    0.0839    0.0000    0.0172    0.1664
                0.0353  -1.1519e-003   1.5514e-004   5.2794e-003  -2.5941e+005  -5.3024e+004   5.1738e+005    0.0000    0.0605    0.0000    0.0124    0.1754
                0.0529  -7.0540e-004   9.5000e-005   5.4632e-003  -1.5885e+005  -3.2470e+004   5.3539e+005    0.0000    0.0370    0.0000    0.0076    0.1815
                0.0706  -2.5886e-004   3.4857e-005   5.5589e-003  -5.8293e+004  -1.1917e+004   5.4477e+005    0.0000    0.0136    0.0000    0.0028    0.1847
                0.0882   1.9196e-004  -2.5846e-005   5.5667e-003   4.3227e+004   8.8372e+003   5.4553e+005    0.0101   -0.0000    0.0021   -0.0000    0.1849
                0.1058   6.3850e-004  -8.5989e-005   5.4864e-003   1.4378e+005   2.9391e+004   5.3767e+005    0.0335   -0.0000    0.0069   -0.0000    0.1823
                0.1235   1.0850e-003  -1.4613e-004   5.3181e-003   2.4434e+005   4.9945e+004   5.2118e+005    0.0570   -0.0000    0.0116   -0.0000    0.1767
                0.1411   1.5316e-003  -2.0628e-004   5.0619e-003   3.4490e+005   7.0498e+004   4.9607e+005    0.0804   -0.0000    0.0164   -0.0000    0.1682
                0.1588   1.9781e-003  -2.6642e-004   4.7176e-003   4.4545e+005   9.1052e+004   4.6233e+005    0.1038   -0.0000    0.0212   -0.0000    0.1567

               lamina:  3     
              matName:  (web-shell)
                     s           e11           e22           e12           s11           s22           s12   s11_fcT   s11_fcC   s22_fcT   s22_fcC   s12_fcS
                   (m)         (m/m)         (m/m)         (rad)          (Pa)          (Pa)          (Pa)       (-)       (-)       (-)       (-)       (-)
                0.0000  -2.0461e-003   2.7557e-004   4.6480e-003  -3.9261e+007   1.8704e+005   1.8359e+007    0.0000    0.0790    0.0006   -0.0000    0.1596
                0.0176  -1.5996e-003   2.1543e-004   5.0077e-003  -3.0693e+007   1.4617e+005   1.9780e+007    0.0000    0.0618    0.0004   -0.0000    0.1720
                0.0353  -1.1530e-003   1.5528e-004   5.2794e-003  -2.2124e+007   1.0530e+005   2.0854e+007    0.0000    0.0445    0.0003   -0.0000    0.1813
                0.0529  -7.0648e-004   9.5141e-005   5.4632e-003  -1.3556e+007   6.4428e+004   2.1580e+007    0.0000    0.0273    0.0002   -0.0000    0.1876
                0.0706  -2.5993e-004   3.4998e-005   5.5589e-003  -4.9876e+006   2.3559e+004   2.1958e+007    0.0000    0.0100    0.0001   -0.0000    0.1909
                0.0882   1.8768e-004  -2.5286e-005   5.5667e-003   3.6013e+006  -1.7331e+004   2.1988e+007    0.0107   -0.0000    0.0000    0.0001    0.1912
                0.1058   6.3423e-004  -8.5430e-005   5.4864e-003   1.2170e+007  -5.8200e+004   2.1671e+007    0.0361   -0.0000    0.0000    0.0002    0.1884
                0.1235   1.0808e-003  -1.4557e-004   5.3181e-003   2.0738e+007  -9.9070e+004   2.1007e+007    0.0615   -0.0000    0.0000    0.0003    0.1827
                0.1411   1.5273e-003  -2.0572e-004   5.0619e-003   2.9306e+007  -1.3994e+005   1.9994e+007    0.0870   -0.0000    0.0000    0.0004    0.1739
                0.1588   1.9739e-003  -2.6586e-004   4.7176e-003   3.7875e+007  -1.8081e+005   1.8635e+007    0.1124   -0.0000    0.0000    0.0005    0.1620

            panel:  2     
           lam_num    nPlies        tPly      fibAng     matID  matName
               (-)       (-)         (m)       (deg)       (-)  (-)
                 1         1    0.002023      0.0000         7  (web-shell)
                 2         1    0.008047      0.0000         8  (web-core)
                 3         1    0.002023      0.0000         7  (web-shell)

               lamina:  1     
              matName:  (web-shell)
                     s           e11           e22           e12           s11           s22           s12   s11_fcT   s11_fcC   s22_fcT   s22_fcC   s12_fcS
                   (m)         (m/m)         (m/m)         (rad)          (Pa)          (Pa)          (Pa)       (-)       (-)       (-)       (-)       (-)
                0.0000  -2.0091e-003   2.7061e-004   5.8314e-003  -3.8551e+007   1.8402e+005   2.3034e+007    0.0000    0.0776    0.0005   -0.0000    0.2003
                0.0170  -1.5795e-003   2.1274e-004   6.1719e-003  -3.0307e+007   1.4470e+005   2.4379e+007    0.0000    0.0610    0.0004   -0.0000    0.2120
                0.0339  -1.1498e-003   1.5487e-004   6.4310e-003  -2.2063e+007   1.0537e+005   2.5402e+007    0.0000    0.0444    0.0003   -0.0000    0.2209
                0.0509  -7.2017e-004   9.7004e-005   6.6086e-003  -1.3819e+007   6.6048e+004   2.6104e+007    0.0000    0.0278    0.0002   -0.0000    0.2270
                0.0679  -2.9051e-004   3.9135e-005   6.7047e-003  -5.5744e+006   2.6725e+004   2.6484e+007    0.0000    0.0112    0.0001   -0.0000    0.2303
                0.0849   1.4009e-004  -1.8858e-005   6.7194e-003   2.6881e+006  -1.2617e+004   2.6541e+007    0.0080   -0.0000    0.0000    0.0000    0.2308
                0.1018   5.6974e-004  -7.6726e-005   6.6526e-003   1.0932e+007  -5.1941e+004   2.6278e+007    0.0324   -0.0000    0.0000    0.0002    0.2285
                0.1188   9.9940e-004  -1.3459e-004   6.5043e-003   1.9177e+007  -9.1264e+004   2.5692e+007    0.0569   -0.0000    0.0000    0.0003    0.2234
                0.1358   1.4291e-003  -1.9246e-004   6.2746e-003   2.7421e+007  -1.3059e+005   2.4784e+007    0.0814   -0.0000    0.0000    0.0004    0.2155
                0.1527   1.8587e-003  -2.5033e-004   5.9634e-003   3.5665e+007  -1.6991e+005   2.3555e+007    0.1058   -0.0000    0.0000    0.0005    0.2048

               lamina:  2     
              matName:  (web-core)
                     s           e11           e22           e12           s11           s22           s12   s11_fcT   s11_fcC   s22_fcT   s22_fcC   s12_fcS
                   (m)         (m/m)         (m/m)         (rad)          (Pa)          (Pa)          (Pa)       (-)       (-)       (-)       (-)       (-)
                0.0000  -2.0129e-003   2.7110e-004   5.8314e-003  -4.5329e+005  -9.2652e+004   5.7148e+005    0.0000    0.1057    0.0000    0.0216    0.1937
                0.0170  -1.5833e-003   2.1324e-004   6.1719e-003  -3.5653e+005  -7.2876e+004   6.0485e+005    0.0000    0.0831    0.0000    0.0170    0.2050
                0.0339  -1.1536e-003   1.5537e-004   6.4310e-003  -2.5978e+005  -5.3100e+004   6.3023e+005    0.0000    0.0606    0.0000    0.0124    0.2136
                0.0509  -7.2394e-004   9.7498e-005   6.6086e-003  -1.6303e+005  -3.3324e+004   6.4764e+005    0.0000    0.0380    0.0000    0.0078    0.2195
                0.0679  -2.9429e-004   3.9630e-005   6.7047e-003  -6.6272e+004  -1.3547e+004   6.5706e+005    0.0000    0.0154    0.0000    0.0032    0.2227
                0.0849   1.3914e-004  -1.8733e-005   6.7194e-003   3.1333e+004   6.4060e+003   6.5850e+005    0.0073   -0.0000    0.0015   -0.0000    0.2232
                0.1018   5.6879e-004  -7.6602e-005   6.6526e-003   1.2809e+005   2.6182e+004   6.5195e+005    0.0299   -0.0000    0.0061   -0.0000    0.2210
                0.1188   9.9845e-004  -1.3447e-004   6.5043e-003   2.2484e+005   4.5959e+004   6.3742e+005    0.0524   -0.0000    0.0107   -0.0000    0.2161
                0.1358   1.4281e-003  -1.9234e-004   6.2746e-003   3.2159e+005   6.5735e+004   6.1491e+005    0.0750   -0.0000    0.0153   -0.0000    0.2084
                0.1527   1.8578e-003  -2.5021e-004   5.9634e-003   4.1835e+005   8.5511e+004   5.8441e+005    0.0975   -0.0000    0.0199   -0.0000    0.1981

               lamina:  3     
              matName:  (web-shell)
                     s           e11           e22           e12           s11           s22           s12   s11_fcT   s11_fcC   s22_fcT   s22_fcC   s12_fcS
                   (m)         (m/m)         (m/m)         (rad)          (Pa)          (Pa)          (Pa)       (-)       (-)       (-)       (-)       (-)
                0.0000  -2.0139e-003   2.7123e-004   5.8314e-003  -3.8642e+007   1.8411e+005   2.3034e+007    0.0000    0.0778    0.0005   -0.0000    0.2003
                0.0170  -1.5842e-003   2.1336e-004   6.1719e-003  -3.0398e+007   1.4479e+005   2.4379e+007    0.0000    0.0612    0.0004   -0.0000    0.2120
                0.0339  -1.1545e-003   1.5549e-004   6.4310e-003  -2.2154e+007   1.0546e+005   2.5402e+007    0.0000    0.0446    0.0003   -0.0000    0.2209
                0.0509  -7.2489e-004   9.7623e-005   6.6086e-003  -1.3909e+007   6.6141e+004   2.6104e+007    0.0000    0.0280    0.0002   -0.0000    0.2270
                0.0679  -2.9524e-004   3.9754e-005   6.7047e-003  -5.6651e+006   2.6817e+004   2.6484e+007    0.0000    0.0114    0.0001   -0.0000    0.2303
                0.0849   1.3536e-004  -1.8239e-005   6.7194e-003   2.5974e+006  -1.2525e+004   2.6541e+007    0.0077   -0.0000    0.0000    0.0000    0.2308
                0.1018   5.6502e-004  -7.6107e-005   6.6526e-003   1.0842e+007  -5.1848e+004   2.6278e+007    0.0322   -0.0000    0.0000    0.0002    0.2285
                0.1188   9.9467e-004  -1.3398e-004   6.5043e-003   1.9086e+007  -9.1172e+004   2.5692e+007    0.0566   -0.0000    0.0000    0.0003    0.2234
                0.1358   1.4243e-003  -1.9184e-004   6.2746e-003   2.7330e+007  -1.3050e+005   2.4784e+007    0.0811   -0.0000    0.0000    0.0004    0.2155
                0.1527   1.8540e-003  -2.4971e-004   5.9634e-003   3.5574e+007  -1.6982e+005   2.3555e+007    0.1056   -0.0000    0.0000    0.0005    0.2048

================================================================================
sec        =  29     
zSec       =  8.3970  (m)
nPanelsTop =  3      
nPanelsBot =  3      
nWebs      =  2      

    Top:  panel  nNode   nLam     xc_St    xc_End         b         t         E_eff         G_eff      nu_eff     density  buckleCrit
            (-)    (-)    (-)       (-)       (-)       (m)       (m)          (Pa)          (Pa)         (-)    (kg/m^3)         (-)
              1     17      3    0.0000    0.2257    0.1865    0.0043   1.8577e+010   3.8235e+009      0.1301   1621.7136      0.0607
              2     11      5    0.2257    0.4743    0.1743    0.0044   2.4514e+010   3.9494e+009      0.1342   1643.8144      0.2436
              3     27      3    0.4743    1.0000    0.3793    0.0044   1.8183e+010   3.7436e+009      0.1301   1591.2483      0.4118

            panel:  1     
           lam_num    nPlies        tPly      fibAng     matID  matName
               (-)       (-)         (m)       (deg)       (-)  (-)
                 1         1    0.002070      0.0000         2  (blade-shell)
                 2         1    0.000141      0.0000         5  (LEP-core)
                 3         1    0.002070      0.0000         2  (blade-shell)

               lamina:  1     
              matName:  (blade-shell)
                     s           e11           e22           e12           s11           s22           s12   s11_fcT   s11_fcC   s22_fcT   s22_fcC   s12_fcS
                   (m)         (m/m)         (m/m)         (rad)          (Pa)          (Pa)          (Pa)       (-)       (-)       (-)       (-)       (-)
                0.0000   1.2544e-004  -1.6317e-005   2.0804e-003   2.4083e+006  -2.0250e+002   8.2175e+006    0.0071   -0.0000    0.0000    0.0000    0.0715
                0.0022   8.9632e-005  -1.1660e-005   2.0843e-003   1.7209e+006  -1.4521e+002   8.2329e+006    0.0051   -0.0000    0.0000    0.0000    0.0716
                0.0087  -5.4230e-005   7.0511e-006   2.0879e-003  -1.0412e+006   2.3445e+001   8.2473e+006    0.0000    0.0021    0.0000   -0.0000    0.0717
                0.0169  -1.9753e-004   2.5690e-005   2.0766e-003  -3.7925e+006   2.2535e+002   8.2024e+006    0.0000    0.0076    0.0000   -0.0000    0.0713
                0.0238  -2.9957e-004   3.8963e-005   2.0541e-003  -5.7517e+006   3.6684e+002   8.1138e+006    0.0000    0.0116    0.0000   -0.0000    0.0706
                0.0330  -4.2268e-004   5.4977e-005   2.0086e-003  -8.1154e+006   5.5399e+002   7.9340e+006    0.0000    0.0163    0.0000   -0.0000    0.0690
                0.0425  -5.3244e-004   6.9253e-005   1.9440e-003  -1.0223e+007   7.1739e+002   7.6790e+006    0.0000    0.0206    0.0000   -0.0000    0.0668
                0.0533  -6.4158e-004   8.3451e-005   1.8518e-003  -1.2318e+007   8.8813e+002   7.3145e+006    0.0000    0.0248    0.0000   -0.0000    0.0636
                0.0653  -7.6328e-004   9.9282e-005   1.7255e-003  -1.4655e+007   1.0751e+003   6.8158e+006    0.0000    0.0295    0.0000   -0.0000    0.0593
                0.0777  -8.5877e-004   1.1170e-004   1.5743e-003  -1.6488e+007   1.2218e+003   6.2185e+006    0.0000    0.0332    0.0000   -0.0000    0.0541
                0.0914  -9.6238e-004   1.2518e-004   1.3834e-003  -1.8477e+007   1.3855e+003   5.4643e+006    0.0000    0.0372    0.0000   -0.0000    0.0475
                0.1060  -1.0596e-003   1.3783e-004   1.1574e-003  -2.0344e+007   1.5370e+003   4.5718e+006    0.0000    0.0409    0.0000   -0.0000    0.0398
                0.1213  -1.1446e-003   1.4888e-004   8.9551e-004  -2.1975e+007   1.6711e+003   3.5373e+006    0.0000    0.0442    0.0000   -0.0000    0.0308
                0.1377  -1.2355e-003   1.6071e-004   5.9187e-004  -2.3722e+007   1.8144e+003   2.3379e+006    0.0000    0.0477    0.0000   -0.0000    0.0203
                0.1546  -1.3041e-003   1.6963e-004   2.5625e-004  -2.5039e+007   1.9218e+003   1.0122e+006    0.0000    0.0504    0.0000   -0.0000    0.0088
                0.1725  -1.3703e-003   1.7824e-004   1.1747e-004  -2.6309e+007   2.0271e+003   4.6399e+005    0.0000    0.0529    0.0000   -0.0000    0.0040
                0.1865  -1.4173e-003   1.8435e-004   4.2434e-004  -2.7211e+007   2.1018e+003   1.6761e+006    0.0000    0.0548    0.0000   -0.0000    0.0146

               lamina:  2     
              matName:  (LEP-core)
                     s           e11           e22           e12           s11           s22           s12   s11_fcT   s11_fcC   s22_fcT   s22_fcC   s12_fcS
                   (m)         (m/m)         (m/m)         (rad)          (Pa)          (Pa)          (Pa)       (-)       (-)       (-)       (-)       (-)
                0.0000   1.2767e-004  -1.6608e-005   2.0804e-003   2.8797e+004   6.0152e+003   2.0388e+005    0.0067   -0.0000    0.0014   -0.0000    0.0691
                0.0022   9.1870e-005  -1.1951e-005   2.0843e-003   2.0721e+004   4.3283e+003   2.0426e+005    0.0048   -0.0000    0.0010   -0.0000    0.0692
                0.0087  -1.5912e-005   2.0697e-006   2.0879e-003  -3.5889e+003  -7.4968e+002   2.0462e+005    0.0000    0.0008    0.0000    0.0002    0.0694
                0.0169  -1.4264e-004   1.8554e-005   2.0766e-003  -3.2171e+004  -6.7202e+003   2.0350e+005    0.0000    0.0075    0.0000    0.0016    0.0690
                0.0238  -2.3149e-004   3.0113e-005   2.0541e-003  -5.2213e+004  -1.0907e+004   2.0130e+005    0.0000    0.0122    0.0000    0.0025    0.0682
                0.0330  -3.4865e-004   4.5353e-005   2.0086e-003  -7.8637e+004  -1.6426e+004   1.9684e+005    0.0000    0.0183    0.0000    0.0038    0.0667
                0.0425  -4.5101e-004   5.8667e-005   1.9440e-003  -1.0172e+005  -2.1248e+004   1.9052e+005    0.0000    0.0237    0.0000    0.0050    0.0646
                0.0533  -5.5779e-004   7.2558e-005   1.8518e-003  -1.2581e+005  -2.6279e+004   1.8147e+005    0.0000    0.0293    0.0000    0.0061    0.0615
                0.0653  -6.7477e-004   8.7775e-005   1.7255e-003  -1.5219e+005  -3.1791e+004   1.6910e+005    0.0000    0.0355    0.0000    0.0074    0.0573
                0.0777  -7.6662e-004   9.9723e-005   1.5743e-003  -1.7291e+005  -3.6118e+004   1.5428e+005    0.0000    0.0403    0.0000    0.0084    0.0523
                0.0914  -8.6891e-004   1.1303e-004   1.3834e-003  -1.9598e+005  -4.0937e+004   1.3557e+005    0.0000    0.0457    0.0000    0.0095    0.0460
                0.1060  -9.6370e-004   1.2536e-004   1.1574e-003  -2.1736e+005  -4.5403e+004   1.1343e+005    0.0000    0.0507    0.0000    0.0106    0.0384
                0.1213  -1.0475e-003   1.3627e-004   8.9551e-004  -2.3627e+005  -4.9353e+004   8.7760e+004    0.0000    0.0551    0.0000    0.0115    0.0297
                0.1377  -1.1371e-003   1.4792e-004   5.9187e-004  -2.5648e+005  -5.3574e+004   5.8003e+004    0.0000    0.0598    0.0000    0.0125    0.0197
                0.1546  -1.2043e-003   1.5666e-004   2.5625e-004  -2.7163e+005  -5.6740e+004   2.5112e+004    0.0000    0.0633    0.0000    0.0132    0.0085
                0.1725  -1.2701e-003   1.6522e-004   1.1747e-004  -2.8647e+005  -5.9839e+004   1.1512e+004    0.0000    0.0668    0.0000    0.0139    0.0039
                0.1865  -1.3168e-003   1.7130e-004   4.2434e-004  -2.9701e+005  -6.2041e+004   4.1585e+004    0.0000    0.0692    0.0000    0.0145    0.0141

               lamina:  3     
              matName:  (blade-shell)
                     s           e11           e22           e12           s11           s22           s12   s11_fcT   s11_fcC   s22_fcT   s22_fcC   s12_fcS
                   (m)         (m/m)         (m/m)         (rad)          (Pa)          (Pa)          (Pa)       (-)       (-)       (-)       (-)       (-)
                0.0000   1.6063e-004  -2.0892e-005   2.0804e-003   3.0840e+006  -2.0256e+002   8.2175e+006    0.0092   -0.0000    0.0000    0.0000    0.0715
                0.0022   1.2482e-004  -1.6235e-005   2.0843e-003   2.3966e+006  -1.4527e+002   8.2329e+006    0.0071   -0.0000    0.0000    0.0000    0.0716
                0.0087   2.5009e-005  -3.2500e-006   2.0879e-003   4.8018e+005   2.3376e+001   8.2473e+006    0.0014   -0.0000    0.0000   -0.0000    0.0717
                0.0169  -1.3891e-004   1.8070e-005   2.0766e-003  -2.6670e+006   2.2525e+002   8.2024e+006    0.0000    0.0054    0.0000   -0.0000    0.0713
                0.0238  -2.2687e-004   2.9512e-005   2.0541e-003  -4.3559e+006   3.6672e+002   8.1138e+006    0.0000    0.0088    0.0000   -0.0000    0.0706
                0.0330  -3.4362e-004   4.4699e-005   2.0086e-003  -6.5975e+006   5.5386e+002   7.9340e+006    0.0000    0.0133    0.0000   -0.0000    0.0690
                0.0425  -4.4547e-004   5.7948e-005   1.9440e-003  -8.5530e+006   7.1724e+002   7.6790e+006    0.0000    0.0172    0.0000   -0.0000    0.0668
                0.0533  -5.5210e-004   7.1818e-005   1.8518e-003  -1.0600e+007   8.8798e+002   7.3145e+006    0.0000    0.0213    0.0000   -0.0000    0.0636
                0.0653  -6.6875e-004   8.6993e-005   1.7255e-003  -1.2840e+007   1.0749e+003   6.8158e+006    0.0000    0.0258    0.0000   -0.0000    0.0593
                0.0777  -7.6036e-004   9.8909e-005   1.5743e-003  -1.4599e+007   1.2217e+003   6.2185e+006    0.0000    0.0294    0.0000   -0.0000    0.0541
                0.0914  -8.6256e-004   1.1220e-004   1.3834e-003  -1.6561e+007   1.3853e+003   5.4643e+006    0.0000    0.0333    0.0000   -0.0000    0.0475
                0.1060  -9.5718e-004   1.2451e-004   1.1574e-003  -1.8378e+007   1.5368e+003   4.5718e+006    0.0000    0.0370    0.0000   -0.0000    0.0398
                0.1213  -1.0410e-003   1.3541e-004   8.9551e-004  -1.9986e+007   1.6709e+003   3.5373e+006    0.0000    0.0402    0.0000   -0.0000    0.0308
                0.1377  -1.1304e-003   1.4705e-004   5.9187e-004  -2.1704e+007   1.8142e+003   2.3379e+006    0.0000    0.0437    0.0000   -0.0000    0.0203
                0.1546  -1.1976e-003   1.5578e-004   2.5625e-004  -2.2993e+007   1.9217e+003   1.0122e+006    0.0000    0.0463    0.0000   -0.0000    0.0088
                0.1725  -1.2633e-003   1.6433e-004   1.1747e-004  -2.4255e+007   2.0269e+003   4.6399e+005    0.0000    0.0488    0.0000   -0.0000    0.0040
                0.1865  -1.3100e-003   1.7041e-004   4.2434e-004  -2.5152e+007   2.1016e+003   1.6761e+006    0.0000    0.0506    0.0000   -0.0000    0.0146

            panel:  2     
           lam_num    nPlies        tPly      fibAng     matID  matName
               (-)       (-)         (m)       (deg)       (-)  (-)
                 1         1    0.002070      0.0000         2  (blade-shell)
                 2         1    0.000117      0.0000         3  (spar-uni)
                 3         1    0.000047      0.0000         4  (spar-core)
                 4         1    0.000117      0.0000         3  (spar-uni)
                 5         1    0.002070      0.0000         2  (blade-shell)

               lamina:  1     
              matName:  (blade-shell)
                     s           e11           e22           e12           s11           s22           s12   s11_fcT   s11_fcC   s22_fcT   s22_fcC   s12_fcS
                   (m)         (m/m)         (m/m)         (rad)          (Pa)          (Pa)          (Pa)       (-)       (-)       (-)       (-)       (-)
                0.0000  -1.4536e-003   1.9452e-004   2.4666e-003  -2.7894e+007   1.0849e+005   9.7431e+006    0.0000    0.0561    0.0003   -0.0000    0.0847
                0.0044  -1.4700e-003   1.9671e-004   2.3394e-003  -2.8209e+007   1.0972e+005   9.2408e+006    0.0000    0.0568    0.0003   -0.0000    0.0804
                0.0235  -1.5084e-003   2.0187e-004   1.7824e-003  -2.8947e+007   1.1287e+005   7.0403e+006    0.0000    0.0582    0.0003   -0.0000    0.0612
                0.0432  -1.5483e-003   2.0723e-004   1.1903e-003  -2.9712e+007   1.1613e+005   4.7016e+006    0.0000    0.0598    0.0003   -0.0000    0.0409
                0.0634  -1.5675e-003   2.0980e-004   5.7300e-004  -3.0081e+007   1.1768e+005   2.2633e+006    0.0000    0.0605    0.0003   -0.0000    0.0197
                0.0840  -1.5708e-003   2.1024e-004   6.5603e-005  -3.0144e+007   1.1795e+005   2.5913e+005    0.0000    0.0607    0.0003   -0.0000    0.0023
                0.1051  -1.5740e-003   2.1068e-004   7.1692e-004  -3.0206e+007   1.1822e+005   2.8318e+006    0.0000    0.0608    0.0004   -0.0000    0.0246
                0.1265  -1.5410e-003   2.0624e-004   1.3737e-003  -2.9572e+007   1.1553e+005   5.4263e+006    0.0000    0.0595    0.0003   -0.0000    0.0472
                0.1483  -1.5057e-003   2.0151e-004   2.0252e-003  -2.8895e+007   1.1264e+005   7.9994e+006    0.0000    0.0581    0.0003   -0.0000    0.0696
                0.1703  -1.4605e-003   1.9544e-004   2.6638e-003  -2.8028e+007   1.0893e+005   1.0522e+007    0.0000    0.0564    0.0003   -0.0000    0.0915
                0.1743  -1.4478e-003   1.9374e-004   2.7761e-003  -2.7784e+007   1.0796e+005   1.0966e+007    0.0000    0.0559    0.0003   -0.0000    0.0954

               lamina:  2     
              matName:  (spar-uni)
                     s           e11           e22           e12           s11           s22           s12   s11_fcT   s11_fcC   s22_fcT   s22_fcC   s12_fcS
                   (m)         (m/m)         (m/m)         (rad)          (Pa)          (Pa)          (Pa)       (-)       (-)       (-)       (-)       (-)
                0.0000  -1.3212e-003   1.7731e-004   2.4666e-003  -1.6311e+008  -1.9169e+006   1.1618e+007    0.0000    0.1631    0.0000    0.0320    0.1128
                0.0044  -1.3362e-003   1.7932e-004   2.3394e-003  -1.6496e+008  -1.9386e+006   1.1019e+007    0.0000    0.1650    0.0000    0.0324    0.1070
                0.0235  -1.3744e-003   1.8445e-004   1.7824e-003  -1.6967e+008  -1.9940e+006   8.3949e+006    0.0000    0.1697    0.0000    0.0333    0.0815
                0.0432  -1.4139e-003   1.8974e-004   1.1903e-003  -1.7454e+008  -2.0513e+006   5.6062e+006    0.0000    0.1745    0.0000    0.0342    0.0544
                0.0634  -1.4326e-003   1.9226e-004   5.7300e-004  -1.7686e+008  -2.0785e+006   2.6988e+006    0.0000    0.1769    0.0000    0.0347    0.0262
                0.0840  -1.4359e-003   1.9270e-004   6.5603e-005  -1.7726e+008  -2.0832e+006   3.0899e+005    0.0000    0.1773    0.0000    0.0348    0.0030
                0.1051  -1.4392e-003   1.9315e-004   7.1692e-004  -1.7767e+008  -2.0880e+006   3.3767e+006    0.0000    0.1777    0.0000    0.0349    0.0328
                0.1265  -1.4066e-003   1.8877e-004   1.3737e-003  -1.7364e+008  -2.0407e+006   6.4703e+006    0.0000    0.1736    0.0000    0.0341    0.0628
                0.1483  -1.3715e-003   1.8407e-004   2.0252e-003  -1.6932e+008  -1.9899e+006   9.5385e+006    0.0000    0.1693    0.0000    0.0332    0.0926
                0.1703  -1.3267e-003   1.7804e-004   2.6638e-003  -1.6378e+008  -1.9248e+006   1.2547e+007    0.0000    0.1638    0.0000    0.0321    0.1218
                0.1743  -1.3149e-003   1.7646e-004   2.7761e-003  -1.6232e+008  -1.9077e+006   1.3075e+007    0.0000    0.1623    0.0000    0.0318    0.1269

               lamina:  3     
              matName:  (spar-core)
                     s           e11           e22           e12           s11           s22           s12   s11_fcT   s11_fcC   s22_fcT   s22_fcC   s12_fcS
                   (m)         (m/m)         (m/m)         (rad)          (Pa)          (Pa)          (Pa)       (-)       (-)       (-)       (-)       (-)
                0.0000  -1.3137e-003   1.7634e-004   2.4666e-003  -2.9589e+005  -6.0612e+004   2.4173e+005    0.0000    0.0690    0.0000    0.0141    0.0819
                0.0044  -1.3286e-003   1.7834e-004   2.3394e-003  -2.9925e+005  -6.1300e+004   2.2927e+005    0.0000    0.0698    0.0000    0.0143    0.0777
                0.0235  -1.3668e-003   1.8346e-004   1.7824e-003  -3.0784e+005  -6.3060e+004   1.7467e+005    0.0000    0.0718    0.0000    0.0147    0.0592
                0.0432  -1.4062e-003   1.8876e-004   1.1903e-003  -3.1672e+005  -6.4880e+004   1.1665e+005    0.0000    0.0738    0.0000    0.0151    0.0395
                0.0634  -1.4250e-003   1.9127e-004   5.7300e-004  -3.2094e+005  -6.5745e+004   5.6154e+004    0.0000    0.0748    0.0000    0.0153    0.0190
                0.0840  -1.4282e-003   1.9171e-004   6.5603e-005  -3.2167e+005  -6.5893e+004   6.4291e+003    0.0000    0.0750    0.0000    0.0154    0.0022
                0.1051  -1.4316e-003   1.9215e-004   7.1692e-004  -3.2242e+005  -6.6047e+004   7.0258e+004    0.0000    0.0752    0.0000    0.0154    0.0238
                0.1265  -1.3990e-003   1.8778e-004   1.3737e-003  -3.1509e+005  -6.4545e+004   1.3463e+005    0.0000    0.0734    0.0000    0.0150    0.0456
                0.1483  -1.3639e-003   1.8308e-004   2.0252e-003  -3.0720e+005  -6.2928e+004   1.9847e+005    0.0000    0.0716    0.0000    0.0147    0.0673
                0.1703  -1.3191e-003   1.7706e-004   2.6638e-003  -2.9709e+005  -6.0859e+004   2.6106e+005    0.0000    0.0693    0.0000    0.0142    0.0885
                0.1743  -1.3074e-003   1.7548e-004   2.7761e-003  -2.9445e+005  -6.0318e+004   2.7206e+005    0.0000    0.0686    0.0000    0.0141    0.0922

               lamina:  4     
              matName:  (spar-uni)
                     s           e11           e22           e12           s11           s22           s12   s11_fcT   s11_fcC   s22_fcT   s22_fcC   s12_fcS
                   (m)         (m/m)         (m/m)         (rad)          (Pa)          (Pa)          (Pa)       (-)       (-)       (-)       (-)       (-)
                0.0000  -1.3107e-003   1.7595e-004   2.4666e-003  -1.6181e+008  -1.9013e+006   1.1618e+007    0.0000    0.1618    0.0000    0.0317    0.1128
                0.0044  -1.3256e-003   1.7795e-004   2.3394e-003  -1.6365e+008  -1.9229e+006   1.1019e+007    0.0000    0.1636    0.0000    0.0321    0.1070
                0.0235  -1.3638e-003   1.8307e-004   1.7824e-003  -1.6836e+008  -1.9782e+006   8.3949e+006    0.0000    0.1684    0.0000    0.0330    0.0815
                0.0432  -1.4032e-003   1.8836e-004   1.1903e-003  -1.7322e+008  -2.0354e+006   5.6062e+006    0.0000    0.1732    0.0000    0.0340    0.0544
                0.0634  -1.4219e-003   1.9088e-004   5.7300e-004  -1.7554e+008  -2.0626e+006   2.6988e+006    0.0000    0.1755    0.0000    0.0344    0.0262
                0.0840  -1.4252e-003   1.9131e-004   6.5603e-005  -1.7594e+008  -2.0673e+006   3.0899e+005    0.0000    0.1759    0.0000    0.0345    0.0030
                0.1051  -1.4285e-003   1.9176e-004   7.1692e-004  -1.7635e+008  -2.0721e+006   3.3767e+006    0.0000    0.1763    0.0000    0.0346    0.0328
                0.1265  -1.3959e-003   1.8739e-004   1.3737e-003  -1.7233e+008  -2.0249e+006   6.4703e+006    0.0000    0.1723    0.0000    0.0338    0.0628
                0.1483  -1.3609e-003   1.8268e-004   2.0252e-003  -1.6800e+008  -1.9741e+006   9.5385e+006    0.0000    0.1680    0.0000    0.0330    0.0926
                0.1703  -1.3161e-003   1.7666e-004   2.6638e-003  -1.6247e+008  -1.9090e+006   1.2547e+007    0.0000    0.1625    0.0000    0.0319    0.1218
                0.1743  -1.3044e-003   1.7509e-004   2.7761e-003  -1.6102e+008  -1.8921e+006   1.3075e+007    0.0000    0.1610    0.0000    0.0316    0.1269

               lamina:  5     
              matName:  (blade-shell)
                     s           e11           e22           e12           s11           s22           s12   s11_fcT   s11_fcC   s22_fcT   s22_fcC   s12_fcS
                   (m)         (m/m)         (m/m)         (rad)          (Pa)          (Pa)          (Pa)       (-)       (-)       (-)       (-)       (-)
                0.0000  -1.3033e-003   1.7498e-004   2.4666e-003  -2.5008e+007   1.0843e+005   9.7431e+006    0.0000    0.0503    0.0003   -0.0000    0.0847
                0.0044  -1.3180e-003   1.7696e-004   2.3394e-003  -2.5292e+007   1.0966e+005   9.2408e+006    0.0000    0.0509    0.0003   -0.0000    0.0804
                0.0235  -1.3562e-003   1.8208e-004   1.7824e-003  -2.6024e+007   1.1281e+005   7.0403e+006    0.0000    0.0524    0.0003   -0.0000    0.0612
                0.0432  -1.3956e-003   1.8737e-004   1.1903e-003  -2.6780e+007   1.1607e+005   4.7016e+006    0.0000    0.0539    0.0003   -0.0000    0.0409
                0.0634  -1.4143e-003   1.8988e-004   5.7300e-004  -2.7139e+007   1.1762e+005   2.2633e+006    0.0000    0.0546    0.0003   -0.0000    0.0197
                0.0840  -1.4175e-003   1.9031e-004   6.5603e-005  -2.7201e+007   1.1789e+005   2.5913e+005    0.0000    0.0547    0.0003   -0.0000    0.0023
                0.1051  -1.4209e-003   1.9076e-004   7.1692e-004  -2.7265e+007   1.1817e+005   2.8318e+006    0.0000    0.0549    0.0004   -0.0000    0.0246
                0.1265  -1.3883e-003   1.8640e-004   1.3737e-003  -2.6641e+007   1.1547e+005   5.4263e+006    0.0000    0.0536    0.0003   -0.0000    0.0472
                0.1483  -1.3533e-003   1.8170e-004   2.0252e-003  -2.5969e+007   1.1258e+005   7.9994e+006    0.0000    0.0523    0.0003   -0.0000    0.0696
                0.1703  -1.3085e-003   1.7568e-004   2.6638e-003  -2.5109e+007   1.0887e+005   1.0522e+007    0.0000    0.0505    0.0003   -0.0000    0.0915
                0.1743  -1.2968e-003   1.7412e-004   2.7761e-003  -2.4885e+007   1.0791e+005   1.0966e+007    0.0000    0.0501    0.0003   -0.0000    0.0954

            panel:  3     
           lam_num    nPlies        tPly      fibAng     matID  matName
               (-)       (-)         (m)       (deg)       (-)  (-)
                 1         1    0.002070      0.0000         2  (blade-shell)
                 2         1    0.000234      0.0000         6  (TEP-core)
                 3         1    0.002070      0.0000         2  (blade-shell)

               lamina:  1     
              matName:  (blade-shell)
                     s           e11           e22           e12           s11           s22           s12   s11_fcT   s11_fcC   s22_fcT   s22_fcC   s12_fcS
                   (m)         (m/m)         (m/m)         (rad)          (Pa)          (Pa)          (Pa)       (-)       (-)       (-)       (-)       (-)
                0.0000  -1.4106e-003   1.8355e-004   1.2684e-003  -2.7083e+007   3.4834e+003   5.0103e+006    0.0000    0.0545    0.0000   -0.0000    0.0436
                0.0183  -1.3567e-003   1.7654e-004   8.7278e-004  -2.6048e+007   3.3397e+003   3.4475e+006    0.0000    0.0524    0.0000   -0.0000    0.0300
                0.0405  -1.2906e-003   1.6794e-004   4.1290e-004  -2.4779e+007   3.1645e+003   1.6309e+006    0.0000    0.0499    0.0000   -0.0000    0.0142
                0.0628  -1.2093e-003   1.5736e-004   2.0335e-005  -2.3219e+007   2.9495e+003   8.0324e+004    0.0000    0.0467    0.0000   -0.0000    0.0007
                0.0851  -1.1220e-003   1.4599e-004   4.2083e-004  -2.1541e+007   2.7172e+003   1.6623e+006    0.0000    0.0433    0.0000   -0.0000    0.0145
                0.1071  -1.0347e-003   1.3464e-004   7.8387e-004  -1.9866e+007   2.4859e+003   3.0963e+006    0.0000    0.0400    0.0000   -0.0000    0.0269
                0.1289  -9.3538e-004   1.2171e-004   1.1098e-003  -1.7959e+007   2.2223e+003   4.3836e+006    0.0000    0.0361    0.0000   -0.0000    0.0381
                0.1503  -8.3830e-004   1.0908e-004   1.3939e-003  -1.6095e+007   1.9638e+003   5.5059e+006    0.0000    0.0324    0.0000   -0.0000    0.0479
                0.1713  -7.4096e-004   9.6412e-005   1.6369e-003  -1.4226e+007   1.7049e+003   6.4657e+006    0.0000    0.0286    0.0000   -0.0000    0.0562
                0.1916  -6.4306e-004   8.3672e-005   1.8398e-003  -1.2347e+007   1.4442e+003   7.2671e+006    0.0000    0.0248    0.0000   -0.0000    0.0632
                0.2113  -5.4859e-004   7.1378e-005   2.0037e-003  -1.0533e+007   1.1923e+003   7.9147e+006    0.0000    0.0212    0.0000   -0.0000    0.0688
                0.2302  -4.5826e-004   5.9622e-005   2.1315e-003  -8.7984e+006   9.5142e+002   8.4194e+006    0.0000    0.0177    0.0000   -0.0000    0.0732
                0.2483  -3.7208e-004   4.8407e-005   2.2264e-003  -7.1438e+006   7.2155e+002   8.7944e+006    0.0000    0.0144    0.0000   -0.0000    0.0765
                0.2655  -2.9106e-004   3.7864e-005   2.2921e-003  -5.5883e+006   5.0500e+002   9.0540e+006    0.0000    0.0112    0.0000   -0.0000    0.0787
                0.2816  -2.1823e-004   2.8385e-005   2.3328e-003  -4.1899e+006   3.1032e+002   9.2144e+006    0.0000    0.0084    0.0000   -0.0000    0.0801
                0.2967  -1.5009e-004   1.9518e-005   2.3526e-003  -2.8817e+006   1.2827e+002   9.2929e+006    0.0000    0.0058    0.0000   -0.0000    0.0808
                0.3106  -8.9786e-005   1.1671e-005   2.3558e-003  -1.7239e+006  -3.3997e+001   9.3052e+006    0.0000    0.0035    0.0000    0.0000    0.0809
                0.3234   6.0436e-005  -7.8657e-006   2.3463e-003   1.1604e+006  -1.7576e+002   9.2678e+006    0.0034   -0.0000    0.0000    0.0000    0.0806
                0.3349   1.0862e-004  -1.4136e-005   2.3277e-003   2.0854e+006  -3.0426e+002   9.1946e+006    0.0062   -0.0000    0.0000    0.0000    0.0800
                0.3452   1.4788e-004  -1.9245e-005   2.3036e-003   2.8392e+006  -4.0897e+002   9.0993e+006    0.0084   -0.0000    0.0000    0.0000    0.0791
                0.3541   1.8176e-004  -2.3654e-005   2.2770e-003   3.4897e+006  -4.9931e+002   8.9942e+006    0.0104   -0.0000    0.0000    0.0000    0.0782
                0.3618   2.1021e-004  -2.7356e-005   2.2503e-003   4.0359e+006  -5.7518e+002   8.8885e+006    0.0120   -0.0000    0.0000    0.0000    0.0773
                0.3680   2.3242e-004  -3.0248e-005   2.2256e-003   4.4625e+006  -6.3443e+002   8.7910e+006    0.0132   -0.0000    0.0000    0.0000    0.0764
                0.3729   2.4974e-004  -3.2501e-005   2.2047e-003   4.7949e+006  -6.8058e+002   8.7085e+006    0.0142   -0.0000    0.0000    0.0000    0.0757
                0.3764   2.6268e-004  -3.4185e-005   2.1888e-003   5.0434e+006  -7.1506e+002   8.6459e+006    0.0150   -0.0000    0.0000    0.0000    0.0752
                0.3785   2.7071e-004  -3.5230e-005   2.1789e-003   5.1975e+006  -7.3645e+002   8.6066e+006    0.0154   -0.0000    0.0000    0.0000    0.0748
                0.3793   2.7340e-004  -3.5580e-005   2.1755e-003   5.2492e+006  -7.4362e+002   8.5932e+006    0.0156   -0.0000    0.0000    0.0000    0.0747

               lamina:  2     
              matName:  (TEP-core)
                     s           e11           e22           e12           s11           s22           s12   s11_fcT   s11_fcC   s22_fcT   s22_fcC   s12_fcS
                   (m)         (m/m)         (m/m)         (rad)          (Pa)          (Pa)          (Pa)       (-)       (-)       (-)       (-)       (-)
                0.0000  -1.3119e-003   1.7072e-004   1.2684e-003  -2.9588e+005  -6.1789e+004   1.2431e+005    0.0000    0.0690    0.0000    0.0144    0.0421
                0.0183  -1.2580e-003   1.6371e-004   8.7278e-004  -2.8372e+005  -5.9251e+004   8.5533e+004    0.0000    0.0661    0.0000    0.0138    0.0290
                0.0405  -1.1922e-003   1.5515e-004   4.1290e-004  -2.6889e+005  -5.6154e+004   4.0464e+004    0.0000    0.0627    0.0000    0.0131    0.0137
                0.0628  -1.1115e-003   1.4465e-004   2.0335e-005  -2.5070e+005  -5.2355e+004   1.9929e+003    0.0000    0.0584    0.0000    0.0122    0.0007
                0.0851  -1.0244e-003   1.3331e-004   4.2083e-004  -2.3105e+005  -4.8250e+004   4.1242e+004    0.0000    0.0539    0.0000    0.0112    0.0140
                0.1071  -9.3762e-004   1.2202e-004   7.8387e-004  -2.1147e+005  -4.4163e+004   7.6819e+004    0.0000    0.0493    0.0000    0.0103    0.0260
                0.1289  -8.3874e-004   1.0915e-004   1.1098e-003  -1.8917e+005  -3.9505e+004   1.0876e+005    0.0000    0.0441    0.0000    0.0092    0.0369
                0.1503  -7.4175e-004   9.6528e-005   1.3939e-003  -1.6730e+005  -3.4937e+004   1.3660e+005    0.0000    0.0390    0.0000    0.0081    0.0463
                0.1713  -6.4463e-004   8.3889e-005   1.6369e-003  -1.4539e+005  -3.0363e+004   1.6042e+005    0.0000    0.0339    0.0000    0.0071    0.0544
                0.1916  -5.4687e-004   7.1167e-005   1.8398e-003  -1.2334e+005  -2.5758e+004   1.8030e+005    0.0000    0.0288    0.0000    0.0060    0.0611
                0.2113  -4.5238e-004   5.8871e-005   2.0037e-003  -1.0203e+005  -2.1308e+004   1.9636e+005    0.0000    0.0238    0.0000    0.0050    0.0666
                0.2302  -3.6202e-004   4.7112e-005   2.1315e-003  -8.1652e+004  -1.7052e+004   2.0889e+005    0.0000    0.0190    0.0000    0.0040    0.0708
                0.2483  -2.7581e-004   3.5892e-005   2.2264e-003  -6.2207e+004  -1.2991e+004   2.1819e+005    0.0000    0.0145    0.0000    0.0030    0.0740
                0.2655  -1.9460e-004   2.5323e-005   2.2921e-003  -4.3890e+004  -9.1658e+003   2.2463e+005    0.0000    0.0102    0.0000    0.0021    0.0761
                0.2816  -1.2159e-004   1.5822e-005   2.3328e-003  -2.7423e+004  -5.7269e+003   2.2861e+005    0.0000    0.0064    0.0000    0.0013    0.0775
                0.2967  -5.3309e-005   6.9368e-006   2.3526e-003  -1.2024e+004  -2.5111e+003   2.3056e+005    0.0000    0.0028    0.0000    0.0006    0.0782
                0.3106   1.8260e-005  -2.3756e-006   2.3558e-003   4.1186e+003   8.6026e+002   2.3086e+005    0.0010   -0.0000    0.0002   -0.0000    0.0783
                0.3234   7.1440e-005  -9.2962e-006   2.3463e-003   1.6113e+004   3.3650e+003   2.2994e+005    0.0038   -0.0000    0.0008   -0.0000    0.0779
                0.3349   1.1965e-004  -1.5570e-005   2.3277e-003   2.6986e+004   5.6357e+003   2.2812e+005    0.0063   -0.0000    0.0013   -0.0000    0.0773
                0.3452   1.5894e-004  -2.0683e-005   2.3036e-003   3.5848e+004   7.4864e+003   2.2576e+005    0.0084   -0.0000    0.0017   -0.0000    0.0765
                0.3541   1.9283e-004  -2.5093e-005   2.2770e-003   4.3492e+004   9.0826e+003   2.2315e+005    0.0101   -0.0000    0.0021   -0.0000    0.0756
                0.3618   2.2129e-004  -2.8798e-005   2.2503e-003   4.9911e+004   1.0423e+004   2.2053e+005    0.0116   -0.0000    0.0024   -0.0000    0.0748
                0.3680   2.4353e-004  -3.1691e-005   2.2256e-003   5.4926e+004   1.1470e+004   2.1811e+005    0.0128   -0.0000    0.0027   -0.0000    0.0739
                0.3729   2.6083e-004  -3.3943e-005   2.2047e-003   5.8829e+004   1.2285e+004   2.1606e+005    0.0137   -0.0000    0.0029   -0.0000    0.0732
                0.3764   2.7375e-004  -3.5625e-005   2.1888e-003   6.1743e+004   1.2894e+004   2.1451e+005    0.0144   -0.0000    0.0030   -0.0000    0.0727
                0.3785   2.8177e-004  -3.6668e-005   2.1789e-003   6.3552e+004   1.3272e+004   2.1353e+005    0.0148   -0.0000    0.0031   -0.0000    0.0724
                0.3793   2.8446e-004  -3.7018e-005   2.1755e-003   6.4158e+004   1.3398e+004   2.1320e+005    0.0150   -0.0000    0.0031   -0.0000    0.0723

               lamina:  3     
              matName:  (blade-shell)
                     s           e11           e22           e12           s11           s22           s12   s11_fcT   s11_fcC   s22_fcT   s22_fcC   s12_fcS
                   (m)         (m/m)         (m/m)         (rad)          (Pa)          (Pa)          (Pa)       (-)       (-)       (-)       (-)       (-)
                0.0000  -1.3007e-003   1.6927e-004   1.2684e-003  -2.4973e+007   3.4826e+003   5.0103e+006    0.0000    0.0502    0.0000   -0.0000    0.0436
                0.0183  -1.2468e-003   1.6225e-004   8.7278e-004  -2.3938e+007   3.3389e+003   3.4475e+006    0.0000    0.0482    0.0000   -0.0000    0.0300
                0.0405  -1.1811e-003   1.5370e-004   4.1290e-004  -2.2676e+007   3.1637e+003   1.6309e+006    0.0000    0.0456    0.0000   -0.0000    0.0142
                0.0628  -1.1005e-003   1.4321e-004   2.0335e-005  -2.1129e+007   2.9487e+003   8.0324e+004    0.0000    0.0425    0.0000   -0.0000    0.0007
                0.0851  -1.0134e-003   1.3188e-004   4.2083e-004  -1.9456e+007   2.7164e+003   1.6623e+006    0.0000    0.0391    0.0000   -0.0000    0.0145
                0.1071  -9.2663e-004   1.2059e-004   7.8387e-004  -1.7791e+007   2.4851e+003   3.0963e+006    0.0000    0.0358    0.0000   -0.0000    0.0269
                0.1289  -8.2780e-004   1.0773e-004   1.1098e-003  -1.5893e+007   2.2216e+003   4.3836e+006    0.0000    0.0320    0.0000   -0.0000    0.0381
                0.1503  -7.3082e-004   9.5107e-005   1.3939e-003  -1.4031e+007   1.9630e+003   5.5059e+006    0.0000    0.0282    0.0000   -0.0000    0.0479
                0.1713  -6.3373e-004   8.2472e-005   1.6369e-003  -1.2167e+007   1.7041e+003   6.4657e+006    0.0000    0.0245    0.0000   -0.0000    0.0562
                0.1916  -5.3598e-004   6.9751e-005   1.8398e-003  -1.0291e+007   1.4435e+003   7.2671e+006    0.0000    0.0207    0.0000   -0.0000    0.0632
                0.2113  -4.4149e-004   5.7455e-005   2.0037e-003  -8.4765e+006   1.1916e+003   7.9147e+006    0.0000    0.0171    0.0000   -0.0000    0.0688
                0.2302  -3.5113e-004   4.5696e-005   2.1315e-003  -6.7416e+006   9.5064e+002   8.4194e+006    0.0000    0.0136    0.0000   -0.0000    0.0732
                0.2483  -2.6491e-004   3.4475e-005   2.2264e-003  -5.0862e+006   7.2078e+002   8.7944e+006    0.0000    0.0102    0.0000   -0.0000    0.0765
                0.2655  -1.8368e-004   2.3904e-005   2.2921e-003  -3.5265e+006   5.0422e+002   9.0540e+006    0.0000    0.0071    0.0000   -0.0000    0.0787
                0.2816  -1.1065e-004   1.4400e-005   2.3328e-003  -2.1243e+006   3.0954e+002   9.2144e+006    0.0000    0.0043    0.0000   -0.0000    0.0801
                0.2967   5.4428e-005  -7.0692e-006   2.3526e-003   1.0450e+006   1.2748e+002   9.2929e+006    0.0031   -0.0000    0.0000   -0.0000    0.0808
                0.3106   1.1532e-004  -1.4993e-005   2.3558e-003   2.2141e+006  -3.4780e+001   9.3052e+006    0.0066   -0.0000    0.0000    0.0000    0.0809
                0.3234   1.6864e-004  -2.1932e-005   2.3463e-003   3.2378e+006  -1.7654e+002   9.2678e+006    0.0096   -0.0000    0.0000    0.0000    0.0806
                0.3349   2.1708e-004  -2.8236e-005   2.3277e-003   4.1679e+006  -3.0504e+002   9.1946e+006    0.0124   -0.0000    0.0000    0.0000    0.0800
                0.3452   2.5665e-004  -3.3386e-005   2.3036e-003   4.9277e+006  -4.0976e+002   9.0993e+006    0.0146   -0.0000    0.0000    0.0000    0.0791
                0.3541   2.9061e-004  -3.7805e-005   2.2770e-003   5.5797e+006  -5.0010e+002   8.9942e+006    0.0166   -0.0000    0.0000    0.0000    0.0782
                0.3618   3.1923e-004  -4.1529e-005   2.2503e-003   6.1291e+006  -5.7597e+002   8.8885e+006    0.0182   -0.0000    0.0000    0.0000    0.0773
                0.3680   3.4159e-004  -4.4439e-005   2.2256e-003   6.5584e+006  -6.3522e+002   8.7910e+006    0.0195   -0.0000    0.0000    0.0000    0.0764
                0.3729   3.5881e-004  -4.6680e-005   2.2047e-003   6.8891e+006  -6.8137e+002   8.7085e+006    0.0204   -0.0000    0.0000    0.0000    0.0757
                0.3764   3.7157e-004  -4.8340e-005   2.1888e-003   7.1340e+006  -7.1585e+002   8.6459e+006    0.0212   -0.0000    0.0000    0.0000    0.0752
                0.3785   3.7950e-004  -4.9372e-005   2.1789e-003   7.2862e+006  -7.3724e+002   8.6066e+006    0.0216   -0.0000    0.0000    0.0000    0.0748
                0.3793   3.8219e-004  -4.9722e-005   2.1755e-003   7.3379e+006  -7.4441e+002   8.5932e+006    0.0218   -0.0000    0.0000    0.0000    0.0747

  Bottom:  panel  nNode   nLam     xc_St    xc_End         b         t         E_eff         G_eff      nu_eff     density  buckleCrit
            (-)    (-)    (-)       (-)       (-)       (m)       (m)          (Pa)          (Pa)         (-)    (kg/m^3)         (-)
              1     17      3    0.0000    0.2257    0.1778    0.0043   1.8577e+010   3.8235e+009      0.1301   1621.7136      0.0123
              2     11      5    0.2257    0.4743    0.1743    0.0044   2.4514e+010   3.9494e+009      0.1342   1643.8144      0.0157
              3     27      3    0.4743    1.0000    0.3756    0.0044   1.8183e+010   3.7436e+009      0.1301   1591.2483      0.1766

            panel:  1     
           lam_num    nPlies        tPly      fibAng     matID  matName
               (-)       (-)         (m)       (deg)       (-)  (-)
                 1         1    0.002070      0.0000         2  (blade-shell)
                 2         1    0.000141      0.0000         5  (LEP-core)
                 3         1    0.002070      0.0000         2  (blade-shell)

               lamina:  1     
              matName:  (blade-shell)
                     s           e11           e22           e12           s11           s22           s12   s11_fcT   s11_fcC   s22_fcT   s22_fcC   s12_fcS
                   (m)         (m/m)         (m/m)         (rad)          (Pa)          (Pa)          (Pa)       (-)       (-)       (-)       (-)       (-)
                0.0000   1.3810e-004  -1.7961e-005   2.0804e-003   2.6515e+006  -1.6420e+002   8.2175e+006    0.0079   -0.0000    0.0000    0.0000    0.0715
                0.0020   1.7023e-004  -2.2141e-005   2.0765e-003   3.2685e+006  -2.1562e+002   8.2022e+006    0.0097   -0.0000    0.0000    0.0000    0.0713
                0.0079   2.7055e-004  -3.5190e-005   2.0589e-003   5.1945e+006  -3.6630e+002   8.1328e+006    0.0154   -0.0000    0.0000    0.0000    0.0707
                0.0151   4.0074e-004  -5.2124e-005   2.0245e-003   7.6941e+006  -5.4477e+002   7.9967e+006    0.0228   -0.0000    0.0000    0.0000    0.0695
                0.0215   4.9167e-004  -6.3951e-005   1.9841e-003   9.4399e+006  -6.6751e+002   7.8372e+006    0.0280   -0.0000    0.0000    0.0000    0.0681
                0.0299   6.0042e-004  -7.8097e-005   1.9179e-003   1.1528e+007  -8.3081e+002   7.5758e+006    0.0342   -0.0000    0.0000    0.0000    0.0659
                0.0387   6.9304e-004  -9.0145e-005   1.8355e-003   1.3306e+007  -9.6624e+002   7.2503e+006    0.0395   -0.0000    0.0000    0.0000    0.0630
                0.0487   7.8199e-004  -1.0172e-004   1.7266e-003   1.5014e+007  -1.1048e+003   6.8202e+006    0.0446   -0.0000    0.0000    0.0000    0.0593
                0.0599   8.8076e-004  -1.1456e-004   1.5869e-003   1.6910e+007  -1.2562e+003   6.2682e+006    0.0502   -0.0000    0.0000    0.0000    0.0545
                0.0717   9.5609e-004  -1.2436e-004   1.4234e-003   1.8357e+007  -1.3720e+003   5.6223e+006    0.0545   -0.0000    0.0000    0.0000    0.0489
                0.0849   1.0378e-003  -1.3499e-004   1.2242e-003   1.9925e+007  -1.5010e+003   4.8356e+006    0.0591   -0.0000    0.0000    0.0000    0.0420
                0.0989   1.1133e-003  -1.4482e-004   9.9353e-004   2.1376e+007  -1.6190e+003   3.9245e+006    0.0634   -0.0000    0.0000    0.0000    0.0341
                0.1138   1.1780e-003  -1.5322e-004   7.3024e-004   2.2617e+007  -1.7211e+003   2.8844e+006    0.0671   -0.0000    0.0000    0.0000    0.0251
                0.1298   1.2471e-003  -1.6222e-004   4.3111e-004   2.3944e+007  -1.8302e+003   1.7029e+006    0.0711   -0.0000    0.0000    0.0000    0.0148
                0.1464   1.2978e-003  -1.6881e-004   1.0225e-004   2.4918e+007  -1.9098e+003   4.0388e+005    0.0739   -0.0000    0.0000    0.0000    0.0035
                0.1640   1.3464e-003  -1.7513e-004   2.5943e-004   2.5851e+007  -1.9872e+003   1.0247e+006    0.0767   -0.0000    0.0000    0.0000    0.0089
                0.1778   1.3804e-003  -1.7955e-004   5.5381e-004   2.6503e+007  -2.0413e+003   2.1876e+006    0.0786   -0.0000    0.0000    0.0000    0.0190

               lamina:  2     
              matName:  (LEP-core)
                     s           e11           e22           e12           s11           s22           s12   s11_fcT   s11_fcC   s22_fcT   s22_fcC   s12_fcS
                   (m)         (m/m)         (m/m)         (rad)          (Pa)          (Pa)          (Pa)       (-)       (-)       (-)       (-)       (-)
                0.0000   1.0375e-004  -1.3496e-005   2.0804e-003   2.3400e+004   4.8879e+003   2.0388e+005    0.0055   -0.0000    0.0011   -0.0000    0.0691
                0.0020   1.3588e-004  -1.7676e-005   2.0765e-003   3.0648e+004   6.4019e+003   2.0350e+005    0.0071   -0.0000    0.0015   -0.0000    0.0690
                0.0079   2.3024e-004  -2.9950e-005   2.0589e-003   5.1931e+004   1.0848e+004   2.0178e+005    0.0121   -0.0000    0.0025   -0.0000    0.0684
                0.0151   3.4237e-004  -4.4536e-005   2.0245e-003   7.7220e+004   1.6130e+004   1.9840e+005    0.0180   -0.0000    0.0038   -0.0000    0.0673
                0.0215   4.1953e-004  -5.4573e-005   1.9841e-003   9.4624e+004   1.9766e+004   1.9444e+005    0.0221   -0.0000    0.0046   -0.0000    0.0659
                0.0299   5.2180e-004  -6.7876e-005   1.9179e-003   1.1769e+005   2.4584e+004   1.8796e+005    0.0274   -0.0000    0.0057   -0.0000    0.0637
                0.0387   6.0669e-004  -7.8919e-005   1.8355e-003   1.3684e+005   2.8583e+004   1.7988e+005    0.0319   -0.0000    0.0067   -0.0000    0.0610
                0.0487   6.9333e-004  -9.0190e-005   1.7266e-003   1.5638e+005   3.2665e+004   1.6921e+005    0.0365   -0.0000    0.0076   -0.0000    0.0574
                0.0599   7.8812e-004  -1.0252e-004   1.5869e-003   1.7776e+005   3.7131e+004   1.5551e+005    0.0414   -0.0000    0.0087   -0.0000    0.0527
                0.0717   8.6055e-004  -1.1194e-004   1.4234e-003   1.9409e+005   4.0544e+004   1.3949e+005    0.0452   -0.0000    0.0095   -0.0000    0.0473
                0.0849   9.4124e-004  -1.2244e-004   1.2242e-003   2.1229e+005   4.4345e+004   1.1997e+005    0.0495   -0.0000    0.0103   -0.0000    0.0407
                0.0989   1.0150e-003  -1.3203e-004   9.9353e-004   2.2893e+005   4.7820e+004   9.7366e+004    0.0534   -0.0000    0.0111   -0.0000    0.0330
                0.1138   1.0788e-003  -1.4034e-004   7.3024e-004   2.4333e+005   5.0827e+004   7.1563e+004    0.0567   -0.0000    0.0118   -0.0000    0.0243
                0.1298   1.1471e-003  -1.4921e-004   4.3111e-004   2.5871e+005   5.4042e+004   4.2249e+004    0.0603   -0.0000    0.0126   -0.0000    0.0143
                0.1464   1.1969e-003  -1.5569e-004   1.0225e-004   2.6995e+005   5.6388e+004   1.0020e+004    0.0629   -0.0000    0.0131   -0.0000    0.0034
                0.1640   1.2452e-003  -1.6198e-004   2.5943e-004   2.8085e+005   5.8666e+004   2.5424e+004    0.0655   -0.0000    0.0137   -0.0000    0.0086
                0.1778   1.2790e-003  -1.6638e-004   5.5381e-004   2.8848e+005   6.0260e+004   5.4274e+004    0.0672   -0.0000    0.0140   -0.0000    0.0184

               lamina:  3     
              matName:  (blade-shell)
                     s           e11           e22           e12           s11           s22           s12   s11_fcT   s11_fcC   s22_fcT   s22_fcC   s12_fcS
                   (m)         (m/m)         (m/m)         (rad)          (Pa)          (Pa)          (Pa)       (-)       (-)       (-)       (-)       (-)
                0.0000   1.0141e-004  -1.3192e-005   2.0804e-003   1.9471e+006  -1.6414e+002   8.2175e+006    0.0058   -0.0000    0.0000    0.0000    0.0715
                0.0020   1.3355e-004  -1.7372e-005   2.0765e-003   2.5641e+006  -2.1556e+002   8.2022e+006    0.0076   -0.0000    0.0000    0.0000    0.0713
                0.0079   2.2750e-004  -2.9594e-005   2.0589e-003   4.3680e+006  -3.6623e+002   8.1328e+006    0.0130   -0.0000    0.0000    0.0000    0.0707
                0.0151   3.3840e-004  -4.4020e-005   2.0245e-003   6.4973e+006  -5.4466e+002   7.9967e+006    0.0193   -0.0000    0.0000    0.0000    0.0695
                0.0215   4.1463e-004  -5.3936e-005   1.9841e-003   7.9608e+006  -6.6738e+002   7.8372e+006    0.0236   -0.0000    0.0000    0.0000    0.0681
                0.0299   5.1646e-004  -6.7182e-005   1.9179e-003   9.9159e+006  -8.3067e+002   7.5758e+006    0.0294   -0.0000    0.0000    0.0000    0.0659
                0.0387   6.0082e-004  -7.8156e-005   1.8355e-003   1.1536e+007  -9.6608e+002   7.2503e+006    0.0342   -0.0000    0.0000    0.0000    0.0630
                0.0487   6.8731e-004  -8.9407e-005   1.7266e-003   1.3196e+007  -1.1046e+003   6.8202e+006    0.0392   -0.0000    0.0000    0.0000    0.0593
                0.0599   7.8183e-004  -1.0170e-004   1.5869e-003   1.5011e+007  -1.2561e+003   6.2682e+006    0.0445   -0.0000    0.0000    0.0000    0.0545
                0.0717   8.5406e-004  -1.1110e-004   1.4234e-003   1.6398e+007  -1.3718e+003   5.6223e+006    0.0487   -0.0000    0.0000    0.0000    0.0489
                0.0849   9.3468e-004  -1.2159e-004   1.2242e-003   1.7946e+007  -1.5009e+003   4.8356e+006    0.0533   -0.0000    0.0000    0.0000    0.0420
                0.0989   1.0083e-003  -1.3116e-004   9.9353e-004   1.9359e+007  -1.6188e+003   3.9245e+006    0.0574   -0.0000    0.0000    0.0000    0.0341
                0.1138   1.0721e-003  -1.3946e-004   7.3024e-004   2.0584e+007  -1.7209e+003   2.8844e+006    0.0611   -0.0000    0.0000    0.0000    0.0251
                0.1298   1.1403e-003  -1.4833e-004   4.3111e-004   2.1893e+007  -1.8300e+003   1.7029e+006    0.0650   -0.0000    0.0000    0.0000    0.0148
                0.1464   1.1900e-003  -1.5480e-004   1.0225e-004   2.2848e+007  -1.9097e+003   4.0388e+005    0.0678   -0.0000    0.0000    0.0000    0.0035
                0.1640   1.2383e-003  -1.6109e-004   2.5943e-004   2.3776e+007  -1.9870e+003   1.0247e+006    0.0706   -0.0000    0.0000    0.0000    0.0089
                0.1778   1.2722e-003  -1.6548e-004   5.5381e-004   2.4425e+007  -2.0411e+003   2.1876e+006    0.0725   -0.0000    0.0000    0.0000    0.0190

            panel:  2     
           lam_num    nPlies        tPly      fibAng     matID  matName
               (-)       (-)         (m)       (deg)       (-)  (-)
                 1         1    0.002070      0.0000         2  (blade-shell)
                 2         1    0.000117      0.0000         3  (spar-uni)
                 3         1    0.000047      0.0000         4  (spar-core)
                 4         1    0.000117      0.0000         3  (spar-uni)
                 5         1    0.002070      0.0000         2  (blade-shell)

               lamina:  1     
              matName:  (blade-shell)
                     s           e11           e22           e12           s11           s22           s12   s11_fcT   s11_fcC   s22_fcT   s22_fcC   s12_fcS
                   (m)         (m/m)         (m/m)         (rad)          (Pa)          (Pa)          (Pa)       (-)       (-)       (-)       (-)       (-)
                0.0000   1.4170e-003  -1.8961e-004   2.3962e-003   2.7193e+007  -1.0536e+005   9.4650e+006    0.0807   -0.0000    0.0000    0.0003    0.0823
                0.0044   1.4288e-003  -1.9118e-004   2.2744e-003   2.7418e+007  -1.0626e+005   8.9839e+006    0.0814   -0.0000    0.0000    0.0003    0.0781
                0.0234   1.4537e-003  -1.9452e-004   1.7425e-003   2.7896e+007  -1.0830e+005   6.8830e+006    0.0828   -0.0000    0.0000    0.0003    0.0599
                0.0430   1.4795e-003  -1.9799e-004   1.1819e-003   2.8392e+007  -1.1042e+005   4.6687e+006    0.0843   -0.0000    0.0000    0.0003    0.0406
                0.0631   1.4879e-003  -1.9911e-004   5.9939e-004   2.8552e+007  -1.1109e+005   2.3676e+006    0.0847   -0.0000    0.0000    0.0003    0.0206
                0.0838   1.4829e-003  -1.9844e-004   5.9616e-007   2.8456e+007  -1.1068e+005   2.3548e+003    0.0844   -0.0000    0.0000    0.0003    0.0000
                0.1048   1.4776e-003  -1.9773e-004   6.0931e-004   2.8356e+007  -1.1026e+005   2.4068e+006    0.0841   -0.0000    0.0000    0.0003    0.0209
                0.1263   1.4410e-003  -1.9282e-004   1.2220e-003   2.7653e+007  -1.0728e+005   4.8268e+006    0.0821   -0.0000    0.0000    0.0003    0.0420
                0.1482   1.4024e-003  -1.8764e-004   1.8269e-003   2.6912e+007  -1.0411e+005   7.2162e+006    0.0799   -0.0000    0.0000    0.0003    0.0627
                0.1703   1.3557e-003  -1.8138e-004   2.4178e-003   2.6017e+007  -1.0028e+005   9.5503e+006    0.0772   -0.0000    0.0000    0.0003    0.0830
                0.1743   1.3437e-003  -1.7976e-004   2.5219e-003   2.5785e+007  -9.9342e+004   9.9614e+006    0.0765   -0.0000    0.0000    0.0003    0.0866

               lamina:  2     
              matName:  (spar-uni)
                     s           e11           e22           e12           s11           s22           s12   s11_fcT   s11_fcC   s22_fcT   s22_fcC   s12_fcS
                   (m)         (m/m)         (m/m)         (rad)          (Pa)          (Pa)          (Pa)       (-)       (-)       (-)       (-)       (-)
                0.0000   1.2835e-003  -1.7224e-004   2.3962e-003   1.5845e+008   1.8621e+006   1.1286e+007    0.0801   -0.0000    0.0311   -0.0000    0.1096
                0.0044   1.2944e-003  -1.7371e-004   2.2744e-003   1.5979e+008   1.8779e+006   1.0713e+007    0.0807   -0.0000    0.0314   -0.0000    0.1040
                0.0234   1.3191e-003  -1.7703e-004   1.7425e-003   1.6285e+008   1.9138e+006   8.2073e+006    0.0823   -0.0000    0.0320   -0.0000    0.0797
                0.0430   1.3447e-003  -1.8047e-004   1.1819e-003   1.6601e+008   1.9510e+006   5.5670e+006    0.0839   -0.0000    0.0326   -0.0000    0.0540
                0.0631   1.3529e-003  -1.8156e-004   5.9939e-004   1.6702e+008   1.9629e+006   2.8231e+006    0.0844   -0.0000    0.0328   -0.0000    0.0274
                0.0838   1.3479e-003  -1.8089e-004   5.9616e-007   1.6640e+008   1.9556e+006   2.8079e+003    0.0841   -0.0000    0.0326   -0.0000    0.0000
                0.1048   1.3429e-003  -1.8022e-004   6.0931e-004   1.6578e+008   1.9483e+006   2.8698e+006    0.0838   -0.0000    0.0325   -0.0000    0.0279
                0.1263   1.3067e-003  -1.7536e-004   1.2220e-003   1.6131e+008   1.8958e+006   5.7555e+006    0.0815   -0.0000    0.0316   -0.0000    0.0559
                0.1482   1.2683e-003  -1.7021e-004   1.8269e-003   1.5657e+008   1.8401e+006   8.6046e+006    0.0791   -0.0000    0.0307   -0.0000    0.0835
                0.1703   1.2219e-003  -1.6398e-004   2.4178e-003   1.5085e+008   1.7728e+006   1.1388e+007    0.0762   -0.0000    0.0296   -0.0000    0.1106
                0.1743   1.2106e-003  -1.6246e-004   2.5219e-003   1.4945e+008   1.7564e+006   1.1878e+007    0.0755   -0.0000    0.0293   -0.0000    0.1153

               lamina:  3     
              matName:  (spar-core)
                     s           e11           e22           e12           s11           s22           s12   s11_fcT   s11_fcC   s22_fcT   s22_fcC   s12_fcS
                   (m)         (m/m)         (m/m)         (rad)          (Pa)          (Pa)          (Pa)       (-)       (-)       (-)       (-)       (-)
                0.0000   1.2759e-003  -1.7126e-004   2.3962e-003   2.8737e+005   5.8867e+004   2.3483e+005    0.0670   -0.0000    0.0137   -0.0000    0.0796
                0.0044   1.2868e-003  -1.7272e-004   2.2744e-003   2.8981e+005   5.9367e+004   2.2289e+005    0.0676   -0.0000    0.0138   -0.0000    0.0756
                0.0234   1.3115e-003  -1.7604e-004   1.7425e-003   2.9538e+005   6.0509e+004   1.7077e+005    0.0689   -0.0000    0.0141   -0.0000    0.0579
                0.0430   1.3371e-003  -1.7948e-004   1.1819e-003   3.0115e+005   6.1690e+004   1.1583e+005    0.0702   -0.0000    0.0144   -0.0000    0.0393
                0.0631   1.3453e-003  -1.8057e-004   5.9939e-004   3.0299e+005   6.2067e+004   5.8740e+004    0.0706   -0.0000    0.0145   -0.0000    0.0199
                0.0838   1.3403e-003  -1.7990e-004   5.9616e-007   3.0187e+005   6.1837e+004   5.8423e+001    0.0704   -0.0000    0.0144   -0.0000    0.0000
                0.1048   1.3352e-003  -1.7923e-004   6.0931e-004   3.0073e+005   6.1604e+004   5.9712e+004    0.0701   -0.0000    0.0144   -0.0000    0.0202
                0.1263   1.2991e-003  -1.7437e-004   1.2220e-003   2.9259e+005   5.9936e+004   1.1975e+005    0.0682   -0.0000    0.0140   -0.0000    0.0406
                0.1482   1.2607e-003  -1.6922e-004   1.8269e-003   2.8394e+005   5.8165e+004   1.7903e+005    0.0662   -0.0000    0.0136   -0.0000    0.0607
                0.1703   1.2144e-003  -1.6300e-004   2.4178e-003   2.7350e+005   5.6026e+004   2.3694e+005    0.0638   -0.0000    0.0131   -0.0000    0.0803
                0.1743   1.2030e-003  -1.6148e-004   2.5219e-003   2.7096e+005   5.5505e+004   2.4714e+005    0.0632   -0.0000    0.0129   -0.0000    0.0838

               lamina:  4     
              matName:  (spar-uni)
                     s           e11           e22           e12           s11           s22           s12   s11_fcT   s11_fcC   s22_fcT   s22_fcC   s12_fcS
                   (m)         (m/m)         (m/m)         (rad)          (Pa)          (Pa)          (Pa)       (-)       (-)       (-)       (-)       (-)
                0.0000   1.2729e-003  -1.7087e-004   2.3962e-003   1.5714e+008   1.8464e+006   1.1286e+007    0.0794   -0.0000    0.0308   -0.0000    0.1096
                0.0044   1.2837e-003  -1.7232e-004   2.2744e-003   1.5847e+008   1.8621e+006   1.0713e+007    0.0801   -0.0000    0.0311   -0.0000    0.1040
                0.0234   1.3085e-003  -1.7564e-004   1.7425e-003   1.6153e+008   1.8980e+006   8.2073e+006    0.0816   -0.0000    0.0317   -0.0000    0.0797
                0.0430   1.3341e-003  -1.7908e-004   1.1819e-003   1.6469e+008   1.9351e+006   5.5670e+006    0.0832   -0.0000    0.0323   -0.0000    0.0540
                0.0631   1.3422e-003  -1.8017e-004   5.9939e-004   1.6570e+008   1.9470e+006   2.8231e+006    0.0837   -0.0000    0.0325   -0.0000    0.0274
                0.0838   1.3372e-003  -1.7950e-004   5.9616e-007   1.6508e+008   1.9397e+006   2.8079e+003    0.0834   -0.0000    0.0324   -0.0000    0.0000
                0.1048   1.3322e-003  -1.7883e-004   6.0931e-004   1.6446e+008   1.9324e+006   2.8698e+006    0.0831   -0.0000    0.0323   -0.0000    0.0279
                0.1263   1.2961e-003  -1.7398e-004   1.2220e-003   1.6000e+008   1.8800e+006   5.7555e+006    0.0808   -0.0000    0.0314   -0.0000    0.0559
                0.1482   1.2577e-003  -1.6883e-004   1.8269e-003   1.5526e+008   1.8243e+006   8.6046e+006    0.0785   -0.0000    0.0305   -0.0000    0.0835
                0.1703   1.2113e-003  -1.6260e-004   2.4178e-003   1.4954e+008   1.7571e+006   1.1388e+007    0.0756   -0.0000    0.0293   -0.0000    0.1106
                0.1743   1.2000e-003  -1.6109e-004   2.5219e-003   1.4814e+008   1.7407e+006   1.1878e+007    0.0749   -0.0000    0.0291   -0.0000    0.1153

               lamina:  5     
              matName:  (blade-shell)
                     s           e11           e22           e12           s11           s22           s12   s11_fcT   s11_fcC   s22_fcT   s22_fcC   s12_fcS
                   (m)         (m/m)         (m/m)         (rad)          (Pa)          (Pa)          (Pa)       (-)       (-)       (-)       (-)       (-)
                0.0000   1.2653e-003  -1.6989e-004   2.3962e-003   2.4281e+007  -1.0531e+005   9.4650e+006    0.0720   -0.0000    0.0000    0.0003    0.0823
                0.0044   1.2761e-003  -1.7133e-004   2.2744e-003   2.4487e+007  -1.0620e+005   8.9839e+006    0.0727   -0.0000    0.0000    0.0003    0.0781
                0.0234   1.3008e-003  -1.7465e-004   1.7425e-003   2.4962e+007  -1.0825e+005   6.8830e+006    0.0741   -0.0000    0.0000    0.0003    0.0599
                0.0430   1.3264e-003  -1.7809e-004   1.1819e-003   2.5453e+007  -1.1036e+005   4.6687e+006    0.0755   -0.0000    0.0000    0.0003    0.0406
                0.0631   1.3346e-003  -1.7918e-004   5.9939e-004   2.5610e+007  -1.1104e+005   2.3676e+006    0.0760   -0.0000    0.0000    0.0003    0.0206
                0.0838   1.3296e-003  -1.7851e-004   5.9616e-007   2.5514e+007  -1.1062e+005   2.3548e+003    0.0757   -0.0000    0.0000    0.0003    0.0000
                0.1048   1.3246e-003  -1.7784e-004   6.0931e-004   2.5417e+007  -1.1021e+005   2.4068e+006    0.0754   -0.0000    0.0000    0.0003    0.0209
                0.1263   1.2885e-003  -1.7299e-004   1.2220e-003   2.4725e+007  -1.0722e+005   4.8268e+006    0.0734   -0.0000    0.0000    0.0003    0.0420
                0.1482   1.2501e-003  -1.6784e-004   1.8269e-003   2.3988e+007  -1.0405e+005   7.2162e+006    0.0712   -0.0000    0.0000    0.0003    0.0627
                0.1703   1.2037e-003  -1.6162e-004   2.4178e-003   2.3099e+007  -1.0022e+005   9.5503e+006    0.0685   -0.0000    0.0000    0.0003    0.0830
                0.1743   1.1925e-003  -1.6011e-004   2.5219e-003   2.2883e+007  -9.9284e+004   9.9614e+006    0.0679   -0.0000    0.0000    0.0003    0.0866

            panel:  3     
           lam_num    nPlies        tPly      fibAng     matID  matName
               (-)       (-)         (m)       (deg)       (-)  (-)
                 1         1    0.002070      0.0000         2  (blade-shell)
                 2         1    0.000234      0.0000         6  (TEP-core)
                 3         1    0.002070      0.0000         2  (blade-shell)

               lamina:  1     
              matName:  (blade-shell)
                     s           e11           e22           e12           s11           s22           s12   s11_fcT   s11_fcC   s22_fcT   s22_fcC   s12_fcS
                   (m)         (m/m)         (m/m)         (rad)          (Pa)          (Pa)          (Pa)       (-)       (-)       (-)       (-)       (-)
                0.0000   1.3064e-003  -1.6999e-004   1.6658e-003   2.5082e+007  -3.2053e+003   6.5799e+006    0.0744   -0.0000    0.0000    0.0000    0.0572
                0.0183   1.2546e-003  -1.6326e-004   1.3012e-003   2.4088e+007  -3.0672e+003   5.1396e+006    0.0715   -0.0000    0.0000    0.0000    0.0447
                0.0406   1.1912e-003  -1.5500e-004   8.7778e-004   2.2870e+007  -2.8987e+003   3.4672e+006    0.0679   -0.0000    0.0000    0.0000    0.0301
                0.0630   1.1178e-003  -1.4545e-004   4.7984e-004   2.1461e+007  -2.7040e+003   1.8954e+006    0.0637   -0.0000    0.0000    0.0000    0.0165
                0.0852   1.0405e-003  -1.3539e-004   1.1174e-004   1.9977e+007  -2.4983e+003   4.4136e+005    0.0593   -0.0000    0.0000    0.0000    0.0038
                0.1072   9.6376e-004  -1.2541e-004   2.2349e-004   1.8504e+007  -2.2942e+003   8.8279e+005    0.0549   -0.0000    0.0000    0.0000    0.0077
                0.1289   8.8283e-004  -1.1487e-004   5.2563e-004   1.6950e+007  -2.0789e+003   2.0762e+006    0.0503   -0.0000    0.0000    0.0000    0.0181
                0.1502   8.0365e-004  -1.0457e-004   7.9319e-004   1.5430e+007  -1.8677e+003   3.1331e+006    0.0458   -0.0000    0.0000    0.0000    0.0272
                0.1709   7.2762e-004  -9.4676e-005   1.0268e-003   1.3970e+007  -1.6648e+003   4.0560e+006    0.0415   -0.0000    0.0000    0.0000    0.0353
                0.1911   6.5536e-004  -8.5273e-005   1.2282e-003   1.2583e+007  -1.4720e+003   4.8514e+006    0.0373   -0.0000    0.0000    0.0000    0.0422
                0.2105   5.8568e-004  -7.6204e-005   1.3996e-003   1.1245e+007  -1.2856e+003   5.5283e+006    0.0334   -0.0000    0.0000    0.0000    0.0481
                0.2291   5.2606e-004  -6.8445e-005   1.5431e-003   1.0100e+007  -1.1258e+003   6.0954e+006    0.0300   -0.0000    0.0000    0.0000    0.0530
                0.2469   4.7089e-004  -6.1266e-005   1.6627e-003   9.0410e+006  -9.7841e+002   6.5678e+006    0.0268   -0.0000    0.0000    0.0000    0.0571
                0.2638   4.2066e-004  -5.4730e-005   1.7613e-003   8.0766e+006  -8.4347e+002   6.9572e+006    0.0240   -0.0000    0.0000    0.0000    0.0605
                0.2795   3.8346e-004  -4.9887e-005   1.8419e-003   7.3622e+006  -7.4346e+002   7.2756e+006    0.0218   -0.0000    0.0000    0.0000    0.0633
                0.2943   3.4860e-004  -4.5351e-005   1.9082e-003   6.6930e+006  -6.5000e+002   7.5375e+006    0.0199   -0.0000    0.0000    0.0000    0.0655
                0.3080   3.2326e-004  -4.2053e-005   1.9626e-003   6.2065e+006  -5.8155e+002   7.7524e+006    0.0184   -0.0000    0.0000    0.0000    0.0674
                0.3204   3.0581e-004  -3.9782e-005   2.0077e-003   5.8714e+006  -5.3465e+002   7.9305e+006    0.0174   -0.0000    0.0000    0.0000    0.0690
                0.3317   2.9005e-004  -3.7732e-005   2.0455e-003   5.5690e+006  -4.9211e+002   8.0798e+006    0.0165   -0.0000    0.0000    0.0000    0.0703
                0.3418   2.8627e-004  -3.7240e-005   2.0775e-003   5.4964e+006  -4.8166e+002   8.2061e+006    0.0163   -0.0000    0.0000    0.0000    0.0714
                0.3506   2.8402e-004  -3.6948e-005   2.1049e-003   5.4532e+006  -4.7562e+002   8.3143e+006    0.0162   -0.0000    0.0000    0.0000    0.0723
                0.3581   2.8451e-004  -3.7011e-005   2.1283e-003   5.4625e+006  -4.7704e+002   8.4069e+006    0.0162   -0.0000    0.0000    0.0000    0.0731
                0.3644   2.9099e-004  -3.7854e-005   2.1481e-003   5.5869e+006  -4.9474e+002   8.4849e+006    0.0166   -0.0000    0.0000    0.0000    0.0738
                0.3692   2.9601e-004  -3.8507e-005   2.1640e-003   5.6833e+006  -5.0864e+002   8.5478e+006    0.0169   -0.0000    0.0000    0.0000    0.0743
                0.3728   3.0282e-004  -3.9393e-005   2.1761e-003   5.8140e+006  -5.2839e+002   8.5956e+006    0.0173   -0.0000    0.0000    0.0000    0.0747
                0.3749   3.0838e-004  -4.0117e-005   2.1836e-003   5.9207e+006  -5.4430e+002   8.6253e+006    0.0176   -0.0000    0.0000    0.0000    0.0750
                0.3756   3.1032e-004  -4.0370e-005   2.1861e-003   5.9581e+006  -5.4949e+002   8.6351e+006    0.0177   -0.0000    0.0000    0.0000    0.0751

               lamina:  2     
              matName:  (TEP-core)
                     s           e11           e22           e12           s11           s22           s12   s11_fcT   s11_fcC   s22_fcT   s22_fcC   s12_fcS
                   (m)         (m/m)         (m/m)         (rad)          (Pa)          (Pa)          (Pa)       (-)       (-)       (-)       (-)       (-)
                0.0000   1.2075e-003  -1.5714e-004   1.6658e-003   2.7235e+005   5.6876e+004   1.6325e+005    0.0635   -0.0000    0.0133   -0.0000    0.0553
                0.0183   1.1557e-003  -1.5040e-004   1.3012e-003   2.6067e+005   5.4437e+004   1.2752e+005    0.0608   -0.0000    0.0127   -0.0000    0.0432
                0.0406   1.0925e-003  -1.4218e-004   8.7778e-004   2.4641e+005   5.1459e+004   8.6023e+004    0.0574   -0.0000    0.0120   -0.0000    0.0292
                0.0630   1.0195e-003  -1.3267e-004   4.7984e-004   2.2994e+005   4.8019e+004   4.7024e+004    0.0536   -0.0000    0.0112   -0.0000    0.0159
                0.0852   9.4233e-004  -1.2263e-004   1.1174e-004   2.1254e+005   4.4384e+004   1.0950e+004    0.0495   -0.0000    0.0103   -0.0000    0.0037
                0.1072   8.6578e-004  -1.1267e-004   2.2349e-004   1.9527e+005   4.0779e+004   2.1902e+004    0.0455   -0.0000    0.0095   -0.0000    0.0074
                0.1289   7.8500e-004  -1.0216e-004   5.2563e-004   1.7705e+005   3.6974e+004   5.1512e+004    0.0413   -0.0000    0.0086   -0.0000    0.0175
                0.1502   7.0579e-004  -9.1849e-005   7.9319e-004   1.5919e+005   3.3243e+004   7.7733e+004    0.0371   -0.0000    0.0077   -0.0000    0.0264
                0.1709   6.2968e-004  -8.1944e-005   1.0268e-003   1.4202e+005   2.9659e+004   1.0063e+005    0.0331   -0.0000    0.0069   -0.0000    0.0341
                0.1911   5.5737e-004  -7.2533e-005   1.2282e-003   1.2571e+005   2.6253e+004   1.2036e+005    0.0293   -0.0000    0.0061   -0.0000    0.0408
                0.2105   4.8746e-004  -6.3436e-005   1.3996e-003   1.0994e+005   2.2960e+004   1.3716e+005    0.0256   -0.0000    0.0054   -0.0000    0.0465
                0.2291   4.2756e-004  -5.5640e-005   1.5431e-003   9.6433e+004   2.0138e+004   1.5123e+005    0.0225   -0.0000    0.0047   -0.0000    0.0513
                0.2469   3.7228e-004  -4.8446e-005   1.6627e-003   8.3964e+004   1.7535e+004   1.6295e+005    0.0196   -0.0000    0.0041   -0.0000    0.0552
                0.2638   3.2168e-004  -4.1862e-005   1.7613e-003   7.2554e+004   1.5152e+004   1.7261e+005    0.0169   -0.0000    0.0035   -0.0000    0.0585
                0.2795   2.8419e-004  -3.6982e-005   1.8419e-003   6.4097e+004   1.3386e+004   1.8051e+005    0.0149   -0.0000    0.0031   -0.0000    0.0612
                0.2943   2.4914e-004  -3.2422e-005   1.9082e-003   5.6193e+004   1.1735e+004   1.8701e+005    0.0131   -0.0000    0.0027   -0.0000    0.0634
                0.3080   2.2349e-004  -2.9083e-005   1.9626e-003   5.0406e+004   1.0526e+004   1.9234e+005    0.0117   -0.0000    0.0025   -0.0000    0.0652
                0.3204   2.0590e-004  -2.6795e-005   2.0077e-003   4.6440e+004   9.6984e+003   1.9676e+005    0.0108   -0.0000    0.0023   -0.0000    0.0667
                0.3317   1.8996e-004  -2.4720e-005   2.0455e-003   4.2843e+004   8.9472e+003   2.0046e+005    0.0100   -0.0000    0.0021   -0.0000    0.0680
                0.3418   1.8605e-004  -2.4211e-005   2.0775e-003   4.1961e+004   8.7630e+003   2.0359e+005    0.0098   -0.0000    0.0020   -0.0000    0.0690
                0.3506   1.8378e-004  -2.3916e-005   2.1049e-003   4.1450e+004   8.6563e+003   2.0628e+005    0.0097   -0.0000    0.0020   -0.0000    0.0699
                0.3581   1.8431e-004  -2.3984e-005   2.1283e-003   4.1570e+004   8.6812e+003   2.0858e+005    0.0097   -0.0000    0.0020   -0.0000    0.0707
                0.3644   1.9094e-004  -2.4847e-005   2.1481e-003   4.3065e+004   8.9935e+003   2.1051e+005    0.0100   -0.0000    0.0021   -0.0000    0.0714
                0.3692   1.9614e-004  -2.5525e-005   2.1640e-003   4.4239e+004   9.2387e+003   2.1207e+005    0.0103   -0.0000    0.0022   -0.0000    0.0719
                0.3728   2.0352e-004  -2.6485e-005   2.1761e-003   4.5903e+004   9.5862e+003   2.1326e+005    0.0107   -0.0000    0.0022   -0.0000    0.0723
                0.3749   2.0947e-004  -2.7259e-005   2.1836e-003   4.7244e+004   9.8663e+003   2.1399e+005    0.0110   -0.0000    0.0023   -0.0000    0.0725
                0.3756   2.1141e-004  -2.7512e-005   2.1861e-003   4.7683e+004   9.9579e+003   2.1424e+005    0.0111   -0.0000    0.0023   -0.0000    0.0726

               lamina:  3     
              matName:  (blade-shell)
                     s           e11           e22           e12           s11           s22           s12   s11_fcT   s11_fcC   s22_fcT   s22_fcC   s12_fcS
                   (m)         (m/m)         (m/m)         (rad)          (Pa)          (Pa)          (Pa)       (-)       (-)       (-)       (-)       (-)
                0.0000   1.1963e-003  -1.5569e-004   1.6658e-003   2.2969e+007  -3.2045e+003   6.5799e+006    0.0682   -0.0000    0.0000    0.0000    0.0572
                0.0183   1.1446e-003  -1.4895e-004   1.3012e-003   2.1975e+007  -3.0664e+003   5.1396e+006    0.0652   -0.0000    0.0000    0.0000    0.0447
                0.0406   1.0814e-003  -1.4073e-004   8.7778e-004   2.0762e+007  -2.8979e+003   3.4672e+006    0.0616   -0.0000    0.0000    0.0000    0.0301
                0.0630   1.0084e-003  -1.3123e-004   4.7984e-004   1.9360e+007  -2.7033e+003   1.8954e+006    0.0574   -0.0000    0.0000    0.0000    0.0165
                0.0852   9.3122e-004  -1.2119e-004   1.1174e-004   1.7879e+007  -2.4975e+003   4.4136e+005    0.0531   -0.0000    0.0000    0.0000    0.0038
                0.1072   8.5469e-004  -1.1123e-004   2.2349e-004   1.6410e+007  -2.2935e+003   8.8279e+005    0.0487   -0.0000    0.0000    0.0000    0.0077
                0.1289   7.7392e-004  -1.0072e-004   5.2563e-004   1.4859e+007  -2.0781e+003   2.0762e+006    0.0441   -0.0000    0.0000    0.0000    0.0181
                0.1502   6.9471e-004  -9.0408e-005   7.9319e-004   1.3338e+007  -1.8669e+003   3.1331e+006    0.0396   -0.0000    0.0000    0.0000    0.0272
                0.1709   6.1859e-004  -8.0502e-005   1.0268e-003   1.1877e+007  -1.6640e+003   4.0560e+006    0.0352   -0.0000    0.0000    0.0000    0.0353
                0.1911   5.4628e-004  -7.1091e-005   1.2282e-003   1.0488e+007  -1.4712e+003   4.8514e+006    0.0311   -0.0000    0.0000    0.0000    0.0422
                0.2105   4.7634e-004  -6.1990e-005   1.3996e-003   9.1456e+006  -1.2848e+003   5.5283e+006    0.0271   -0.0000    0.0000    0.0000    0.0481
                0.2291   4.1641e-004  -5.4190e-005   1.5431e-003   7.9949e+006  -1.1250e+003   6.0954e+006    0.0237   -0.0000    0.0000    0.0000    0.0530
                0.2469   3.6111e-004  -4.6995e-005   1.6627e-003   6.9332e+006  -9.7761e+002   6.5678e+006    0.0206   -0.0000    0.0000    0.0000    0.0571
                0.2638   3.1048e-004  -4.0405e-005   1.7613e-003   5.9611e+006  -8.4267e+002   6.9572e+006    0.0177   -0.0000    0.0000    0.0000    0.0605
                0.2795   2.7295e-004  -3.5521e-005   1.8419e-003   5.2405e+006  -7.4266e+002   7.2756e+006    0.0156   -0.0000    0.0000    0.0000    0.0633
                0.2943   2.3789e-004  -3.0958e-005   1.9082e-003   4.5673e+006  -6.4920e+002   7.5375e+006    0.0136   -0.0000    0.0000    0.0000    0.0655
                0.3080   2.1219e-004  -2.7615e-005   1.9626e-003   4.0740e+006  -5.8074e+002   7.7524e+006    0.0121   -0.0000    0.0000    0.0000    0.0674
                0.3204   1.9459e-004  -2.5325e-005   2.0077e-003   3.7361e+006  -5.3385e+002   7.9305e+006    0.0111   -0.0000    0.0000    0.0000    0.0690
                0.3317   1.7862e-004  -2.3246e-005   2.0455e-003   3.4295e+006  -4.9130e+002   8.0798e+006    0.0102   -0.0000    0.0000    0.0000    0.0703
                0.3418   1.7470e-004  -2.2735e-005   2.0775e-003   3.3541e+006  -4.8085e+002   8.2061e+006    0.0100   -0.0000    0.0000    0.0000    0.0714
                0.3506   1.7243e-004  -2.2440e-005   2.1049e-003   3.3106e+006  -4.7481e+002   8.3143e+006    0.0098   -0.0000    0.0000    0.0000    0.0723
                0.3581   1.7296e-004  -2.2510e-005   2.1283e-003   3.3209e+006  -4.7623e+002   8.4069e+006    0.0099   -0.0000    0.0000    0.0000    0.0731
                0.3644   1.7961e-004  -2.3375e-005   2.1481e-003   3.4485e+006  -4.9393e+002   8.4849e+006    0.0102   -0.0000    0.0000    0.0000    0.0738
                0.3692   1.8484e-004  -2.4055e-005   2.1640e-003   3.5489e+006  -5.0784e+002   8.5478e+006    0.0105   -0.0000    0.0000    0.0000    0.0743
                0.3728   1.9228e-004  -2.5023e-005   2.1761e-003   3.6917e+006  -5.2759e+002   8.5956e+006    0.0110   -0.0000    0.0000    0.0000    0.0747
                0.3749   1.9827e-004  -2.5803e-005   2.1836e-003   3.8068e+006  -5.4351e+002   8.6253e+006    0.0113   -0.0000    0.0000    0.0000    0.0750
                0.3756   2.0022e-004  -2.6056e-005   2.1861e-003   3.8441e+006  -5.4869e+002   8.6351e+006    0.0114   -0.0000    0.0000    0.0000    0.0751

     Web:  panel  nNode   nLam     xc_St    xc_End         b         t         E_eff         G_eff      nu_eff     density  buckleCrit
            (-)    (-)    (-)       (-)       (-)       (m)       (m)          (Pa)          (Pa)         (-)    (kg/m^3)         (-)
              1     10      3    0.2257    0.2257    0.1477    0.0121   6.5707e+009   1.3870e+009      0.1347    691.8994      0.0007
              2     10      3    0.4743    0.4743    0.1428    0.0121   6.5707e+009   1.3870e+009      0.1347    691.8994      0.0010

            panel:  1     
           lam_num    nPlies        tPly      fibAng     matID  matName
               (-)       (-)         (m)       (deg)       (-)  (-)
                 1         1    0.002023      0.0000         7  (web-shell)
                 2         1    0.008047      0.0000         8  (web-core)
                 3         1    0.002023      0.0000         7  (web-shell)

               lamina:  1     
              matName:  (web-shell)
                     s           e11           e22           e12           s11           s22           s12   s11_fcT   s11_fcC   s22_fcT   s22_fcC   s12_fcS
                   (m)         (m/m)         (m/m)         (rad)          (Pa)          (Pa)          (Pa)       (-)       (-)       (-)       (-)       (-)
                0.0000  -1.2764e-003   1.7192e-004   2.9822e-003  -2.4491e+007   1.1691e+005   1.1780e+007    0.0000    0.0493    0.0003   -0.0000    0.1024
                0.0164  -9.9669e-004   1.3425e-004   3.2916e-003  -1.9125e+007   9.1313e+004   1.3002e+007    0.0000    0.0385    0.0003   -0.0000    0.1131
                0.0328  -7.1701e-004   9.6576e-005   3.5251e-003  -1.3758e+007   6.5715e+004   1.3924e+007    0.0000    0.0277    0.0002   -0.0000    0.1211
                0.0492  -4.3733e-004   5.8907e-005   3.6827e-003  -8.3915e+006   4.0117e+004   1.4547e+007    0.0000    0.0169    0.0001   -0.0000    0.1265
                0.0657  -1.5765e-004   2.1237e-005   3.7645e-003  -3.0249e+006   1.4520e+004   1.4870e+007    0.0000    0.0061    0.0000   -0.0000    0.1293
                0.0821   1.2268e-004  -1.6516e-005   3.7704e-003   2.3539e+006  -1.1090e+004   1.4893e+007    0.0070   -0.0000    0.0000    0.0000    0.1295
                0.0985   4.0236e-004  -5.4185e-005   3.7004e-003   7.7205e+006  -3.6688e+004   1.4617e+007    0.0229   -0.0000    0.0000    0.0001    0.1271
                0.1149   6.8204e-004  -9.1855e-005   3.5546e-003   1.3087e+007  -6.2285e+004   1.4041e+007    0.0388   -0.0000    0.0000    0.0002    0.1221
                0.1313   9.6172e-004  -1.2952e-004   3.3329e-003   1.8454e+007  -8.7883e+004   1.3165e+007    0.0548   -0.0000    0.0000    0.0003    0.1145
                0.1477   1.2414e-003  -1.6719e-004   3.0353e-003   2.3820e+007  -1.1348e+005   1.1989e+007    0.0707   -0.0000    0.0000    0.0003    0.1043

               lamina:  2     
              matName:  (web-core)
                     s           e11           e22           e12           s11           s22           s12   s11_fcT   s11_fcC   s22_fcT   s22_fcC   s12_fcS
                   (m)         (m/m)         (m/m)         (rad)          (Pa)          (Pa)          (Pa)       (-)       (-)       (-)       (-)       (-)
                0.0000  -1.2789e-003   1.7225e-004   2.9822e-003  -2.8800e+005  -5.8868e+004   2.9226e+005    0.0000    0.0671    0.0000    0.0137    0.0991
                0.0164  -9.9924e-004   1.3458e-004   3.2916e-003  -2.2502e+005  -4.5995e+004   3.2258e+005    0.0000    0.0525    0.0000    0.0107    0.1093
                0.0328  -7.1956e-004   9.6910e-005   3.5251e-003  -1.6204e+005  -3.3121e+004   3.4546e+005    0.0000    0.0378    0.0000    0.0077    0.1171
                0.0492  -4.3988e-004   5.9240e-005   3.6827e-003  -9.9056e+004  -2.0248e+004   3.6091e+005    0.0000    0.0231    0.0000    0.0047    0.1223
                0.0657  -1.6019e-004   2.1571e-005   3.7645e-003  -3.6074e+004  -7.3745e+003   3.6892e+005    0.0000    0.0084    0.0000    0.0017    0.1251
                0.0821   1.2204e-004  -1.6432e-005   3.7704e-003   2.7482e+004   5.6182e+003   3.6950e+005    0.0064   -0.0000    0.0013   -0.0000    0.1253
                0.0985   4.0172e-004  -5.4101e-005   3.7004e-003   9.0463e+004   1.8492e+004   3.6264e+005    0.0211   -0.0000    0.0043   -0.0000    0.1229
                0.1149   6.8140e-004  -9.1771e-005   3.5546e-003   1.5344e+005   3.1365e+004   3.4835e+005    0.0358   -0.0000    0.0073   -0.0000    0.1181
                0.1313   9.6108e-004  -1.2944e-004   3.3329e-003   2.1643e+005   4.4238e+004   3.2662e+005    0.0504   -0.0000    0.0103   -0.0000    0.1107
                0.1477   1.2408e-003  -1.6711e-004   3.0353e-003   2.7941e+005   5.7112e+004   2.9746e+005    0.0651   -0.0000    0.0133   -0.0000    0.1008

               lamina:  3     
              matName:  (web-shell)
                     s           e11           e22           e12           s11           s22           s12   s11_fcT   s11_fcC   s22_fcT   s22_fcC   s12_fcS
                   (m)         (m/m)         (m/m)         (rad)          (Pa)          (Pa)          (Pa)       (-)       (-)       (-)       (-)       (-)
                0.0000  -1.2796e-003   1.7233e-004   2.9822e-003  -2.4552e+007   1.1697e+005   1.1780e+007    0.0000    0.0494    0.0003   -0.0000    0.1024
                0.0164  -9.9988e-004   1.3466e-004   3.2916e-003  -1.9186e+007   9.1375e+004   1.3002e+007    0.0000    0.0386    0.0003   -0.0000    0.1131
                0.0328  -7.2020e-004   9.6994e-005   3.5251e-003  -1.3819e+007   6.5777e+004   1.3924e+007    0.0000    0.0278    0.0002   -0.0000    0.1211
                0.0492  -4.4052e-004   5.9324e-005   3.6827e-003  -8.4527e+006   4.0180e+004   1.4547e+007    0.0000    0.0170    0.0001   -0.0000    0.1265
                0.0657  -1.6083e-004   2.1655e-005   3.7645e-003  -3.0861e+006   1.4582e+004   1.4870e+007    0.0000    0.0062    0.0000   -0.0000    0.1293
                0.0821   1.1949e-004  -1.6098e-005   3.7704e-003   2.2928e+006  -1.1028e+004   1.4893e+007    0.0068   -0.0000    0.0000    0.0000    0.1295
                0.0985   3.9917e-004  -5.3768e-005   3.7004e-003   7.6593e+006  -3.6625e+004   1.4617e+007    0.0227   -0.0000    0.0000    0.0001    0.1271
                0.1149   6.7885e-004  -9.1437e-005   3.5546e-003   1.3026e+007  -6.2223e+004   1.4041e+007    0.0387   -0.0000    0.0000    0.0002    0.1221
                0.1313   9.5854e-004  -1.2911e-004   3.3329e-003   1.8392e+007  -8.7820e+004   1.3165e+007    0.0546   -0.0000    0.0000    0.0003    0.1145
                0.1477   1.2382e-003  -1.6678e-004   3.0353e-003   2.3759e+007  -1.1342e+005   1.1989e+007    0.0705   -0.0000    0.0000    0.0003    0.1043

            panel:  2     
           lam_num    nPlies        tPly      fibAng     matID  matName
               (-)       (-)         (m)       (deg)       (-)  (-)
                 1         1    0.002023      0.0000         7  (web-shell)
                 2         1    0.008047      0.0000         8  (web-core)
                 3         1    0.002023      0.0000         7  (web-shell)

               lamina:  1     
              matName:  (web-shell)
                     s           e11           e22           e12           s11           s22           s12   s11_fcT   s11_fcC   s22_fcT   s22_fcC   s12_fcS
                   (m)         (m/m)         (m/m)         (rad)          (Pa)          (Pa)          (Pa)       (-)       (-)       (-)       (-)       (-)
                0.0000  -1.2677e-003   1.7074e-004   4.1289e-003  -2.4324e+007   1.1610e+005   1.6309e+007    0.0000    0.0489    0.0003   -0.0000    0.1418
                0.0159  -9.9731e-004   1.3433e-004   4.4261e-003  -1.9137e+007   9.1357e+004   1.7483e+007    0.0000    0.0385    0.0003   -0.0000    0.1520
                0.0317  -7.2696e-004   9.7916e-005   4.6525e-003  -1.3949e+007   6.6614e+004   1.8377e+007    0.0000    0.0281    0.0002   -0.0000    0.1598
                0.0476  -4.5661e-004   6.1503e-005   4.8080e-003  -8.7615e+006   4.1870e+004   1.8992e+007    0.0000    0.0176    0.0001   -0.0000    0.1651
                0.0635  -1.8626e-004   2.5091e-005   4.8926e-003  -3.5740e+006   1.7127e+004   1.9326e+007    0.0000    0.0072    0.0001   -0.0000    0.1681
                0.0793   8.4646e-005  -1.1395e-005   4.9063e-003   1.6242e+006  -7.6277e+003   1.9380e+007    0.0048   -0.0000    0.0000    0.0000    0.1685
                0.0952   3.5500e-004  -4.7807e-005   4.8491e-003   6.8117e+006  -3.2371e+004   1.9154e+007    0.0202   -0.0000    0.0000    0.0001    0.1666
                0.1111   6.2535e-004  -8.4220e-005   4.7210e-003   1.1999e+007  -5.7115e+004   1.8648e+007    0.0356   -0.0000    0.0000    0.0002    0.1622
                0.1269   8.9570e-004  -1.2063e-004   4.5221e-003   1.7187e+007  -8.1858e+004   1.7862e+007    0.0510   -0.0000    0.0000    0.0002    0.1553
                0.1428   1.1661e-003  -1.5704e-004   4.2522e-003   2.2374e+007  -1.0660e+005   1.6796e+007    0.0664   -0.0000    0.0000    0.0003    0.1461

               lamina:  2     
              matName:  (web-core)
                     s           e11           e22           e12           s11           s22           s12   s11_fcT   s11_fcC   s22_fcT   s22_fcC   s12_fcS
                   (m)         (m/m)         (m/m)         (rad)          (Pa)          (Pa)          (Pa)       (-)       (-)       (-)       (-)       (-)
                0.0000  -1.2699e-003   1.7103e-004   4.1289e-003  -2.8596e+005  -5.8451e+004   4.0463e+005    0.0000    0.0667    0.0000    0.0136    0.1372
                0.0159  -9.9952e-004   1.3462e-004   4.4261e-003  -2.2508e+005  -4.6007e+004   4.3376e+005    0.0000    0.0525    0.0000    0.0107    0.1470
                0.0317  -7.2917e-004   9.8205e-005   4.6525e-003  -1.6420e+005  -3.3564e+004   4.5595e+005    0.0000    0.0383    0.0000    0.0078    0.1546
                0.0476  -4.5882e-004   6.1793e-005   4.8080e-003  -1.0332e+005  -2.1120e+004   4.7118e+005    0.0000    0.0241    0.0000    0.0049    0.1597
                0.0635  -1.8847e-004   2.5380e-005   4.8926e-003  -4.2442e+004  -8.6759e+003   4.7947e+005    0.0000    0.0099    0.0000    0.0020    0.1625
                0.0793   8.4091e-005  -1.1322e-005   4.9063e-003   1.8937e+004   3.8715e+003   4.8082e+005    0.0044   -0.0000    0.0009   -0.0000    0.1630
                0.0952   3.5444e-004  -4.7734e-005   4.8491e-003   7.9817e+004   1.6315e+004   4.7521e+005    0.0186   -0.0000    0.0038   -0.0000    0.1611
                0.1111   6.2479e-004  -8.4147e-005   4.7210e-003   1.4070e+005   2.8759e+004   4.6266e+005    0.0328   -0.0000    0.0067   -0.0000    0.1568
                0.1269   8.9514e-004  -1.2056e-004   4.5221e-003   2.0158e+005   4.1203e+004   4.4316e+005    0.0470   -0.0000    0.0096   -0.0000    0.1502
                0.1428   1.1655e-003  -1.5697e-004   4.2522e-003   2.6246e+005   5.3647e+004   4.1671e+005    0.0612   -0.0000    0.0125   -0.0000    0.1413

               lamina:  3     
              matName:  (web-shell)
                     s           e11           e22           e12           s11           s22           s12   s11_fcT   s11_fcC   s22_fcT   s22_fcC   s12_fcS
                   (m)         (m/m)         (m/m)         (rad)          (Pa)          (Pa)          (Pa)       (-)       (-)       (-)       (-)       (-)
                0.0000  -1.2704e-003   1.7110e-004   4.1289e-003  -2.4377e+007   1.1615e+005   1.6309e+007    0.0000    0.0490    0.0003   -0.0000    0.1418
                0.0159  -1.0001e-003   1.3469e-004   4.4261e-003  -1.9190e+007   9.1411e+004   1.7483e+007    0.0000    0.0386    0.0003   -0.0000    0.1520
                0.0317  -7.2973e-004   9.8278e-005   4.6525e-003  -1.4002e+007   6.6668e+004   1.8377e+007    0.0000    0.0282    0.0002   -0.0000    0.1598
                0.0476  -4.5938e-004   6.1866e-005   4.8080e-003  -8.8146e+006   4.1924e+004   1.8992e+007    0.0000    0.0177    0.0001   -0.0000    0.1651
                0.0635  -1.8903e-004   2.5453e-005   4.8926e-003  -3.6271e+006   1.7181e+004   1.9326e+007    0.0000    0.0073    0.0001   -0.0000    0.1681
                0.0793   8.1881e-005  -1.1032e-005   4.9063e-003   1.5711e+006  -7.5735e+003   1.9380e+007    0.0047   -0.0000    0.0000    0.0000    0.1685
                0.0952   3.5223e-004  -4.7445e-005   4.8491e-003   6.7586e+006  -3.2317e+004   1.9154e+007    0.0201   -0.0000    0.0000    0.0001    0.1666
                0.1111   6.2258e-004  -8.3857e-005   4.7210e-003   1.1946e+007  -5.7060e+004   1.8648e+007    0.0354   -0.0000    0.0000    0.0002    0.1622
                0.1269   8.9293e-004  -1.2027e-004   4.5221e-003   1.7134e+007  -8.1804e+004   1.7862e+007    0.0508   -0.0000    0.0000    0.0002    0.1553
                0.1428   1.1633e-003  -1.5668e-004   4.2522e-003   2.2321e+007  -1.0655e+005   1.6796e+007    0.0662   -0.0000    0.0000    0.0003    0.1461

================================================================================
sec        =  30     
zSec       =  8.7030  (m)
nPanelsTop =  1      
nPanelsBot =  1      
nWebs      =  0      

    Top:  panel  nNode   nLam     xc_St    xc_End         b         t         E_eff         G_eff      nu_eff     density  buckleCrit
            (-)    (-)    (-)       (-)       (-)       (m)       (m)          (Pa)          (Pa)         (-)    (kg/m^3)         (-)
              1     51      1    0.0000    1.0000    0.6871    0.0041   1.9200e+010   3.9500e+009      0.1300   1670.0000      0.5331

            panel:  1     
           lam_num    nPlies        tPly      fibAng     matID  matName
               (-)       (-)         (m)       (deg)       (-)  (-)
                 1         1    0.004141      0.0000         2  (blade-shell)

               lamina:  1     
              matName:  (blade-shell)
                     s           e11           e22           e12           s11           s22           s12   s11_fcT   s11_fcC   s22_fcT   s22_fcC   s12_fcS
                   (m)         (m/m)         (m/m)         (rad)          (Pa)          (Pa)          (Pa)       (-)       (-)       (-)       (-)       (-)
                0.0000   5.5621e-005  -7.2308e-006   3.3353e-003   1.0679e+006   0.0000e+000   1.3174e+007    0.0032   -0.0000    0.0000   -0.0000    0.1146
                0.0021   4.3309e-005  -5.6302e-006   3.3378e-003   8.3153e+005   7.2760e-012   1.3184e+007    0.0025   -0.0000    0.0000   -0.0000    0.1146
                0.0081  -2.0050e-005   2.6065e-006   3.3403e-003  -3.8496e+005  -3.6380e-012   1.3194e+007    0.0000    0.0008    0.0000    0.0000    0.1147
                0.0157  -6.9701e-005   9.0611e-006   3.3335e-003  -1.3383e+006  -1.4552e-011   1.3167e+007    0.0000    0.0027    0.0000    0.0000    0.1145
                0.0221  -1.0511e-004   1.3664e-005   3.3200e-003  -2.0181e+006  -2.9104e-011   1.3114e+007    0.0000    0.0041    0.0000    0.0000    0.1140
                0.0306  -1.4761e-004   1.9190e-005   3.2923e-003  -2.8342e+006  -5.8208e-011   1.3004e+007    0.0000    0.0057    0.0000    0.0000    0.1131
                0.0394  -1.8557e-004   2.4124e-005   3.2528e-003  -3.5629e+006  -5.8208e-011   1.2849e+007    0.0000    0.0072    0.0000    0.0000    0.1117
                0.0494  -2.2321e-004   2.9018e-005   3.1963e-003  -4.2857e+006  -2.3283e-010   1.2625e+007    0.0000    0.0086    0.0000    0.0000    0.1098
                0.0606  -2.6524e-004   3.4481e-005   3.1188e-003  -5.0925e+006  -2.3283e-010   1.2319e+007    0.0000    0.0102    0.0000    0.0000    0.1071
                0.0721  -2.9824e-004   3.8771e-005   3.0259e-003  -5.7261e+006   1.1642e-010   1.1952e+007    0.0000    0.0115    0.0000   -0.0000    0.1039
                0.0848  -3.3398e-004   4.3418e-005   2.9085e-003  -6.4125e+006  -1.1642e-010   1.1489e+007    0.0000    0.0129    0.0000    0.0000    0.0999
                0.0983  -3.6757e-004   4.7784e-005   2.7695e-003  -7.0574e+006  -3.4925e-010   1.0939e+007    0.0000    0.0142    0.0000    0.0000    0.0951
                0.1126  -3.9692e-004   5.1600e-005   2.6082e-003  -7.6209e+006  -1.1642e-010   1.0302e+007    0.0000    0.0153    0.0000    0.0000    0.0896
                0.1278  -4.2837e-004   5.5688e-005   2.4211e-003  -8.2246e+006  -2.3283e-010   9.5633e+006    0.0000    0.0165    0.0000    0.0000    0.0832
                0.1435  -4.5211e-004   5.8774e-005   2.2142e-003  -8.6805e+006  -2.3283e-010   8.7460e+006    0.0000    0.0175    0.0000    0.0000    0.0761
                0.1601  -4.7502e-004   6.1753e-005   1.9837e-003  -9.1204e+006   0.0000e+000   7.8355e+006    0.0000    0.0184    0.0000   -0.0000    0.0681
                0.1773  -4.9676e-004   6.4579e-005   1.7320e-003  -9.5378e+006   0.0000e+000   6.8414e+006    0.0000    0.0192    0.0000   -0.0000    0.0595
                0.1949  -5.1020e-004   6.6326e-005   1.4632e-003  -9.7959e+006  -2.3283e-010   5.7796e+006    0.0000    0.0197    0.0000    0.0000    0.0503
                0.2132  -5.2406e-004   6.8127e-005   1.1766e-003  -1.0062e+007  -2.3283e-010   4.6475e+006    0.0000    0.0202    0.0000    0.0000    0.0404
                0.2319  -5.3080e-004   6.9004e-005   8.7765e-004  -1.0191e+007  -2.3283e-010   3.4667e+006    0.0000    0.0205    0.0000    0.0000    0.0301
                0.2511  -5.3211e-004   6.9174e-005   5.6820e-004  -1.0216e+007  -4.6566e-010   2.2444e+006    0.0000    0.0206    0.0000    0.0000    0.0195
                0.2707  -5.3341e-004   6.9343e-005   2.5243e-004  -1.0241e+007  -2.3283e-010   9.9709e+005    0.0000    0.0206    0.0000    0.0000    0.0087
                0.2906  -5.2227e-004   6.7895e-005   6.6231e-005  -1.0028e+007  -4.6566e-010   2.6161e+005    0.0000    0.0202    0.0000    0.0000    0.0023
                0.3108  -5.1036e-004   6.6346e-005   3.8251e-004  -9.7988e+006  -2.3283e-010   1.5109e+006    0.0000    0.0197    0.0000    0.0000    0.0131
                0.3312  -4.9497e-004   6.4346e-005   6.9229e-004  -9.5034e+006   0.0000e+000   2.7345e+006    0.0000    0.0191    0.0000   -0.0000    0.0238
                0.3519  -4.7241e-004   6.1413e-005   9.9333e-004  -9.0702e+006   0.0000e+000   3.9236e+006    0.0000    0.0182    0.0000   -0.0000    0.0341
                0.3725  -4.4986e-004   5.8482e-005   1.2794e-003  -8.6374e+006  -1.1642e-010   5.0537e+006    0.0000    0.0174    0.0000    0.0000    0.0439
                0.3933  -4.2211e-004   5.4874e-005   1.5493e-003  -8.1045e+006  -2.3283e-010   6.1197e+006    0.0000    0.0163    0.0000    0.0000    0.0532
                0.4139  -3.9226e-004   5.0994e-005   1.7992e-003  -7.5315e+006  -1.1642e-010   7.1068e+006    0.0000    0.0152    0.0000    0.0000    0.0618
                0.4344  -3.6246e-004   4.7119e-005   2.0262e-003  -6.9592e+006  -1.1642e-010   8.0033e+006    0.0000    0.0140    0.0000    0.0000    0.0696
                0.4546  -3.2848e-004   4.2703e-005   2.2304e-003  -6.3069e+006   0.0000e+000   8.8100e+006    0.0000    0.0127    0.0000   -0.0000    0.0766
                0.4745  -2.9529e-004   3.8388e-005   2.4090e-003  -5.6696e+006  -1.1642e-010   9.5155e+006    0.0000    0.0114    0.0000    0.0000    0.0827
                0.4940  -2.6200e-004   3.4061e-005   2.5623e-003  -5.0305e+006   1.1642e-010   1.0121e+007    0.0000    0.0101    0.0000   -0.0000    0.0880
                0.5129  -2.2852e-004   2.9708e-005   2.6910e-003  -4.3876e+006  -1.7462e-010   1.0630e+007    0.0000    0.0088    0.0000    0.0000    0.0924
                0.5312  -1.9622e-004   2.5508e-005   2.7957e-003  -3.7673e+006   0.0000e+000   1.1043e+007    0.0000    0.0076    0.0000   -0.0000    0.0960
                0.5487  -1.6532e-004   2.1492e-005   2.8782e-003  -3.1742e+006   5.8208e-011   1.1369e+007    0.0000    0.0064    0.0000   -0.0000    0.0989
                0.5655  -1.3585e-004   1.7661e-005   2.9403e-003  -2.6084e+006  -2.9104e-011   1.1614e+007    0.0000    0.0052    0.0000    0.0000    0.1010
                0.5814  -1.0816e-004   1.4060e-005   2.9844e-003  -2.0766e+006  -2.9104e-011   1.1788e+007    0.0000    0.0042    0.0000    0.0000    0.1025
                0.5964  -8.3260e-005   1.0824e-005   3.0129e-003  -1.5986e+006  -3.2742e-011   1.1901e+007    0.0000    0.0032    0.0000    0.0000    0.1035
                0.6104  -5.9970e-005   7.7961e-006   3.0284e-003  -1.1514e+006  -2.1828e-011   1.1962e+007    0.0000    0.0023    0.0000    0.0000    0.1040
                0.6234  -3.9366e-005   5.1176e-006   3.0335e-003  -7.5583e+005   0.0000e+000   1.1982e+007    0.0000    0.0015    0.0000   -0.0000    0.1042
                0.6352   5.4736e-005  -7.1156e-006   3.0306e-003   1.0509e+006   0.0000e+000   1.1971e+007    0.0031   -0.0000    0.0000   -0.0000    0.1041
                0.6459   7.1296e-005  -9.2685e-006   3.0219e-003   1.3689e+006  -5.4570e-012   1.1937e+007    0.0041   -0.0000    0.0000    0.0000    0.1038
                0.6555   8.4819e-005  -1.1027e-005   3.0095e-003   1.6285e+006   5.8208e-011   1.1888e+007    0.0048   -0.0000    0.0000   -0.0000    0.1034
                0.6638   9.6417e-005  -1.2534e-005   2.9953e-003   1.8512e+006  -2.9104e-011   1.1831e+007    0.0055   -0.0000    0.0000    0.0000    0.1029
                0.6709   1.0619e-004  -1.3805e-005   2.9807e-003   2.0389e+006   1.4552e-011   1.1774e+007    0.0061   -0.0000    0.0000   -0.0000    0.1024
                0.6767   1.1383e-004  -1.4798e-005   2.9670e-003   2.1855e+006  -2.9104e-011   1.1720e+007    0.0065   -0.0000    0.0000    0.0000    0.1019
                0.6812   1.1970e-004  -1.5562e-005   2.9554e-003   2.2983e+006   5.8208e-011   1.1674e+007    0.0068   -0.0000    0.0000   -0.0000    0.1015
                0.6845   1.2406e-004  -1.6127e-005   2.9465e-003   2.3819e+006   0.0000e+000   1.1639e+007    0.0071   -0.0000    0.0000   -0.0000    0.1012
                0.6865   1.2676e-004  -1.6479e-005   2.9409e-003   2.4338e+006  -5.8208e-011   1.1617e+007    0.0072   -0.0000    0.0000    0.0000    0.1010
                0.6871   1.2768e-004  -1.6598e-005   2.9390e-003   2.4514e+006   5.8208e-011   1.1609e+007    0.0073   -0.0000    0.0000   -0.0000    0.1009

  Bottom:  panel  nNode   nLam     xc_St    xc_End         b         t         E_eff         G_eff      nu_eff     density  buckleCrit
            (-)    (-)    (-)       (-)       (-)       (m)       (m)          (Pa)          (Pa)         (-)    (kg/m^3)         (-)
              1     51      1    0.0000    1.0000    0.6758    0.0041   1.9200e+010   3.9500e+009      0.1300   1670.0000      0.5529

            panel:  1     
           lam_num    nPlies        tPly      fibAng     matID  matName
               (-)       (-)         (m)       (deg)       (-)  (-)
                 1         1    0.004141      0.0000         2  (blade-shell)

               lamina:  1     
              matName:  (blade-shell)
                     s           e11           e22           e12           s11           s22           s12   s11_fcT   s11_fcC   s22_fcT   s22_fcC   s12_fcS
                   (m)         (m/m)         (m/m)         (rad)          (Pa)          (Pa)          (Pa)       (-)       (-)       (-)       (-)       (-)
                0.0000   4.7683e-005  -6.1988e-006   3.3353e-003   9.1552e+005   2.9104e-011   1.3174e+007    0.0027   -0.0000    0.0000   -0.0000    0.1146
                0.0019   5.8723e-005  -7.6339e-006   3.3329e-003   1.1275e+006   2.9104e-011   1.3165e+007    0.0033   -0.0000    0.0000   -0.0000    0.1145
                0.0073   9.3315e-005  -1.2131e-005   3.3219e-003   1.7916e+006   2.9104e-011   1.3122e+007    0.0053   -0.0000    0.0000   -0.0000    0.1141
                0.0140   1.3843e-004  -1.7995e-005   3.3006e-003   2.6578e+006   5.8208e-011   1.3037e+007    0.0079   -0.0000    0.0000   -0.0000    0.1134
                0.0199   1.6994e-004  -2.2092e-005   3.2757e-003   3.2628e+006   1.1642e-010   1.2939e+007    0.0097   -0.0000    0.0000   -0.0000    0.1125
                0.0278   2.0741e-004  -2.6963e-005   3.2348e-003   3.9822e+006   1.1642e-010   1.2778e+007    0.0118   -0.0000    0.0000   -0.0000    0.1111
                0.0359   2.3934e-004  -3.1115e-005   3.1840e-003   4.5954e+006   0.0000e+000   1.2577e+007    0.0136   -0.0000    0.0000   -0.0000    0.1094
                0.0451   2.6989e-004  -3.5086e-005   3.1169e-003   5.1819e+006   1.7462e-010   1.2312e+007    0.0154   -0.0000    0.0000   -0.0000    0.1071
                0.0556   3.0384e-004  -3.9499e-005   3.0308e-003   5.8337e+006   1.1642e-010   1.1972e+007    0.0173   -0.0000    0.0000   -0.0000    0.1041
                0.0665   3.2970e-004  -4.2860e-005   2.9301e-003   6.3302e+006  -1.1642e-010   1.1574e+007    0.0188   -0.0000    0.0000    0.0000    0.1006
                0.0787   3.5769e-004  -4.6499e-005   2.8075e-003   6.8676e+006  -1.1642e-010   1.1090e+007    0.0204   -0.0000    0.0000    0.0000    0.0964
                0.0918   3.8358e-004  -4.9865e-005   2.6656e-003   7.3647e+006   2.3283e-010   1.0529e+007    0.0219   -0.0000    0.0000   -0.0000    0.0916
                0.1056   4.0568e-004  -5.2738e-005   2.5037e-003   7.7890e+006   2.3283e-010   9.8896e+006    0.0231   -0.0000    0.0000   -0.0000    0.0860
                0.1204   4.2933e-004  -5.5813e-005   2.3198e-003   8.2432e+006   1.1642e-010   9.1632e+006    0.0245   -0.0000    0.0000   -0.0000    0.0797
                0.1359   4.4663e-004  -5.8062e-005   2.1177e-003   8.5753e+006   2.3283e-010   8.3650e+006    0.0254   -0.0000    0.0000   -0.0000    0.0727
                0.1522   4.6319e-004  -6.0215e-005   1.8956e-003   8.8933e+006   1.1642e-010   7.4876e+006    0.0264   -0.0000    0.0000   -0.0000    0.0651
                0.1692   4.7863e-004  -6.2222e-005   1.6556e-003   9.1897e+006   2.3283e-010   6.5397e+006    0.0273   -0.0000    0.0000   -0.0000    0.0569
                0.1868   4.8707e-004  -6.3318e-005   1.4004e-003   9.3517e+006   2.3283e-010   5.5318e+006    0.0277   -0.0000    0.0000   -0.0000    0.0481
                0.2050   4.9576e-004  -6.4449e-005   1.1310e-003   9.5186e+006   2.3283e-010   4.4676e+006    0.0282   -0.0000    0.0000   -0.0000    0.0388
                0.2236   4.9844e-004  -6.4797e-005   8.5121e-004   9.5700e+006   0.0000e+000   3.3623e+006    0.0284   -0.0000    0.0000   -0.0000    0.0292
                0.2428   4.9654e-004  -6.4550e-005   5.6318e-004   9.5336e+006  -2.3283e-010   2.2246e+006    0.0283   -0.0000    0.0000    0.0000    0.0193
                0.2624   4.9456e-004  -6.4293e-005   2.7116e-004   9.4956e+006   4.6566e-010   1.0711e+006    0.0282   -0.0000    0.0000   -0.0000    0.0093
                0.2824   4.8182e-004  -6.2637e-005   2.2537e-005   9.2509e+006   2.3283e-010   8.9021e+004    0.0275   -0.0000    0.0000   -0.0000    0.0008
                0.3027   4.6838e-004  -6.0890e-005   3.1228e-004   8.9930e+006   0.0000e+000   1.2335e+006    0.0267   -0.0000    0.0000   -0.0000    0.0107
                0.3232   4.5213e-004  -5.8776e-005   5.9461e-004   8.6808e+006   2.3283e-010   2.3487e+006    0.0258   -0.0000    0.0000   -0.0000    0.0204
                0.3439   4.3010e-004  -5.5913e-005   8.6743e-004   8.2579e+006   2.3283e-010   3.4264e+006    0.0245   -0.0000    0.0000   -0.0000    0.0298
                0.3646   4.0810e-004  -5.3052e-005   1.1256e-003   7.8354e+006   1.1642e-010   4.4462e+006    0.0233   -0.0000    0.0000   -0.0000    0.0387
                0.3854   3.8267e-004  -4.9747e-005   1.3679e-003   7.3473e+006   1.1642e-010   5.4032e+006    0.0218   -0.0000    0.0000   -0.0000    0.0470
                0.4060   3.5591e-004  -4.6268e-005   1.5916e-003   6.8335e+006   2.3283e-010   6.2868e+006    0.0203   -0.0000    0.0000   -0.0000    0.0547
                0.4264   3.2935e-004  -4.2816e-005   1.7949e-003   6.3236e+006   1.1642e-010   7.0897e+006    0.0188   -0.0000    0.0000   -0.0000    0.0616
                0.4466   3.0135e-004  -3.9175e-005   1.9776e-003   5.7859e+006   2.3283e-010   7.8114e+006    0.0172   -0.0000    0.0000   -0.0000    0.0679
                0.4664   2.7396e-004  -3.5615e-005   2.1388e-003   5.2600e+006   5.8208e-011   8.4485e+006    0.0156   -0.0000    0.0000   -0.0000    0.0735
                0.4856   2.4765e-004  -3.2195e-005   2.2791e-003   4.7549e+006  -5.8208e-011   9.0026e+006    0.0141   -0.0000    0.0000    0.0000    0.0783
                0.5043   2.2265e-004  -2.8944e-005   2.3995e-003   4.2748e+006   1.1642e-010   9.4779e+006    0.0127   -0.0000    0.0000   -0.0000    0.0824
                0.5224   1.9854e-004  -2.5810e-005   2.5013e-003   3.8119e+006   1.1642e-010   9.8800e+006    0.0113   -0.0000    0.0000   -0.0000    0.0859
                0.5397   1.7790e-004  -2.3126e-005   2.5859e-003   3.4156e+006  -2.9104e-011   1.0214e+007    0.0101   -0.0000    0.0000    0.0000    0.0888
                0.5562   1.5879e-004  -2.0642e-005   2.6559e-003   3.0487e+006   0.0000e+000   1.0491e+007    0.0090   -0.0000    0.0000   -0.0000    0.0912
                0.5718   1.4139e-004  -1.8381e-005   2.7129e-003   2.7147e+006   1.1642e-010   1.0716e+007    0.0081   -0.0000    0.0000   -0.0000    0.0932
                0.5865   1.2847e-004  -1.6702e-005   2.7590e-003   2.4667e+006   5.8208e-011   1.0898e+007    0.0073   -0.0000    0.0000   -0.0000    0.0948
                0.6002   1.1637e-004  -1.5129e-005   2.7965e-003   2.2344e+006   2.9104e-011   1.1046e+007    0.0066   -0.0000    0.0000   -0.0000    0.0961
                0.6129   1.0756e-004  -1.3982e-005   2.8267e-003   2.0651e+006   5.8208e-011   1.1166e+007    0.0061   -0.0000    0.0000   -0.0000    0.0971
                0.6245   1.0145e-004  -1.3189e-005   2.8515e-003   1.9479e+006   5.8208e-011   1.1263e+007    0.0058   -0.0000    0.0000   -0.0000    0.0979
                0.6350   9.5949e-005  -1.2473e-005   2.8719e-003   1.8422e+006   7.2760e-012   1.1344e+007    0.0055   -0.0000    0.0000   -0.0000    0.0986
                0.6443   9.4568e-005  -1.2294e-005   2.8891e-003   1.8157e+006  -2.9104e-011   1.1412e+007    0.0054   -0.0000    0.0000    0.0000    0.0992
                0.6525   9.3721e-005  -1.2184e-005   2.9037e-003   1.7994e+006   2.9104e-011   1.1470e+007    0.0053   -0.0000    0.0000   -0.0000    0.0997
                0.6595   9.3823e-005  -1.2197e-005   2.9162e-003   1.8014e+006   2.1828e-011   1.1519e+007    0.0053   -0.0000    0.0000   -0.0000    0.1002
                0.6653   9.5994e-005  -1.2479e-005   2.9267e-003   1.8431e+006  -7.2760e-012   1.1560e+007    0.0055   -0.0000    0.0000    0.0000    0.1005
                0.6698   9.7674e-005  -1.2698e-005   2.9352e-003   1.8753e+006   5.8208e-011   1.1594e+007    0.0056   -0.0000    0.0000   -0.0000    0.1008
                0.6731   9.9973e-005  -1.2996e-005   2.9417e-003   1.9195e+006   5.8208e-011   1.1620e+007    0.0057   -0.0000    0.0000   -0.0000    0.1010
                0.6751   1.0186e-004  -1.3241e-005   2.9458e-003   1.9556e+006   2.1828e-011   1.1636e+007    0.0058   -0.0000    0.0000   -0.0000    0.1012
                0.6758   1.0252e-004  -1.3327e-005   2.9471e-003   1.9684e+006   5.8208e-011   1.1641e+007    0.0058   -0.0000    0.0000   -0.0000    0.1012

     Web:  panel  nNode   nLam     xc_St    xc_End         b         t         E_eff         G_eff      nu_eff     density  buckleCrit
            (-)    (-)    (-)       (-)       (-)       (m)       (m)          (Pa)          (Pa)         (-)    (kg/m^3)         (-)

================================================================================
sec        =  31     
zSec       =  9.0000  (m)
nPanelsTop =  1      
nPanelsBot =  1      
nWebs      =  0      

    Top:  panel  nNode   nLam     xc_St    xc_End         b         t         E_eff         G_eff      nu_eff     density  buckleCrit
            (-)    (-)    (-)       (-)       (-)       (m)       (m)          (Pa)          (Pa)         (-)    (kg/m^3)         (-)
              1     51      1    0.0000    1.0000    0.6341    0.0041   1.9200e+010   3.9500e+009      0.1300   1670.0000      0.0000

            panel:  1     
           lam_num    nPlies        tPly      fibAng     matID  matName
               (-)       (-)         (m)       (deg)       (-)  (-)
                 1         1    0.004141      0.0000         2  (blade-shell)

               lamina:  1     
              matName:  (blade-shell)
                     s           e11           e22           e12           s11           s22           s12   s11_fcT   s11_fcC   s22_fcT   s22_fcC   s12_fcS
                   (m)         (m/m)         (m/m)         (rad)          (Pa)          (Pa)          (Pa)       (-)       (-)       (-)       (-)       (-)
                0.0000   0.0000e+000   0.0000e+000   3.1937e-008   0.0000e+000   0.0000e+000   1.2615e+002    0.0000   -0.0000    0.0000   -0.0000    0.0000
                0.0019   0.0000e+000   0.0000e+000   2.0271e-008   0.0000e+000   0.0000e+000   8.0071e+001    0.0000   -0.0000    0.0000   -0.0000    0.0000
                0.0075   0.0000e+000   0.0000e+000   1.3972e-008   0.0000e+000   0.0000e+000   5.5189e+001    0.0000   -0.0000    0.0000   -0.0000    0.0000
                0.0144   0.0000e+000   0.0000e+000   5.6429e-008   0.0000e+000   0.0000e+000   2.2289e+002    0.0000   -0.0000    0.0000   -0.0000    0.0000
                0.0203   0.0000e+000   0.0000e+000   9.2836e-008   0.0000e+000   0.0000e+000   3.6670e+002    0.0000   -0.0000    0.0000   -0.0000    0.0000
                0.0282   0.0000e+000   0.0000e+000   1.4098e-007   0.0000e+000   0.0000e+000   5.5689e+002    0.0000   -0.0000    0.0000   -0.0000    0.0000
                0.0363   0.0000e+000   0.0000e+000   1.9065e-007   0.0000e+000   0.0000e+000   7.5306e+002    0.0000   -0.0000    0.0000   -0.0000    0.0000
                0.0455   0.0000e+000   0.0000e+000   2.4713e-007   0.0000e+000   0.0000e+000   9.7618e+002    0.0000   -0.0000    0.0000   -0.0000    0.0000
                0.0558   0.0000e+000   0.0000e+000   3.1039e-007   0.0000e+000   0.0000e+000   1.2260e+003    0.0000   -0.0000    0.0000   -0.0000    0.0000
                0.0664   0.0000e+000   0.0000e+000   3.7525e-007   0.0000e+000   0.0000e+000   1.4822e+003    0.0000   -0.0000    0.0000   -0.0000    0.0000
                0.0782   0.0000e+000   0.0000e+000   4.4754e-007   0.0000e+000   0.0000e+000   1.7678e+003    0.0000   -0.0000    0.0000   -0.0000    0.0000
                0.0906   0.0000e+000   0.0000e+000   5.2387e-007   0.0000e+000   0.0000e+000   2.0693e+003    0.0000   -0.0000    0.0000   -0.0000    0.0000
                0.1038   0.0000e+000   0.0000e+000   6.0456e-007   0.0000e+000   0.0000e+000   2.3880e+003    0.0000   -0.0000    0.0000   -0.0000    0.0000
                0.1179   0.0000e+000   0.0000e+000   6.9069e-007   0.0000e+000   0.0000e+000   2.7282e+003    0.0000   -0.0000    0.0000   -0.0000    0.0000
                0.1323   0.0000e+000   0.0000e+000   7.7954e-007   0.0000e+000   0.0000e+000   3.0792e+003    0.0000   -0.0000    0.0000   -0.0000    0.0000
                0.1476   0.0000e+000   0.0000e+000   8.7320e-007   0.0000e+000   0.0000e+000   3.4492e+003    0.0000   -0.0000    0.0000   -0.0000    0.0000
                0.1635   0.0000e+000   0.0000e+000   9.7040e-007   0.0000e+000   0.0000e+000   3.8331e+003    0.0000   -0.0000    0.0000   -0.0000    0.0000
                0.1798   0.0000e+000   0.0000e+000   1.0704e-006   0.0000e+000   0.0000e+000   4.2279e+003    0.0000   -0.0000    0.0000   -0.0000    0.0000
                0.1967   0.0000e+000   0.0000e+000   1.1739e-006   0.0000e+000   0.0000e+000   4.6371e+003    0.0000   -0.0000    0.0000   -0.0000    0.0000
                0.2139   0.0000e+000   0.0000e+000   1.2797e-006   0.0000e+000   0.0000e+000   5.0549e+003    0.0000   -0.0000    0.0000   -0.0000    0.0000
                0.2316   0.0000e+000   0.0000e+000   1.3884e-006   0.0000e+000   0.0000e+000   5.4840e+003    0.0000   -0.0000    0.0000   -0.0000    0.0000
                0.2497   0.0000e+000   0.0000e+000   1.4989e-006   0.0000e+000   0.0000e+000   5.9207e+003    0.0000   -0.0000    0.0000   -0.0000    0.0001
                0.2680   0.0000e+000   0.0000e+000   1.6116e-006   0.0000e+000   0.0000e+000   6.3657e+003    0.0000   -0.0000    0.0000   -0.0000    0.0001
                0.2867   0.0000e+000   0.0000e+000   1.7261e-006   0.0000e+000   0.0000e+000   6.8181e+003    0.0000   -0.0000    0.0000   -0.0000    0.0001
                0.3055   0.0000e+000   0.0000e+000   1.8415e-006   0.0000e+000   0.0000e+000   7.2740e+003    0.0000   -0.0000    0.0000   -0.0000    0.0001
                0.3246   0.0000e+000   0.0000e+000   1.9584e-006   0.0000e+000   0.0000e+000   7.7358e+003    0.0000   -0.0000    0.0000   -0.0000    0.0001
                0.3437   0.0000e+000   0.0000e+000   2.0754e-006   0.0000e+000   0.0000e+000   8.1980e+003    0.0000   -0.0000    0.0000   -0.0000    0.0001
                0.3628   0.0000e+000   0.0000e+000   2.1927e-006   0.0000e+000   0.0000e+000   8.6613e+003    0.0000   -0.0000    0.0000   -0.0000    0.0001
                0.3819   0.0000e+000   0.0000e+000   2.3098e-006   0.0000e+000   0.0000e+000   9.1236e+003    0.0000   -0.0000    0.0000   -0.0000    0.0001
                0.4008   0.0000e+000   0.0000e+000   2.4254e-006   0.0000e+000   0.0000e+000   9.5802e+003    0.0000   -0.0000    0.0000   -0.0000    0.0001
                0.4195   0.0000e+000   0.0000e+000   2.5401e-006   0.0000e+000   0.0000e+000   1.0033e+004    0.0000   -0.0000    0.0000   -0.0000    0.0001
                0.4378   0.0000e+000   0.0000e+000   2.6527e-006   0.0000e+000   0.0000e+000   1.0478e+004    0.0000   -0.0000    0.0000   -0.0000    0.0001
                0.4558   0.0000e+000   0.0000e+000   2.7627e-006   0.0000e+000   0.0000e+000   1.0913e+004    0.0000   -0.0000    0.0000   -0.0000    0.0001
                0.4732   0.0000e+000   0.0000e+000   2.8698e-006   0.0000e+000   0.0000e+000   1.1336e+004    0.0000   -0.0000    0.0000   -0.0000    0.0001
                0.4901   0.0000e+000   0.0000e+000   2.9733e-006   0.0000e+000   0.0000e+000   1.1745e+004    0.0000   -0.0000    0.0000   -0.0000    0.0001
                0.5063   0.0000e+000   0.0000e+000   3.0727e-006   0.0000e+000   0.0000e+000   1.2137e+004    0.0000   -0.0000    0.0000   -0.0000    0.0001
                0.5218   0.0000e+000   0.0000e+000   3.1677e-006   0.0000e+000   0.0000e+000   1.2513e+004    0.0000   -0.0000    0.0000   -0.0000    0.0001
                0.5365   0.0000e+000   0.0000e+000   3.2579e-006   0.0000e+000   0.0000e+000   1.2869e+004    0.0000   -0.0000    0.0000   -0.0000    0.0001
                0.5504   0.0000e+000   0.0000e+000   3.3427e-006   0.0000e+000   0.0000e+000   1.3204e+004    0.0000   -0.0000    0.0000   -0.0000    0.0001
                0.5633   0.0000e+000   0.0000e+000   3.4219e-006   0.0000e+000   0.0000e+000   1.3517e+004    0.0000   -0.0000    0.0000   -0.0000    0.0001
                0.5752   0.0000e+000   0.0000e+000   3.4952e-006   0.0000e+000   0.0000e+000   1.3806e+004    0.0000   -0.0000    0.0000   -0.0000    0.0001
                0.5862   0.0000e+000   0.0000e+000   3.5622e-006   0.0000e+000   0.0000e+000   1.4071e+004    0.0000   -0.0000    0.0000   -0.0000    0.0001
                0.5961   0.0000e+000   0.0000e+000   3.6230e-006   0.0000e+000   0.0000e+000   1.4311e+004    0.0000   -0.0000    0.0000   -0.0000    0.0001
                0.6049   0.0000e+000   0.0000e+000   3.6769e-006   0.0000e+000   0.0000e+000   1.4524e+004    0.0000   -0.0000    0.0000   -0.0000    0.0001
                0.6126   0.0000e+000   0.0000e+000   3.7240e-006   0.0000e+000   0.0000e+000   1.4710e+004    0.0000   -0.0000    0.0000   -0.0000    0.0001
                0.6191   0.0000e+000   0.0000e+000   3.7642e-006   0.0000e+000   0.0000e+000   1.4868e+004    0.0000   -0.0000    0.0000   -0.0000    0.0001
                0.6245   0.0000e+000   0.0000e+000   3.7972e-006   0.0000e+000   0.0000e+000   1.4999e+004    0.0000   -0.0000    0.0000   -0.0000    0.0001
                0.6287   0.0000e+000   0.0000e+000   3.8229e-006   0.0000e+000   0.0000e+000   1.5100e+004    0.0000   -0.0000    0.0000   -0.0000    0.0001
                0.6317   0.0000e+000   0.0000e+000   3.8413e-006   0.0000e+000   0.0000e+000   1.5173e+004    0.0000   -0.0000    0.0000   -0.0000    0.0001
                0.6335   0.0000e+000   0.0000e+000   3.8524e-006   0.0000e+000   0.0000e+000   1.5217e+004    0.0000   -0.0000    0.0000   -0.0000    0.0001
                0.6341   0.0000e+000   0.0000e+000   3.8561e-006   0.0000e+000   0.0000e+000   1.5232e+004    0.0000   -0.0000    0.0000   -0.0000    0.0001

  Bottom:  panel  nNode   nLam     xc_St    xc_End         b         t         E_eff         G_eff      nu_eff     density  buckleCrit
            (-)    (-)    (-)       (-)       (-)       (m)       (m)          (Pa)          (Pa)         (-)    (kg/m^3)         (-)
              1     51      1    0.0000    1.0000    0.6237    0.0041   1.9200e+010   3.9500e+009      0.1300   1670.0000      0.0000

            panel:  1     
           lam_num    nPlies        tPly      fibAng     matID  matName
               (-)       (-)         (m)       (deg)       (-)  (-)
                 1         1    0.004141      0.0000         2  (blade-shell)

               lamina:  1     
              matName:  (blade-shell)
                     s           e11           e22           e12           s11           s22           s12   s11_fcT   s11_fcC   s22_fcT   s22_fcC   s12_fcS
                   (m)         (m/m)         (m/m)         (rad)          (Pa)          (Pa)          (Pa)       (-)       (-)       (-)       (-)       (-)
                0.0000   0.0000e+000   0.0000e+000   3.1937e-008   0.0000e+000   0.0000e+000   1.2615e+002    0.0000   -0.0000    0.0000   -0.0000    0.0000
                0.0017   0.0000e+000   0.0000e+000   4.2461e-008   0.0000e+000   0.0000e+000   1.6772e+002    0.0000   -0.0000    0.0000   -0.0000    0.0000
                0.0067   0.0000e+000   0.0000e+000   7.3197e-008   0.0000e+000   0.0000e+000   2.8913e+002    0.0000   -0.0000    0.0000   -0.0000    0.0000
                0.0129   0.0000e+000   0.0000e+000   1.1111e-007   0.0000e+000   0.0000e+000   4.3889e+002    0.0000   -0.0000    0.0000   -0.0000    0.0000
                0.0183   0.0000e+000   0.0000e+000   1.4437e-007   0.0000e+000   0.0000e+000   5.7025e+002    0.0000   -0.0000    0.0000   -0.0000    0.0000
                0.0255   0.0000e+000   0.0000e+000   1.8854e-007   0.0000e+000   0.0000e+000   7.4472e+002    0.0000   -0.0000    0.0000   -0.0000    0.0000
                0.0330   0.0000e+000   0.0000e+000   2.3426e-007   0.0000e+000   0.0000e+000   9.2532e+002    0.0000   -0.0000    0.0000   -0.0000    0.0000
                0.0416   0.0000e+000   0.0000e+000   2.8675e-007   0.0000e+000   0.0000e+000   1.1327e+003    0.0000   -0.0000    0.0000   -0.0000    0.0000
                0.0512   0.0000e+000   0.0000e+000   3.4575e-007   0.0000e+000   0.0000e+000   1.3657e+003    0.0000   -0.0000    0.0000   -0.0000    0.0000
                0.0613   0.0000e+000   0.0000e+000   4.0773e-007   0.0000e+000   0.0000e+000   1.6105e+003    0.0000   -0.0000    0.0000   -0.0000    0.0000
                0.0726   0.0000e+000   0.0000e+000   4.7682e-007   0.0000e+000   0.0000e+000   1.8835e+003    0.0000   -0.0000    0.0000   -0.0000    0.0000
                0.0846   0.0000e+000   0.0000e+000   5.5043e-007   0.0000e+000   0.0000e+000   2.1742e+003    0.0000   -0.0000    0.0000   -0.0000    0.0000
                0.0974   0.0000e+000   0.0000e+000   6.2891e-007   0.0000e+000   0.0000e+000   2.4842e+003    0.0000   -0.0000    0.0000   -0.0000    0.0000
                0.1110   0.0000e+000   0.0000e+000   7.1273e-007   0.0000e+000   0.0000e+000   2.8153e+003    0.0000   -0.0000    0.0000   -0.0000    0.0000
                0.1253   0.0000e+000   0.0000e+000   8.0020e-007   0.0000e+000   0.0000e+000   3.1608e+003    0.0000   -0.0000    0.0000   -0.0000    0.0000
                0.1404   0.0000e+000   0.0000e+000   8.9251e-007   0.0000e+000   0.0000e+000   3.5254e+003    0.0000   -0.0000    0.0000   -0.0000    0.0000
                0.1560   0.0000e+000   0.0000e+000   9.8856e-007   0.0000e+000   0.0000e+000   3.9048e+003    0.0000   -0.0000    0.0000   -0.0000    0.0000
                0.1722   0.0000e+000   0.0000e+000   1.0880e-006   0.0000e+000   0.0000e+000   4.2975e+003    0.0000   -0.0000    0.0000   -0.0000    0.0000
                0.1890   0.0000e+000   0.0000e+000   1.1910e-006   0.0000e+000   0.0000e+000   4.7045e+003    0.0000   -0.0000    0.0000   -0.0000    0.0000
                0.2063   0.0000e+000   0.0000e+000   1.2967e-006   0.0000e+000   0.0000e+000   5.1219e+003    0.0000   -0.0000    0.0000   -0.0000    0.0000
                0.2240   0.0000e+000   0.0000e+000   1.4054e-006   0.0000e+000   0.0000e+000   5.5512e+003    0.0000   -0.0000    0.0000   -0.0000    0.0000
                0.2420   0.0000e+000   0.0000e+000   1.5160e-006   0.0000e+000   0.0000e+000   5.9883e+003    0.0000   -0.0000    0.0000   -0.0000    0.0001
                0.2605   0.0000e+000   0.0000e+000   1.6291e-006   0.0000e+000   0.0000e+000   6.4350e+003    0.0000   -0.0000    0.0000   -0.0000    0.0001
                0.2792   0.0000e+000   0.0000e+000   1.7440e-006   0.0000e+000   0.0000e+000   6.8889e+003    0.0000   -0.0000    0.0000   -0.0000    0.0001
                0.2981   0.0000e+000   0.0000e+000   1.8599e-006   0.0000e+000   0.0000e+000   7.3466e+003    0.0000   -0.0000    0.0000   -0.0000    0.0001
                0.3172   0.0000e+000   0.0000e+000   1.9772e-006   0.0000e+000   0.0000e+000   7.8098e+003    0.0000   -0.0000    0.0000   -0.0000    0.0001
                0.3364   0.0000e+000   0.0000e+000   2.0945e-006   0.0000e+000   0.0000e+000   8.2734e+003    0.0000   -0.0000    0.0000   -0.0000    0.0001
                0.3555   0.0000e+000   0.0000e+000   2.2120e-006   0.0000e+000   0.0000e+000   8.7373e+003    0.0000   -0.0000    0.0000   -0.0000    0.0001
                0.3746   0.0000e+000   0.0000e+000   2.3289e-006   0.0000e+000   0.0000e+000   9.1993e+003    0.0000   -0.0000    0.0000   -0.0000    0.0001
                0.3935   0.0000e+000   0.0000e+000   2.4445e-006   0.0000e+000   0.0000e+000   9.6557e+003    0.0000   -0.0000    0.0000   -0.0000    0.0001
                0.4121   0.0000e+000   0.0000e+000   2.5586e-006   0.0000e+000   0.0000e+000   1.0106e+004    0.0000   -0.0000    0.0000   -0.0000    0.0001
                0.4303   0.0000e+000   0.0000e+000   2.6705e-006   0.0000e+000   0.0000e+000   1.0548e+004    0.0000   -0.0000    0.0000   -0.0000    0.0001
                0.4481   0.0000e+000   0.0000e+000   2.7796e-006   0.0000e+000   0.0000e+000   1.0979e+004    0.0000   -0.0000    0.0000   -0.0000    0.0001
                0.4654   0.0000e+000   0.0000e+000   2.8854e-006   0.0000e+000   0.0000e+000   1.1397e+004    0.0000   -0.0000    0.0000   -0.0000    0.0001
                0.4820   0.0000e+000   0.0000e+000   2.9877e-006   0.0000e+000   0.0000e+000   1.1801e+004    0.0000   -0.0000    0.0000   -0.0000    0.0001
                0.4980   0.0000e+000   0.0000e+000   3.0855e-006   0.0000e+000   0.0000e+000   1.2188e+004    0.0000   -0.0000    0.0000   -0.0000    0.0001
                0.5132   0.0000e+000   0.0000e+000   3.1788e-006   0.0000e+000   0.0000e+000   1.2556e+004    0.0000   -0.0000    0.0000   -0.0000    0.0001
                0.5277   0.0000e+000   0.0000e+000   3.2675e-006   0.0000e+000   0.0000e+000   1.2907e+004    0.0000   -0.0000    0.0000   -0.0000    0.0001
                0.5412   0.0000e+000   0.0000e+000   3.3505e-006   0.0000e+000   0.0000e+000   1.3235e+004    0.0000   -0.0000    0.0000   -0.0000    0.0001
                0.5539   0.0000e+000   0.0000e+000   3.4281e-006   0.0000e+000   0.0000e+000   1.3541e+004    0.0000   -0.0000    0.0000   -0.0000    0.0001
                0.5656   0.0000e+000   0.0000e+000   3.5000e-006   0.0000e+000   0.0000e+000   1.3825e+004    0.0000   -0.0000    0.0000   -0.0000    0.0001
                0.5763   0.0000e+000   0.0000e+000   3.5655e-006   0.0000e+000   0.0000e+000   1.4084e+004    0.0000   -0.0000    0.0000   -0.0000    0.0001
                0.5860   0.0000e+000   0.0000e+000   3.6250e-006   0.0000e+000   0.0000e+000   1.4319e+004    0.0000   -0.0000    0.0000   -0.0000    0.0001
                0.5946   0.0000e+000   0.0000e+000   3.6781e-006   0.0000e+000   0.0000e+000   1.4528e+004    0.0000   -0.0000    0.0000   -0.0000    0.0001
                0.6022   0.0000e+000   0.0000e+000   3.7242e-006   0.0000e+000   0.0000e+000   1.4711e+004    0.0000   -0.0000    0.0000   -0.0000    0.0001
                0.6086   0.0000e+000   0.0000e+000   3.7639e-006   0.0000e+000   0.0000e+000   1.4867e+004    0.0000   -0.0000    0.0000   -0.0000    0.0001
                0.6140   0.0000e+000   0.0000e+000   3.7966e-006   0.0000e+000   0.0000e+000   1.4997e+004    0.0000   -0.0000    0.0000   -0.0000    0.0001
                0.6182   0.0000e+000   0.0000e+000   3.8222e-006   0.0000e+000   0.0000e+000   1.5098e+004    0.0000   -0.0000    0.0000   -0.0000    0.0001
                0.6212   0.0000e+000   0.0000e+000   3.8411e-006   0.0000e+000   0.0000e+000   1.5172e+004    0.0000   -0.0000    0.0000   -0.0000    0.0001
                0.6231   0.0000e+000   0.0000e+000   3.8524e-006   0.0000e+000   0.0000e+000   1.5217e+004    0.0000   -0.0000    0.0000   -0.0000    0.0001
                0.6237   0.0000e+000   0.0000e+000   3.8561e-006   0.0000e+000   0.0000e+000   1.5232e+004    0.0000   -0.0000    0.0000   -0.0000    0.0001

     Web:  panel  nNode   nLam     xc_St    xc_End         b         t         E_eff         G_eff      nu_eff     density  buckleCrit
            (-)    (-)    (-)       (-)       (-)       (m)       (m)          (Pa)          (Pa)         (-)    (kg/m^3)         (-)

