=====  Lamina Data Output File  ================================================
Generated on February 03, 2014  7:59 PM by Co-Blade v2.0.0_rc1 
This line is for user comments. 

================================================================================
sec        =  1      
zSec       =  0.0000  (m)
nPanelsTop =  1      
nPanelsBot =  1      
nWebs      =  0      

    Top:  panel  nNode   nLam     xc_St    xc_End         b         t         E_eff         G_eff      nu_eff     density  buckleCrit
            (-)    (-)    (-)       (-)       (-)       (m)       (m)          (Pa)          (Pa)         (-)    (kg/m^3)         (-)
              1     31      3    0.0000    1.0000    8.6793    0.1700   2.8000e+010   7.0000e+009      0.4000   1850.0000      0.0001

            panel:  1     
           lam_num    nPlies        tPly      fibAng     matID  matName
               (-)       (-)         (m)       (deg)       (-)  (-)
                 1         1    0.005000      0.0000         2  (blade-shell)
                 2         1    0.160000      0.0000         1  (blade-root)
                 3         1    0.005000      0.0000         2  (blade-shell)

               lamina:  1     
              matName:  (blade-shell)
                     s           e11           e22           e12           s11           s22           s12   s11_fcT   s11_fcC   s22_fcT   s22_fcC   s12_fcS
                   (m)         (m/m)         (m/m)         (rad)          (Pa)          (Pa)          (Pa)       (-)       (-)       (-)       (-)       (-)
                0.0000   3.1528e-004  -1.2611e-004   1.5607e-005   8.8277e+006  -1.1642e-009   1.0925e+005    0.0613   -0.0000    0.0000    0.0000    0.0018
                0.2864   3.1815e-004  -1.2726e-004   2.7417e-006   8.9083e+006  -9.3132e-010   1.9192e+004    0.0619   -0.0000    0.0000    0.0000    0.0003
                0.5663   3.1761e-004  -1.2705e-004   9.8759e-006   8.8932e+006  -9.3132e-010   6.9131e+004    0.0618   -0.0000    0.0000    0.0000    0.0012
                0.8749   3.1406e-004  -1.2562e-004   2.3704e-005   8.7937e+006  -6.9849e-010   1.6593e+005    0.0611   -0.0000    0.0000    0.0000    0.0028
                1.1565   3.0660e-004  -1.2264e-004   3.6098e-005   8.5849e+006  -2.3283e-010   2.5269e+005    0.0596   -0.0000    0.0000    0.0000    0.0042
                1.4487   2.9601e-004  -1.1840e-004   4.8589e-005   8.2881e+006  -6.9849e-010   3.4012e+005    0.0576   -0.0000    0.0000    0.0000    0.0057
                1.7372   2.8206e-004  -1.1282e-004   6.0415e-005   7.8976e+006  -6.9849e-010   4.2291e+005    0.0548   -0.0000    0.0000    0.0000    0.0070
                2.0260   2.6506e-004  -1.0602e-004   7.1621e-005   7.4216e+006  -6.9849e-010   5.0135e+005    0.0515   -0.0000    0.0000    0.0000    0.0084
                2.3164   2.4517e-004  -9.8069e-005   8.2129e-005   6.8648e+006  -6.9849e-010   5.7490e+005    0.0477   -0.0000    0.0000    0.0000    0.0096
                2.6047   2.2253e-004  -8.9011e-005   9.1693e-005   6.2308e+006  -6.9849e-010   6.4185e+005    0.0433   -0.0000    0.0000    0.0000    0.0107
                2.8941   1.9753e-004  -7.9012e-005   1.0031e-004   5.5308e+006  -4.6566e-010   7.0220e+005    0.0384   -0.0000    0.0000    0.0000    0.0117
                3.1835   1.7031e-004  -6.8124e-005   1.0786e-004   4.7687e+006  -2.3283e-010   7.5505e+005    0.0331   -0.0000    0.0000    0.0000    0.0126
                3.4721   1.4121e-004  -5.6483e-005   1.1424e-004   3.9538e+006  -2.3283e-010   7.9969e+005    0.0275   -0.0000    0.0000    0.0000    0.0133
                3.7616   1.1064e-004  -4.4257e-005   1.1941e-004   3.0980e+006  -2.3283e-010   8.3588e+005    0.0215   -0.0000    0.0000    0.0000    0.0139
                4.0505   7.8761e-005  -3.1504e-005   1.2329e-004   2.2053e+006  -2.3283e-010   8.6305e+005    0.0153   -0.0000    0.0000    0.0000    0.0144
                4.3396   4.6072e-005  -1.8429e-005   1.2585e-004   1.2900e+006  -1.1642e-010   8.8097e+005    0.0090   -0.0000    0.0000    0.0000    0.0147
                4.6288   1.2912e-005  -5.1647e-006   1.2706e-004   3.6153e+005  -2.9104e-011   8.8943e+005    0.0025   -0.0000    0.0000    0.0000    0.0148
                4.9177  -2.0490e-005   8.1962e-006   1.2691e-004  -5.7373e+005   5.8208e-011   8.8834e+005    0.0000    0.0027    0.0000   -0.0000    0.0148
                5.2072  -5.3576e-005   2.1430e-005   1.2538e-004  -1.5001e+006   5.8208e-011   8.7769e+005    0.0000    0.0070    0.0000   -0.0000    0.0146
                5.4958  -8.6100e-005   3.4440e-005   1.2252e-004  -2.4108e+006   1.1642e-010   8.5767e+005    0.0000    0.0113    0.0000   -0.0000    0.0143
                5.7852  -1.1775e-004   4.7098e-005   1.1834e-004  -3.2969e+006   2.3283e-010   8.2838e+005    0.0000    0.0155    0.0000   -0.0000    0.0138
                6.0746  -1.4800e-004   5.9201e-005   1.1288e-004  -4.1441e+006   3.4925e-010   7.9019e+005    0.0000    0.0195    0.0000   -0.0000    0.0132
                6.3629  -1.7670e-004   7.0682e-005   1.0624e-004  -4.9477e+006   2.3283e-010   7.4371e+005    0.0000    0.0232    0.0000   -0.0000    0.0124
                6.6533  -2.0348e-004   8.1392e-005   9.8415e-005  -5.6975e+006   6.9849e-010   6.8890e+005    0.0000    0.0267    0.0000   -0.0000    0.0115
                6.9421  -2.2796e-004   9.1183e-005   8.9577e-005  -6.3828e+006   4.6566e-010   6.2704e+005    0.0000    0.0300    0.0000   -0.0000    0.0105
                7.2305  -2.5001e-004   1.0000e-004   7.9798e-005  -7.0003e+006   4.6566e-010   5.5859e+005    0.0000    0.0329    0.0000   -0.0000    0.0093
                7.5228  -2.6929e-004   1.0772e-004   6.9032e-005  -7.5401e+006   4.6566e-010   4.8323e+005    0.0000    0.0354    0.0000   -0.0000    0.0081
                7.8043  -2.8559e-004   1.1424e-004   5.7952e-005  -7.9966e+006   6.9849e-010   4.0566e+005    0.0000    0.0375    0.0000   -0.0000    0.0068
                8.1130  -2.9907e-004   1.1963e-004   4.5153e-005  -8.3741e+006   6.9849e-010   3.1607e+005    0.0000    0.0393    0.0000   -0.0000    0.0053
                8.3928  -3.0882e-004   1.2353e-004   3.3086e-005  -8.6470e+006   6.9849e-010   2.3160e+005    0.0000    0.0406    0.0000   -0.0000    0.0039
                8.6793  -3.1511e-004   1.2605e-004   2.0404e-005  -8.8232e+006   9.3132e-010   1.4283e+005    0.0000    0.0414    0.0000   -0.0000    0.0024

               lamina:  2     
              matName:  (blade-root)
                     s           e11           e22           e12           s11           s22           s12   s11_fcT   s11_fcC   s22_fcT   s22_fcC   s12_fcS
                   (m)         (m/m)         (m/m)         (rad)          (Pa)          (Pa)          (Pa)       (-)       (-)       (-)       (-)       (-)
                0.0000   3.1370e-004  -1.2548e-004   1.5607e-005   8.7835e+006  -1.1642e-009   1.0925e+005    0.0610   -0.0000    0.0000    0.0000    0.0018
                0.2864   3.1657e-004  -1.2663e-004   2.7417e-006   8.8640e+006  -9.3132e-010   1.9192e+004    0.0616   -0.0000    0.0000    0.0000    0.0003
                0.5663   3.1603e-004  -1.2641e-004   9.8759e-006   8.8489e+006  -9.3132e-010   6.9131e+004    0.0615   -0.0000    0.0000    0.0000    0.0012
                0.8749   3.1250e-004  -1.2500e-004   2.3704e-005   8.7500e+006  -6.9849e-010   1.6593e+005    0.0608   -0.0000    0.0000    0.0000    0.0028
                1.1565   3.0508e-004  -1.2203e-004   3.6098e-005   8.5423e+006  -2.3283e-010   2.5269e+005    0.0593   -0.0000    0.0000    0.0000    0.0042
                1.4487   2.9453e-004  -1.1781e-004   4.8589e-005   8.2469e+006  -6.9849e-010   3.4012e+005    0.0573   -0.0000    0.0000    0.0000    0.0057
                1.7372   2.8065e-004  -1.1226e-004   6.0415e-005   7.8583e+006  -6.9849e-010   4.2291e+005    0.0546   -0.0000    0.0000    0.0000    0.0070
                2.0260   2.6374e-004  -1.0550e-004   7.1621e-005   7.3847e+006  -6.9849e-010   5.0135e+005    0.0513   -0.0000    0.0000    0.0000    0.0084
                2.3164   2.4395e-004  -9.7580e-005   8.2129e-005   6.8306e+006  -6.9849e-010   5.7490e+005    0.0474   -0.0000    0.0000    0.0000    0.0096
                2.6047   2.2142e-004  -8.8569e-005   9.1693e-005   6.1998e+006  -6.9849e-010   6.4185e+005    0.0431   -0.0000    0.0000    0.0000    0.0107
                2.8941   1.9654e-004  -7.8618e-005   1.0031e-004   5.5033e+006  -4.6566e-010   7.0220e+005    0.0382   -0.0000    0.0000    0.0000    0.0117
                3.1835   1.6946e-004  -6.7785e-005   1.0786e-004   4.7450e+006  -3.4925e-010   7.5505e+005    0.0330   -0.0000    0.0000    0.0000    0.0126
                3.4721   1.4051e-004  -5.6202e-005   1.1424e-004   3.9342e+006  -3.4925e-010   7.9969e+005    0.0273   -0.0000    0.0000    0.0000    0.0133
                3.7616   1.1009e-004  -4.4036e-005   1.1941e-004   3.0825e+006  -3.4925e-010   8.3588e+005    0.0214   -0.0000    0.0000    0.0000    0.0139
                4.0505   7.8371e-005  -3.1348e-005   1.2329e-004   2.1944e+006  -1.7462e-010   8.6305e+005    0.0152   -0.0000    0.0000    0.0000    0.0144
                4.3396   4.5843e-005  -1.8337e-005   1.2585e-004   1.2836e+006  -1.1642e-010   8.8097e+005    0.0089   -0.0000    0.0000    0.0000    0.0147
                4.6288   1.2845e-005  -5.1381e-006   1.2706e-004   3.5967e+005  -2.9104e-011   8.8943e+005    0.0025   -0.0000    0.0000    0.0000    0.0148
                4.9177  -2.0387e-005   8.1546e-006   1.2691e-004  -5.7082e+005   5.8208e-011   8.8834e+005    0.0000    0.0027    0.0000   -0.0000    0.0148
                5.2072  -5.3311e-005   2.1324e-005   1.2538e-004  -1.4927e+006   1.1642e-010   8.7769e+005    0.0000    0.0070    0.0000   -0.0000    0.0146
                5.4958  -8.5673e-005   3.4269e-005   1.2252e-004  -2.3988e+006   1.7462e-010   8.5767e+005    0.0000    0.0113    0.0000   -0.0000    0.0143
                5.7852  -1.1716e-004   4.6863e-005   1.1834e-004  -3.2804e+006   2.3283e-010   8.2838e+005    0.0000    0.0154    0.0000   -0.0000    0.0138
                6.0746  -1.4727e-004   5.8907e-005   1.1288e-004  -4.1235e+006   2.3283e-010   7.9019e+005    0.0000    0.0194    0.0000   -0.0000    0.0132
                6.3629  -1.7582e-004   7.0330e-005   1.0624e-004  -4.9231e+006   3.4925e-010   7.4371e+005    0.0000    0.0231    0.0000   -0.0000    0.0124
                6.6533  -2.0247e-004   8.0987e-005   9.8415e-005  -5.6691e+006   4.6566e-010   6.8890e+005    0.0000    0.0266    0.0000   -0.0000    0.0115
                6.9421  -2.2683e-004   9.0731e-005   8.9577e-005  -6.3511e+006   4.6566e-010   6.2704e+005    0.0000    0.0298    0.0000   -0.0000    0.0105
                7.2305  -2.4877e-004   9.9507e-005   7.9798e-005  -6.9655e+006   4.6566e-010   5.5859e+005    0.0000    0.0327    0.0000   -0.0000    0.0093
                7.5228  -2.6795e-004   1.0718e-004   6.9032e-005  -7.5027e+006   4.6566e-010   4.8323e+005    0.0000    0.0352    0.0000   -0.0000    0.0081
                7.8043  -2.8417e-004   1.1367e-004   5.7952e-005  -7.9567e+006   4.6566e-010   4.0566e+005    0.0000    0.0374    0.0000   -0.0000    0.0068
                8.1130  -2.9759e-004   1.1904e-004   4.5153e-005  -8.3325e+006   9.3132e-010   3.1607e+005    0.0000    0.0391    0.0000   -0.0000    0.0053
                8.3928  -3.0729e-004   1.2292e-004   3.3086e-005  -8.6041e+006   6.9849e-010   2.3160e+005    0.0000    0.0404    0.0000   -0.0000    0.0039
                8.6793  -3.1356e-004   1.2542e-004   2.0404e-005  -8.7797e+006   9.3132e-010   1.4283e+005    0.0000    0.0412    0.0000   -0.0000    0.0024

               lamina:  3     
              matName:  (blade-shell)
                     s           e11           e22           e12           s11           s22           s12   s11_fcT   s11_fcC   s22_fcT   s22_fcC   s12_fcS
                   (m)         (m/m)         (m/m)         (rad)          (Pa)          (Pa)          (Pa)       (-)       (-)       (-)       (-)       (-)
                0.0000   2.6323e-004  -1.0529e-004   1.5607e-005   7.3703e+006  -9.3132e-010   1.0925e+005    0.0512   -0.0000    0.0000    0.0000    0.0018
                0.2864   2.6592e-004  -1.0637e-004   2.7417e-006   7.4458e+006  -6.9849e-010   1.9192e+004    0.0517   -0.0000    0.0000    0.0000    0.0003
                0.5663   2.6544e-004  -1.0618e-004   9.8759e-006   7.4323e+006  -1.1642e-009   6.9131e+004    0.0516   -0.0000    0.0000    0.0000    0.0012
                0.8749   2.6248e-004  -1.0499e-004   2.3704e-005   7.3494e+006  -6.9849e-010   1.6593e+005    0.0510   -0.0000    0.0000    0.0000    0.0028
                1.1565   2.5632e-004  -1.0253e-004   3.6098e-005   7.1769e+006  -2.3283e-010   2.5269e+005    0.0498   -0.0000    0.0000    0.0000    0.0042
                1.4487   2.4739e-004  -9.8955e-005   4.8589e-005   6.9268e+006  -9.3132e-010   3.4012e+005    0.0481   -0.0000    0.0000    0.0000    0.0057
                1.7372   2.3579e-004  -9.4316e-005   6.0415e-005   6.6021e+006  -6.9849e-010   4.2291e+005    0.0458   -0.0000    0.0000    0.0000    0.0070
                2.0260   2.2152e-004  -8.8608e-005   7.1621e-005   6.2026e+006  -6.9849e-010   5.0135e+005    0.0431   -0.0000    0.0000    0.0000    0.0084
                2.3164   2.0490e-004  -8.1961e-005   8.2129e-005   5.7372e+006  -4.6566e-010   5.7490e+005    0.0398   -0.0000    0.0000    0.0000    0.0096
                2.6047   1.8605e-004  -7.4418e-005   9.1693e-005   5.2093e+006  -6.9849e-010   6.4185e+005    0.0362   -0.0000    0.0000    0.0000    0.0107
                2.8941   1.6504e-004  -6.6016e-005   1.0031e-004   4.6211e+006  -2.3283e-010   7.0220e+005    0.0321   -0.0000    0.0000    0.0000    0.0117
                3.1835   1.4237e-004  -5.6950e-005   1.0786e-004   3.9865e+006  -4.6566e-010   7.5505e+005    0.0277   -0.0000    0.0000    0.0000    0.0126
                3.4721   1.1807e-004  -4.7228e-005   1.1424e-004   3.3060e+006  -3.4925e-010   7.9969e+005    0.0230   -0.0000    0.0000    0.0000    0.0133
                3.7616   9.2402e-005  -3.6961e-005   1.1941e-004   2.5873e+006  -3.4925e-010   8.3588e+005    0.0180   -0.0000    0.0000    0.0000    0.0139
                4.0505   6.5895e-005  -2.6358e-005   1.2329e-004   1.8451e+006  -1.1642e-010   8.6305e+005    0.0128   -0.0000    0.0000    0.0000    0.0144
                4.3396   3.8499e-005  -1.5400e-005   1.2585e-004   1.0780e+006  -8.7311e-011   8.8097e+005    0.0075   -0.0000    0.0000    0.0000    0.0147
                4.6288   1.0713e-005  -4.2850e-006   1.2706e-004   2.9995e+005  -2.9104e-011   8.8943e+005    0.0021   -0.0000    0.0000    0.0000    0.0148
                4.9177  -1.7060e-005   6.8242e-006   1.2691e-004  -4.7769e+005   4.3656e-011   8.8834e+005    0.0000    0.0022    0.0000   -0.0000    0.0148
                5.2072  -4.4849e-005   1.7940e-005   1.2538e-004  -1.2558e+006   1.1642e-010   8.7769e+005    0.0000    0.0059    0.0000   -0.0000    0.0146
                5.4958  -7.2004e-005   2.8802e-005   1.2252e-004  -2.0161e+006   1.7462e-010   8.5767e+005    0.0000    0.0095    0.0000   -0.0000    0.0143
                5.7852  -9.8359e-005   3.9344e-005   1.1834e-004  -2.7541e+006   2.3283e-010   8.2838e+005    0.0000    0.0129    0.0000   -0.0000    0.0138
                6.0746  -1.2378e-004   4.9514e-005   1.1288e-004  -3.4659e+006   1.1642e-010   7.9019e+005    0.0000    0.0163    0.0000   -0.0000    0.0132
                6.3629  -1.4768e-004   5.9072e-005   1.0624e-004  -4.1350e+006   3.4925e-010   7.4371e+005    0.0000    0.0194    0.0000   -0.0000    0.0124
                6.6533  -1.7006e-004   6.8025e-005   9.8415e-005  -4.7617e+006   4.6566e-010   6.8890e+005    0.0000    0.0224    0.0000   -0.0000    0.0115
                6.9421  -1.9061e-004   7.6244e-005   8.9577e-005  -5.3371e+006   4.6566e-010   6.2704e+005    0.0000    0.0251    0.0000   -0.0000    0.0105
                7.2305  -2.0894e-004   8.3575e-005   7.9798e-005  -5.8503e+006   4.6566e-010   5.5859e+005    0.0000    0.0275    0.0000   -0.0000    0.0093
                7.5228  -2.2520e-004   9.0082e-005   6.9032e-005  -6.3057e+006   4.6566e-010   4.8323e+005    0.0000    0.0296    0.0000   -0.0000    0.0081
                7.8043  -2.3860e-004   9.5439e-005   5.7952e-005  -6.6807e+006   4.6566e-010   4.0566e+005    0.0000    0.0314    0.0000   -0.0000    0.0068
                8.1130  -2.5000e-004   1.0000e-004   4.5153e-005  -7.0000e+006   9.3132e-010   3.1607e+005    0.0000    0.0329    0.0000   -0.0000    0.0053
                8.3928  -2.5822e-004   1.0329e-004   3.3086e-005  -7.2301e+006   1.1642e-009   2.3160e+005    0.0000    0.0339    0.0000   -0.0000    0.0039
                8.6793  -2.6388e-004   1.0555e-004   2.0404e-005  -7.3885e+006   9.3132e-010   1.4283e+005    0.0000    0.0347    0.0000   -0.0000    0.0024

  Bottom:  panel  nNode   nLam     xc_St    xc_End         b         t         E_eff         G_eff      nu_eff     density  buckleCrit
            (-)    (-)    (-)       (-)       (-)       (m)       (m)          (Pa)          (Pa)         (-)    (kg/m^3)         (-)
              1     31      3    0.0000    1.0000    8.6795    0.1700   2.8000e+010   7.0000e+009      0.4000   1850.0000      0.0008

            panel:  1     
           lam_num    nPlies        tPly      fibAng     matID  matName
               (-)       (-)         (m)       (deg)       (-)  (-)
                 1         1    0.005000      0.0000         2  (blade-shell)
                 2         1    0.160000      0.0000         1  (blade-root)
                 3         1    0.005000      0.0000         2  (blade-shell)

               lamina:  1     
              matName:  (blade-shell)
                     s           e11           e22           e12           s11           s22           s12   s11_fcT   s11_fcC   s22_fcT   s22_fcC   s12_fcS
                   (m)         (m/m)         (m/m)         (rad)          (Pa)          (Pa)          (Pa)       (-)       (-)       (-)       (-)       (-)
                0.0000   3.1499e-004  -1.2600e-004   1.5607e-005   8.8199e+006  -1.1642e-009   1.0925e+005    0.0612   -0.0000    0.0000    0.0000    0.0018
                0.2838   3.0876e-004  -1.2350e-004   2.8167e-005   8.6453e+006  -6.9849e-010   1.9717e+005    0.0600   -0.0000    0.0000    0.0000    0.0033
                0.5802   2.9873e-004  -1.1949e-004   4.0940e-005   8.3645e+006  -4.6566e-010   2.8658e+005    0.0581   -0.0000    0.0000    0.0000    0.0048
                0.8682   2.8553e-004  -1.1421e-004   5.2873e-005   7.9947e+006  -6.9849e-010   3.7011e+005    0.0555   -0.0000    0.0000    0.0000    0.0062
                1.1582   2.6920e-004  -1.0768e-004   6.4281e-005   7.5375e+006  -4.6566e-010   4.4997e+005    0.0523   -0.0000    0.0000    0.0000    0.0075
                1.4488   2.4988e-004  -9.9952e-005   7.4982e-005   6.9967e+006  -6.9849e-010   5.2487e+005    0.0486   -0.0000    0.0000    0.0000    0.0087
                1.7374   2.2784e-004  -9.1135e-005   8.4759e-005   6.3794e+006  -4.6566e-010   5.9331e+005    0.0443   -0.0000    0.0000    0.0000    0.0099
                2.0261   2.0336e-004  -8.1344e-005   9.3588e-005   5.6941e+006  -6.9849e-010   6.5512e+005    0.0395   -0.0000    0.0000    0.0000    0.0109
                2.3165   1.7659e-004  -7.0635e-005   1.0141e-004   4.9444e+006  -4.6566e-010   7.0989e+005    0.0343   -0.0000    0.0000    0.0000    0.0118
                2.6048   1.4788e-004  -5.9154e-005   1.0805e-004   4.1408e+006  -2.3283e-010   7.5633e+005    0.0288   -0.0000    0.0000    0.0000    0.0126
                2.8942   1.1763e-004  -4.7051e-005   1.1350e-004   3.2936e+006  -1.1642e-010   7.9448e+005    0.0229   -0.0000    0.0000    0.0000    0.0132
                3.1836   8.5982e-005  -3.4393e-005   1.1768e-004   2.4075e+006  -2.3283e-010   8.2373e+005    0.0167   -0.0000    0.0000    0.0000    0.0137
                3.4722   5.3458e-005  -2.1383e-005   1.2053e-004   1.4968e+006  -1.1642e-010   8.4371e+005    0.0104   -0.0000    0.0000    0.0000    0.0141
                3.7617   2.0372e-005  -8.1489e-006   1.2205e-004   5.7043e+005  -5.8208e-011   8.5432e+005    0.0040   -0.0000    0.0000    0.0000    0.0142
                4.0506  -1.3030e-005   5.2120e-006   1.2220e-004  -3.6484e+005   4.3656e-011   8.5537e+005    0.0000    0.0017    0.0000   -0.0000    0.0143
                4.3397  -4.6191e-005   1.8476e-005   1.2098e-004  -1.2933e+006   1.1642e-010   8.4687e+005    0.0000    0.0061    0.0000   -0.0000    0.0141
                4.6289  -7.8879e-005   3.1552e-005   1.1841e-004  -2.2086e+006   1.7462e-010   8.2890e+005    0.0000    0.0104    0.0000   -0.0000    0.0138
                4.9178  -1.1076e-004   4.4304e-005   1.1453e-004  -3.1013e+006   2.3283e-010   8.0170e+005    0.0000    0.0146    0.0000   -0.0000    0.0134
                5.2073  -1.4132e-004   5.6530e-005   1.0935e-004  -3.9571e+006   3.4925e-010   7.6546e+005    0.0000    0.0186    0.0000   -0.0000    0.0128
                5.4959  -1.7043e-004   6.8171e-005   1.0297e-004  -4.7720e+006   3.4925e-010   7.2079e+005    0.0000    0.0224    0.0000   -0.0000    0.0120
                5.7853  -1.9765e-004   7.9059e-005   9.5414e-005  -5.5341e+006   4.6566e-010   6.6790e+005    0.0000    0.0260    0.0000   -0.0000    0.0111
                6.0747  -2.2265e-004   8.9059e-005   8.6787e-005  -6.2341e+006   2.3283e-010   6.0751e+005    0.0000    0.0293    0.0000   -0.0000    0.0101
                6.3630  -2.4529e-004   9.8116e-005   7.7217e-005  -6.8681e+006   2.3283e-010   5.4052e+005    0.0000    0.0322    0.0000   -0.0000    0.0090
                6.6534  -2.6518e-004   1.0607e-004   6.6704e-005  -7.4249e+006   4.6566e-010   4.6693e+005    0.0000    0.0349    0.0000   -0.0000    0.0078
                6.9421  -2.8218e-004   1.1287e-004   5.5495e-005  -7.9009e+006   6.9849e-010   3.8847e+005    0.0000    0.0371    0.0000   -0.0000    0.0065
                7.2307  -2.9612e-004   1.1845e-004   4.3660e-005  -8.2913e+006   4.6566e-010   3.0562e+005    0.0000    0.0389    0.0000   -0.0000    0.0051
                7.5213  -3.0677e-004   1.2271e-004   3.1230e-005  -8.5894e+006   9.3132e-010   2.1861e+005    0.0000    0.0403    0.0000   -0.0000    0.0036
                7.8113  -3.1406e-004   1.2562e-004   1.8461e-005  -8.7936e+006   9.3132e-010   1.2923e+005    0.0000    0.0413    0.0000   -0.0000    0.0022
                8.0993  -3.1795e-004   1.2718e-004   5.5524e-006  -8.9026e+006   2.3283e-010   3.8867e+004    0.0000    0.0418    0.0000   -0.0000    0.0006
                8.3957  -3.1823e-004   1.2729e-004   7.8242e-006  -8.9103e+006   6.9849e-010   5.4770e+004    0.0000    0.0418    0.0000   -0.0000    0.0009
                8.6795  -3.1539e-004   1.2616e-004   2.0575e-005  -8.8310e+006   4.6566e-010   1.4402e+005    0.0000    0.0415    0.0000   -0.0000    0.0024

               lamina:  2     
              matName:  (blade-root)
                     s           e11           e22           e12           s11           s22           s12   s11_fcT   s11_fcC   s22_fcT   s22_fcC   s12_fcS
                   (m)         (m/m)         (m/m)         (rad)          (Pa)          (Pa)          (Pa)       (-)       (-)       (-)       (-)       (-)
                0.0000   3.1344e-004  -1.2538e-004   1.5607e-005   8.7764e+006  -1.1642e-009   1.0925e+005    0.0609   -0.0000    0.0000    0.0000    0.0018
                0.2838   3.0722e-004  -1.2289e-004   2.8167e-005   8.6023e+006  -6.9849e-010   1.9717e+005    0.0597   -0.0000    0.0000    0.0000    0.0033
                0.5802   2.9724e-004  -1.1890e-004   4.0940e-005   8.3228e+006  -4.6566e-010   2.8658e+005    0.0578   -0.0000    0.0000    0.0000    0.0048
                0.8682   2.8411e-004  -1.1364e-004   5.2873e-005   7.9550e+006  -6.9849e-010   3.7011e+005    0.0552   -0.0000    0.0000    0.0000    0.0062
                1.1582   2.6786e-004  -1.0714e-004   6.4281e-005   7.5000e+006  -6.9849e-010   4.4997e+005    0.0521   -0.0000    0.0000    0.0000    0.0075
                1.4488   2.4864e-004  -9.9455e-005   7.4982e-005   6.9618e+006  -2.3283e-010   5.2487e+005    0.0483   -0.0000    0.0000    0.0000    0.0087
                1.7374   2.2671e-004  -9.0682e-005   8.4759e-005   6.3478e+006  -4.6566e-010   5.9331e+005    0.0441   -0.0000    0.0000    0.0000    0.0099
                2.0261   2.0235e-004  -8.0939e-005   9.3588e-005   5.6658e+006  -6.9849e-010   6.5512e+005    0.0393   -0.0000    0.0000    0.0000    0.0109
                2.3165   1.7571e-004  -7.0283e-005   1.0141e-004   4.9198e+006  -5.8208e-010   7.0989e+005    0.0342   -0.0000    0.0000    0.0000    0.0118
                2.6048   1.4715e-004  -5.8860e-005   1.0805e-004   4.1202e+006  -3.4925e-010   7.5633e+005    0.0286   -0.0000    0.0000    0.0000    0.0126
                2.8942   1.1704e-004  -4.6816e-005   1.1350e-004   3.2771e+006  -2.3283e-010   7.9448e+005    0.0228   -0.0000    0.0000    0.0000    0.0132
                3.1836   8.5554e-005  -3.4222e-005   1.1768e-004   2.3955e+006  -2.3283e-010   8.2373e+005    0.0166   -0.0000    0.0000    0.0000    0.0137
                3.4722   5.3193e-005  -2.1277e-005   1.2053e-004   1.4894e+006  -1.1642e-010   8.4371e+005    0.0103   -0.0000    0.0000    0.0000    0.0141
                3.7617   2.0268e-005  -8.1074e-006   1.2205e-004   5.6752e+005  -4.3656e-011   8.5432e+005    0.0039   -0.0000    0.0000    0.0000    0.0142
                4.0506  -1.2963e-005   5.1853e-006   1.2220e-004  -3.6297e+005   4.3656e-011   8.5537e+005    0.0000    0.0017    0.0000   -0.0000    0.0143
                4.3397  -4.5961e-005   1.8384e-005   1.2098e-004  -1.2869e+006   1.1642e-010   8.4687e+005    0.0000    0.0060    0.0000   -0.0000    0.0141
                4.6289  -7.8489e-005   3.1396e-005   1.1841e-004  -2.1977e+006   1.7462e-010   8.2890e+005    0.0000    0.0103    0.0000   -0.0000    0.0138
                4.9178  -1.1021e-004   4.4083e-005   1.1453e-004  -3.0858e+006   2.3283e-010   8.0170e+005    0.0000    0.0145    0.0000   -0.0000    0.0134
                5.2073  -1.4062e-004   5.6249e-005   1.0935e-004  -3.9375e+006   3.4925e-010   7.6546e+005    0.0000    0.0185    0.0000   -0.0000    0.0128
                5.4959  -1.6958e-004   6.7833e-005   1.0297e-004  -4.7483e+006   3.4925e-010   7.2079e+005    0.0000    0.0223    0.0000   -0.0000    0.0120
                5.7853  -1.9666e-004   7.8665e-005   9.5414e-005  -5.5066e+006   4.6566e-010   6.6790e+005    0.0000    0.0259    0.0000   -0.0000    0.0111
                6.0747  -2.2154e-004   8.8616e-005   8.6787e-005  -6.2031e+006   4.6566e-010   6.0751e+005    0.0000    0.0291    0.0000   -0.0000    0.0101
                6.3630  -2.4407e-004   9.7628e-005   7.7217e-005  -6.8339e+006   2.3283e-010   5.4052e+005    0.0000    0.0321    0.0000   -0.0000    0.0090
                6.6534  -2.6386e-004   1.0554e-004   6.6704e-005  -7.3880e+006   4.6566e-010   4.6693e+005    0.0000    0.0347    0.0000   -0.0000    0.0078
                6.9421  -2.8077e-004   1.1231e-004   5.5495e-005  -7.8617e+006   4.6566e-010   3.8847e+005    0.0000    0.0369    0.0000   -0.0000    0.0065
                7.2307  -2.9465e-004   1.1786e-004   4.3660e-005  -8.2501e+006   4.6566e-010   3.0562e+005    0.0000    0.0387    0.0000   -0.0000    0.0051
                7.5213  -3.0524e-004   1.2210e-004   3.1230e-005  -8.5467e+006   6.9849e-010   2.1861e+005    0.0000    0.0401    0.0000   -0.0000    0.0036
                7.8113  -3.1250e-004   1.2500e-004   1.8461e-005  -8.7499e+006   9.3132e-010   1.2923e+005    0.0000    0.0411    0.0000   -0.0000    0.0022
                8.0993  -3.1637e-004   1.2655e-004   5.5524e-006  -8.8583e+006   4.6566e-010   3.8867e+004    0.0000    0.0416    0.0000   -0.0000    0.0006
                8.3957  -3.1664e-004   1.2666e-004   7.8242e-006  -8.8660e+006   9.3132e-010   5.4770e+004    0.0000    0.0416    0.0000   -0.0000    0.0009
                8.6795  -3.1382e-004   1.2553e-004   2.0575e-005  -8.7869e+006   4.6566e-010   1.4402e+005    0.0000    0.0413    0.0000   -0.0000    0.0024

               lamina:  3     
              matName:  (blade-shell)
                     s           e11           e22           e12           s11           s22           s12   s11_fcT   s11_fcC   s22_fcT   s22_fcC   s12_fcS
                   (m)         (m/m)         (m/m)         (rad)          (Pa)          (Pa)          (Pa)       (-)       (-)       (-)       (-)       (-)
                0.0000   2.6376e-004  -1.0550e-004   1.5607e-005   7.3853e+006  -1.1642e-009   1.0925e+005    0.0513   -0.0000    0.0000    0.0000    0.0018
                0.2838   2.5812e-004  -1.0325e-004   2.8167e-005   7.2274e+006  -9.3132e-010   1.9717e+005    0.0502   -0.0000    0.0000    0.0000    0.0033
                0.5802   2.4968e-004  -9.9871e-005   4.0940e-005   6.9910e+006  -4.6566e-010   2.8658e+005    0.0485   -0.0000    0.0000    0.0000    0.0048
                0.8682   2.3868e-004  -9.5472e-005   5.2873e-005   6.6831e+006  -9.3132e-010   3.7011e+005    0.0464   -0.0000    0.0000    0.0000    0.0062
                1.1582   2.2498e-004  -8.9992e-005   6.4281e-005   6.2995e+006  -6.9849e-010   4.4997e+005    0.0437   -0.0000    0.0000    0.0000    0.0075
                1.4488   2.0884e-004  -8.3536e-005   7.4982e-005   5.8475e+006  -4.6566e-010   5.2487e+005    0.0406   -0.0000    0.0000    0.0000    0.0087
                1.7374   1.9049e-004  -7.6197e-005   8.4759e-005   5.3338e+006  -4.6566e-010   5.9331e+005    0.0370   -0.0000    0.0000    0.0000    0.0099
                2.0261   1.6995e-004  -6.7979e-005   9.3588e-005   4.7585e+006  -6.9849e-010   6.5512e+005    0.0330   -0.0000    0.0000    0.0000    0.0109
                2.3165   1.4756e-004  -5.9025e-005   1.0141e-004   4.1317e+006  -5.8208e-010   7.0989e+005    0.0287   -0.0000    0.0000    0.0000    0.0118
                2.6048   1.2367e-004  -4.9466e-005   1.0805e-004   3.4626e+006  -4.6566e-010   7.5633e+005    0.0240   -0.0000    0.0000    0.0000    0.0126
                2.8942   9.8241e-005  -3.9296e-005   1.1350e-004   2.7507e+006  -2.3283e-010   7.9448e+005    0.0191   -0.0000    0.0000    0.0000    0.0132
                3.1836   7.1886e-005  -2.8754e-005   1.1768e-004   2.0128e+006  -2.3283e-010   8.2373e+005    0.0140   -0.0000    0.0000    0.0000    0.0137
                3.4722   4.4731e-005  -1.7892e-005   1.2053e-004   1.2525e+006  -1.1642e-010   8.4371e+005    0.0087   -0.0000    0.0000    0.0000    0.0141
                3.7617   1.6942e-005  -6.7770e-006   1.2205e-004   4.7439e+005  -4.3656e-011   8.5432e+005    0.0033   -0.0000    0.0000    0.0000    0.0142
                4.0506  -1.0831e-005   4.3323e-006   1.2220e-004  -3.0326e+005   4.3656e-011   8.5537e+005    0.0000    0.0014    0.0000   -0.0000    0.0143
                4.3397  -3.8617e-005   1.5447e-005   1.2098e-004  -1.0813e+006   1.4552e-010   8.4687e+005    0.0000    0.0051    0.0000   -0.0000    0.0141
                4.6289  -6.6013e-005   2.6405e-005   1.1841e-004  -1.8484e+006   1.7462e-010   8.2890e+005    0.0000    0.0087    0.0000   -0.0000    0.0138
                4.9178  -9.2520e-005   3.7008e-005   1.1453e-004  -2.5906e+006   2.3283e-010   8.0170e+005    0.0000    0.0122    0.0000   -0.0000    0.0134
                5.2073  -1.1819e-004   4.7275e-005   1.0935e-004  -3.3093e+006   3.4925e-010   7.6546e+005    0.0000    0.0155    0.0000   -0.0000    0.0128
                5.4959  -1.4249e-004   5.6997e-005   1.0297e-004  -3.9898e+006   3.4925e-010   7.2079e+005    0.0000    0.0187    0.0000   -0.0000    0.0120
                5.7853  -1.6516e-004   6.6063e-005   9.5414e-005  -4.6244e+006   3.4925e-010   6.6790e+005    0.0000    0.0217    0.0000   -0.0000    0.0111
                6.0747  -1.8616e-004   7.4466e-005   8.6787e-005  -5.2126e+006   4.6566e-010   6.0751e+005    0.0000    0.0245    0.0000   -0.0000    0.0101
                6.3630  -2.0502e-004   8.2008e-005   7.7217e-005  -5.7405e+006   0.0000e+000   5.4052e+005    0.0000    0.0270    0.0000   -0.0000    0.0090
                6.6534  -2.2164e-004   8.8656e-005   6.6704e-005  -6.2059e+006   4.6566e-010   4.6693e+005    0.0000    0.0291    0.0000   -0.0000    0.0078
                6.9421  -2.3591e-004   9.4365e-005   5.5495e-005  -6.6055e+006   4.6566e-010   3.8847e+005    0.0000    0.0310    0.0000   -0.0000    0.0065
                7.2307  -2.4752e-004   9.9008e-005   4.3660e-005  -6.9306e+006   2.3283e-010   3.0562e+005    0.0000    0.0325    0.0000   -0.0000    0.0051
                7.5213  -2.5641e-004   1.0257e-004   3.1230e-005  -7.1796e+006   6.9849e-010   2.1861e+005    0.0000    0.0337    0.0000   -0.0000    0.0036
                7.8113  -2.6253e-004   1.0501e-004   1.8461e-005  -7.3509e+006   9.3132e-010   1.2923e+005    0.0000    0.0345    0.0000   -0.0000    0.0022
                8.0993  -2.6578e-004   1.0631e-004   5.5524e-006  -7.4418e+006   4.6566e-010   3.8867e+004    0.0000    0.0349    0.0000   -0.0000    0.0006
                8.3957  -2.6600e-004   1.0640e-004   7.8242e-006  -7.4480e+006   9.3132e-010   5.4770e+004    0.0000    0.0350    0.0000   -0.0000    0.0009
                8.6795  -2.6334e-004   1.0534e-004   2.0575e-005  -7.3736e+006   6.9849e-010   1.4402e+005    0.0000    0.0346    0.0000   -0.0000    0.0024

     Web:  panel  nNode   nLam     xc_St    xc_End         b         t         E_eff         G_eff      nu_eff     density  buckleCrit
            (-)    (-)    (-)       (-)       (-)       (m)       (m)          (Pa)          (Pa)         (-)    (kg/m^3)         (-)

================================================================================
sec        =  2      
zSec       =  0.3000  (m)
nPanelsTop =  1      
nPanelsBot =  1      
nWebs      =  0      

    Top:  panel  nNode   nLam     xc_St    xc_End         b         t         E_eff         G_eff      nu_eff     density  buckleCrit
            (-)    (-)    (-)       (-)       (-)       (m)       (m)          (Pa)          (Pa)         (-)    (kg/m^3)         (-)
              1     31      3    0.0000    1.0000    8.6793    0.1700   2.8000e+010   7.0000e+009      0.4000   1850.0000      0.0001

            panel:  1     
           lam_num    nPlies        tPly      fibAng     matID  matName
               (-)       (-)         (m)       (deg)       (-)  (-)
                 1         1    0.005000      0.0000         2  (blade-shell)
                 2         1    0.160000      0.0000         1  (blade-root)
                 3         1    0.005000      0.0000         2  (blade-shell)

               lamina:  1     
              matName:  (blade-shell)
                     s           e11           e22           e12           s11           s22           s12   s11_fcT   s11_fcC   s22_fcT   s22_fcC   s12_fcS
                   (m)         (m/m)         (m/m)         (rad)          (Pa)          (Pa)          (Pa)       (-)       (-)       (-)       (-)       (-)
                0.0000   3.1163e-004  -1.2465e-004   1.5382e-005   8.7258e+006  -6.9849e-010   1.0767e+005    0.0606   -0.0000    0.0000    0.0000    0.0018
                0.2864   3.1448e-004  -1.2579e-004   2.6772e-006   8.8055e+006  -9.3132e-010   1.8740e+004    0.0611   -0.0000    0.0000    0.0000    0.0003
                0.5663   3.1395e-004  -1.2558e-004   9.7831e-006   8.7905e+006  -2.3283e-010   6.8482e+004    0.0610   -0.0000    0.0000    0.0000    0.0011
                0.8749   3.1044e-004  -1.2417e-004   2.3439e-005   8.6922e+006  -2.3283e-010   1.6407e+005    0.0604   -0.0000    0.0000    0.0000    0.0027
                1.1565   3.0306e-004  -1.2123e-004   3.5678e-005   8.4858e+006   0.0000e+000   2.4975e+005    0.0589   -0.0000    0.0000   -0.0000    0.0042
                1.4487   2.9259e-004  -1.1703e-004   4.8014e-005   8.1924e+006  -2.3283e-010   3.3610e+005    0.0569   -0.0000    0.0000    0.0000    0.0056
                1.7372   2.7880e-004  -1.1152e-004   5.9692e-005   7.8064e+006  -4.6566e-010   4.1784e+005    0.0542   -0.0000    0.0000    0.0000    0.0070
                2.0260   2.6200e-004  -1.0480e-004   7.0758e-005   7.3359e+006  -4.6566e-010   4.9531e+005    0.0509   -0.0000    0.0000    0.0000    0.0083
                2.3164   2.4234e-004  -9.6936e-005   8.1135e-005   6.7855e+006  -6.9849e-010   5.6794e+005    0.0471   -0.0000    0.0000    0.0000    0.0095
                2.6047   2.1996e-004  -8.7983e-005   9.0579e-005   6.1588e+006  -4.6566e-010   6.3406e+005    0.0428   -0.0000    0.0000    0.0000    0.0106
                2.8941   1.9525e-004  -7.8099e-005   9.9094e-005   5.4669e+006  -4.6566e-010   6.9366e+005    0.0380   -0.0000    0.0000    0.0000    0.0116
                3.1835   1.6834e-004  -6.7337e-005   1.0655e-004   4.7136e+006  -4.6566e-010   7.4585e+005    0.0327   -0.0000    0.0000    0.0000    0.0124
                3.4721   1.3958e-004  -5.5830e-005   1.1285e-004   3.9081e+006  -4.6566e-010   7.8992e+005    0.0271   -0.0000    0.0000    0.0000    0.0132
                3.7616   1.0936e-004  -4.3746e-005   1.1795e-004   3.0622e+006  -3.4925e-010   8.2567e+005    0.0213   -0.0000    0.0000    0.0000    0.0138
                4.0505   7.7851e-005  -3.1141e-005   1.2178e-004   2.1798e+006  -2.3283e-010   8.5249e+005    0.0151   -0.0000    0.0000    0.0000    0.0142
                4.3396   4.5540e-005  -1.8216e-005   1.2431e-004   1.2751e+006  -5.8208e-011   8.7019e+005    0.0089   -0.0000    0.0000    0.0000    0.0145
                4.6288   1.2763e-005  -5.1051e-006   1.2551e-004   3.5736e+005  -1.4552e-011   8.7855e+005    0.0025   -0.0000    0.0000    0.0000    0.0146
                4.9177  -2.0254e-005   8.1015e-006   1.2535e-004  -5.6710e+005   5.8208e-011   8.7747e+005    0.0000    0.0027    0.0000   -0.0000    0.0146
                5.2072  -5.2957e-005   2.1183e-005   1.2385e-004  -1.4828e+006   5.8208e-011   8.6696e+005    0.0000    0.0070    0.0000   -0.0000    0.0144
                5.4958  -8.5105e-005   3.4042e-005   1.2103e-004  -2.3829e+006   1.7462e-010   8.4719e+005    0.0000    0.0112    0.0000   -0.0000    0.0141
                5.7852  -1.1639e-004   4.6554e-005   1.1689e-004  -3.2588e+006   1.1642e-010   8.1826e+005    0.0000    0.0153    0.0000   -0.0000    0.0136
                6.0746  -1.4629e-004   5.8517e-005   1.1151e-004  -4.0962e+006   2.3283e-010   7.8055e+005    0.0000    0.0192    0.0000   -0.0000    0.0130
                6.3629  -1.7466e-004   6.9865e-005   1.0495e-004  -4.8906e+006   4.6566e-010   7.3464e+005    0.0000    0.0230    0.0000   -0.0000    0.0122
                6.6533  -2.0113e-004   8.0452e-005   9.7217e-005  -5.6317e+006   4.6566e-010   6.8052e+005    0.0000    0.0264    0.0000   -0.0000    0.0113
                6.9421  -2.2533e-004   9.0130e-005   8.8489e-005  -6.3091e+006   6.9849e-010   6.1943e+005    0.0000    0.0296    0.0000   -0.0000    0.0103
                7.2305  -2.4712e-004   9.8850e-005   7.8832e-005  -6.9195e+006   6.9849e-010   5.5183e+005    0.0000    0.0325    0.0000   -0.0000    0.0092
                7.5228  -2.6618e-004   1.0647e-004   6.8201e-005  -7.4530e+006   4.6566e-010   4.7741e+005    0.0000    0.0350    0.0000   -0.0000    0.0080
                7.8043  -2.8229e-004   1.1292e-004   5.7258e-005  -7.9042e+006   6.9849e-010   4.0081e+005    0.0000    0.0371    0.0000   -0.0000    0.0067
                8.1130  -2.9562e-004   1.1825e-004   4.4619e-005  -8.2774e+006   4.6566e-010   3.1233e+005    0.0000    0.0389    0.0000   -0.0000    0.0052
                8.3928  -3.0525e-004   1.2210e-004   3.2703e-005  -8.5471e+006   4.6566e-010   2.2892e+005    0.0000    0.0401    0.0000   -0.0000    0.0038
                8.6793  -3.1148e-004   1.2459e-004   2.0179e-005  -8.7213e+006   6.9849e-010   1.4125e+005    0.0000    0.0409    0.0000   -0.0000    0.0024

               lamina:  2     
              matName:  (blade-root)
                     s           e11           e22           e12           s11           s22           s12   s11_fcT   s11_fcC   s22_fcT   s22_fcC   s12_fcS
                   (m)         (m/m)         (m/m)         (rad)          (Pa)          (Pa)          (Pa)       (-)       (-)       (-)       (-)       (-)
                0.0000   3.1008e-004  -1.2403e-004   1.5382e-005   8.6821e+006  -6.9849e-010   1.0767e+005    0.0603   -0.0000    0.0000    0.0000    0.0018
                0.2864   3.1292e-004  -1.2517e-004   2.6772e-006   8.7617e+006  -9.3132e-010   1.8740e+004    0.0608   -0.0000    0.0000    0.0000    0.0003
                0.5663   3.1238e-004  -1.2495e-004   9.7831e-006   8.7468e+006  -4.6566e-010   6.8482e+004    0.0607   -0.0000    0.0000    0.0000    0.0011
                0.8749   3.0889e-004  -1.2356e-004   2.3439e-005   8.6489e+006  -4.6566e-010   1.6407e+005    0.0601   -0.0000    0.0000    0.0000    0.0027
                1.1565   3.0156e-004  -1.2062e-004   3.5678e-005   8.4436e+006  -4.6566e-010   2.4975e+005    0.0586   -0.0000    0.0000    0.0000    0.0042
                1.4487   2.9113e-004  -1.1645e-004   4.8014e-005   8.1517e+006  -6.9849e-010   3.3610e+005    0.0566   -0.0000    0.0000    0.0000    0.0056
                1.7372   2.7741e-004  -1.1097e-004   5.9692e-005   7.7676e+006  -4.6566e-010   4.1784e+005    0.0539   -0.0000    0.0000    0.0000    0.0070
                2.0260   2.6069e-004  -1.0428e-004   7.0758e-005   7.2994e+006  -6.9849e-010   4.9531e+005    0.0507   -0.0000    0.0000    0.0000    0.0083
                2.3164   2.4113e-004  -9.6453e-005   8.1135e-005   6.7517e+006  -6.9849e-010   5.6794e+005    0.0469   -0.0000    0.0000    0.0000    0.0095
                2.6047   2.1887e-004  -8.7546e-005   9.0579e-005   6.1282e+006  -4.6566e-010   6.3406e+005    0.0426   -0.0000    0.0000    0.0000    0.0106
                2.8941   1.9427e-004  -7.7710e-005   9.9094e-005   5.4397e+006  -4.6566e-010   6.9366e+005    0.0378   -0.0000    0.0000    0.0000    0.0116
                3.1835   1.6751e-004  -6.7003e-005   1.0655e-004   4.6902e+006  -4.6566e-010   7.4585e+005    0.0326   -0.0000    0.0000    0.0000    0.0124
                3.4721   1.3888e-004  -5.5553e-005   1.1285e-004   3.8887e+006  -4.6566e-010   7.8992e+005    0.0270   -0.0000    0.0000    0.0000    0.0132
                3.7616   1.0882e-004  -4.3527e-005   1.1795e-004   3.0469e+006  -3.4925e-010   8.2567e+005    0.0212   -0.0000    0.0000    0.0000    0.0138
                4.0505   7.7466e-005  -3.0986e-005   1.2178e-004   2.1691e+006  -2.3283e-010   8.5249e+005    0.0151   -0.0000    0.0000    0.0000    0.0142
                4.3396   4.5314e-005  -1.8125e-005   1.2431e-004   1.2688e+006  -5.8208e-011   8.7019e+005    0.0088   -0.0000    0.0000    0.0000    0.0145
                4.6288   1.2697e-005  -5.0788e-006   1.2551e-004   3.5551e+005  -1.4552e-011   8.7855e+005    0.0025   -0.0000    0.0000    0.0000    0.0146
                4.9177  -2.0151e-005   8.0604e-006   1.2535e-004  -5.6423e+005   4.3656e-011   8.7747e+005    0.0000    0.0026    0.0000   -0.0000    0.0146
                5.2072  -5.2695e-005   2.1078e-005   1.2385e-004  -1.4755e+006   1.1642e-010   8.6696e+005    0.0000    0.0069    0.0000   -0.0000    0.0144
                5.4958  -8.4683e-005   3.3873e-005   1.2103e-004  -2.3711e+006   1.7462e-010   8.4719e+005    0.0000    0.0111    0.0000   -0.0000    0.0141
                5.7852  -1.1581e-004   4.6322e-005   1.1689e-004  -3.2425e+006   2.3283e-010   8.1826e+005    0.0000    0.0152    0.0000   -0.0000    0.0136
                6.0746  -1.4557e-004   5.8227e-005   1.1151e-004  -4.0759e+006   3.4925e-010   7.8055e+005    0.0000    0.0191    0.0000   -0.0000    0.0130
                6.3629  -1.7379e-004   6.9518e-005   1.0495e-004  -4.8662e+006   4.6566e-010   7.3464e+005    0.0000    0.0228    0.0000   -0.0000    0.0122
                6.6533  -2.0013e-004   8.0052e-005   9.7217e-005  -5.6036e+006   3.4925e-010   6.8052e+005    0.0000    0.0263    0.0000   -0.0000    0.0113
                6.9421  -2.2421e-004   8.9683e-005   8.8489e-005  -6.2778e+006   4.6566e-010   6.1943e+005    0.0000    0.0295    0.0000   -0.0000    0.0103
                7.2305  -2.4589e-004   9.8358e-005   7.8832e-005  -6.8850e+006   6.9849e-010   5.5183e+005    0.0000    0.0323    0.0000   -0.0000    0.0092
                7.5228  -2.6486e-004   1.0594e-004   6.8201e-005  -7.4161e+006   4.6566e-010   4.7741e+005    0.0000    0.0348    0.0000   -0.0000    0.0080
                7.8043  -2.8089e-004   1.1235e-004   5.7258e-005  -7.8648e+006   6.9849e-010   4.0081e+005    0.0000    0.0369    0.0000   -0.0000    0.0067
                8.1130  -2.9415e-004   1.1766e-004   4.4619e-005  -8.2362e+006   6.9849e-010   3.1233e+005    0.0000    0.0387    0.0000   -0.0000    0.0052
                8.3928  -3.0374e-004   1.2150e-004   3.2703e-005  -8.5047e+006   4.6566e-010   2.2892e+005    0.0000    0.0399    0.0000   -0.0000    0.0038
                8.6793  -3.0994e-004   1.2398e-004   2.0179e-005  -8.6783e+006   9.3132e-010   1.4125e+005    0.0000    0.0407    0.0000   -0.0000    0.0024

               lamina:  3     
              matName:  (blade-shell)
                     s           e11           e22           e12           s11           s22           s12   s11_fcT   s11_fcC   s22_fcT   s22_fcC   s12_fcS
                   (m)         (m/m)         (m/m)         (rad)          (Pa)          (Pa)          (Pa)       (-)       (-)       (-)       (-)       (-)
                0.0000   2.6019e-004  -1.0407e-004   1.5382e-005   7.2852e+006  -4.6566e-010   1.0767e+005    0.0506   -0.0000    0.0000    0.0000    0.0018
                0.2864   2.6285e-004  -1.0514e-004   2.6772e-006   7.3598e+006  -9.3132e-010   1.8740e+004    0.0511   -0.0000    0.0000    0.0000    0.0003
                0.5663   2.6238e-004  -1.0495e-004   9.7831e-006   7.3465e+006  -4.6566e-010   6.8482e+004    0.0510   -0.0000    0.0000    0.0000    0.0011
                0.8749   2.5945e-004  -1.0378e-004   2.3439e-005   7.2645e+006  -4.6566e-010   1.6407e+005    0.0504   -0.0000    0.0000    0.0000    0.0027
                1.1565   2.5336e-004  -1.0134e-004   3.5678e-005   7.0940e+006  -4.6566e-010   2.4975e+005    0.0493   -0.0000    0.0000    0.0000    0.0042
                1.4487   2.4453e-004  -9.7812e-005   4.8014e-005   6.8468e+006  -6.9849e-010   3.3610e+005    0.0475   -0.0000    0.0000    0.0000    0.0056
                1.7372   2.3307e-004  -9.3227e-005   5.9692e-005   6.5259e+006  -4.6566e-010   4.1784e+005    0.0453   -0.0000    0.0000    0.0000    0.0070
                2.0260   2.1896e-004  -8.7585e-005   7.0758e-005   6.1309e+006  -6.9849e-010   4.9531e+005    0.0426   -0.0000    0.0000    0.0000    0.0083
                2.3164   2.0254e-004  -8.1014e-005   8.1135e-005   5.6710e+006  -6.9849e-010   5.6794e+005    0.0394   -0.0000    0.0000    0.0000    0.0095
                2.6047   1.8390e-004  -7.3559e-005   9.0579e-005   5.1491e+006  -6.9849e-010   6.3406e+005    0.0358   -0.0000    0.0000    0.0000    0.0106
                2.8941   1.6313e-004  -6.5253e-005   9.9094e-005   4.5677e+006  -3.4925e-010   6.9366e+005    0.0317   -0.0000    0.0000    0.0000    0.0116
                3.1835   1.4073e-004  -5.6292e-005   1.0655e-004   3.9405e+006  -4.6566e-010   7.4585e+005    0.0274   -0.0000    0.0000    0.0000    0.0124
                3.4721   1.1671e-004  -4.6683e-005   1.1285e-004   3.2678e+006  -3.4925e-010   7.8992e+005    0.0227   -0.0000    0.0000    0.0000    0.0132
                3.7616   9.1335e-005  -3.6534e-005   1.1795e-004   2.5574e+006  -2.3283e-010   8.2567e+005    0.0178   -0.0000    0.0000    0.0000    0.0138
                4.0505   6.5134e-005  -2.6054e-005   1.2178e-004   1.8238e+006  -2.3283e-010   8.5249e+005    0.0127   -0.0000    0.0000    0.0000    0.0142
                4.3396   3.8055e-005  -1.5222e-005   1.2431e-004   1.0655e+006  -5.8208e-011   8.7019e+005    0.0074   -0.0000    0.0000    0.0000    0.0145
                4.6288   1.0589e-005  -4.2356e-006   1.2551e-004   2.9649e+005  -1.4552e-011   8.7855e+005    0.0021   -0.0000    0.0000    0.0000    0.0146
                4.9177  -1.6863e-005   6.7454e-006   1.2535e-004  -4.7217e+005   4.3656e-011   8.7747e+005    0.0000    0.0022    0.0000   -0.0000    0.0146
                5.2072  -4.4331e-005   1.7733e-005   1.2385e-004  -1.2413e+006   1.1642e-010   8.6696e+005    0.0000    0.0058    0.0000   -0.0000    0.0144
                5.4958  -7.1172e-005   2.8469e-005   1.2103e-004  -1.9928e+006   1.7462e-010   8.4719e+005    0.0000    0.0094    0.0000   -0.0000    0.0141
                5.7852  -9.7223e-005   3.8889e-005   1.1689e-004  -2.7222e+006   2.3283e-010   8.1826e+005    0.0000    0.0128    0.0000   -0.0000    0.0136
                6.0746  -1.2235e-004   4.8942e-005   1.1151e-004  -3.4259e+006   3.4925e-010   7.8055e+005    0.0000    0.0161    0.0000   -0.0000    0.0130
                6.3629  -1.4597e-004   5.8390e-005   1.0495e-004  -4.0873e+006   4.6566e-010   7.3464e+005    0.0000    0.0192    0.0000   -0.0000    0.0122
                6.6533  -1.6810e-004   6.7239e-005   9.7217e-005  -4.7068e+006   4.6566e-010   6.8052e+005    0.0000    0.0221    0.0000   -0.0000    0.0113
                6.9421  -1.8841e-004   7.5363e-005   8.8489e-005  -5.2754e+006   4.6566e-010   6.1943e+005    0.0000    0.0248    0.0000   -0.0000    0.0103
                7.2305  -2.0653e-004   8.2610e-005   7.8832e-005  -5.7827e+006   6.9849e-010   5.5183e+005    0.0000    0.0271    0.0000   -0.0000    0.0092
                7.5228  -2.2260e-004   8.9041e-005   6.8201e-005  -6.2329e+006   4.6566e-010   4.7741e+005    0.0000    0.0293    0.0000   -0.0000    0.0080
                7.8043  -2.3584e-004   9.4337e-005   5.7258e-005  -6.6036e+006   6.9849e-010   4.0081e+005    0.0000    0.0310    0.0000   -0.0000    0.0067
                8.1130  -2.4711e-004   9.8845e-005   4.4619e-005  -6.9191e+006   6.9849e-010   3.1233e+005    0.0000    0.0325    0.0000   -0.0000    0.0052
                8.3928  -2.5524e-004   1.0209e-004   3.2703e-005  -7.1466e+006   4.6566e-010   2.2892e+005    0.0000    0.0336    0.0000   -0.0000    0.0038
                8.6793  -2.6083e-004   1.0433e-004   2.0179e-005  -7.3032e+006   9.3132e-010   1.4125e+005    0.0000    0.0343    0.0000   -0.0000    0.0024

  Bottom:  panel  nNode   nLam     xc_St    xc_End         b         t         E_eff         G_eff      nu_eff     density  buckleCrit
            (-)    (-)    (-)       (-)       (-)       (m)       (m)          (Pa)          (Pa)         (-)    (kg/m^3)         (-)
              1     31      3    0.0000    1.0000    8.6795    0.1700   2.8000e+010   7.0000e+009      0.4000   1850.0000      0.0008

            panel:  1     
           lam_num    nPlies        tPly      fibAng     matID  matName
               (-)       (-)         (m)       (deg)       (-)  (-)
                 1         1    0.005000      0.0000         2  (blade-shell)
                 2         1    0.160000      0.0000         1  (blade-root)
                 3         1    0.005000      0.0000         2  (blade-shell)

               lamina:  1     
              matName:  (blade-shell)
                     s           e11           e22           e12           s11           s22           s12   s11_fcT   s11_fcC   s22_fcT   s22_fcC   s12_fcS
                   (m)         (m/m)         (m/m)         (rad)          (Pa)          (Pa)          (Pa)       (-)       (-)       (-)       (-)       (-)
                0.0000   3.1136e-004  -1.2454e-004   1.5382e-005   8.7180e+006  -9.3132e-010   1.0767e+005    0.0605   -0.0000    0.0000    0.0000    0.0018
                0.2838   3.0519e-004  -1.2208e-004   2.7785e-005   8.5454e+006  -9.3132e-010   1.9450e+005    0.0593   -0.0000    0.0000    0.0000    0.0032
                0.5802   2.9528e-004  -1.1811e-004   4.0399e-005   8.2679e+006  -6.9849e-010   2.8279e+005    0.0574   -0.0000    0.0000    0.0000    0.0047
                0.8682   2.8223e-004  -1.1289e-004   5.2183e-005   7.9024e+006  -4.6566e-010   3.6528e+005    0.0549   -0.0000    0.0000    0.0000    0.0061
                1.1582   2.6609e-004  -1.0644e-004   6.3449e-005   7.4505e+006  -4.6566e-010   4.4415e+005    0.0517   -0.0000    0.0000    0.0000    0.0074
                1.4488   2.4699e-004  -9.8798e-005   7.4017e-005   6.9159e+006  -4.6566e-010   5.1812e+005    0.0480   -0.0000    0.0000    0.0000    0.0086
                1.7374   2.2521e-004  -9.0082e-005   8.3671e-005   6.3058e+006  -2.3283e-010   5.8570e+005    0.0438   -0.0000    0.0000    0.0000    0.0098
                2.0261   2.0101e-004  -8.0405e-005   9.2390e-005   5.6284e+006  -4.6566e-010   6.4673e+005    0.0391   -0.0000    0.0000    0.0000    0.0108
                2.3165   1.7455e-004  -6.9819e-005   1.0012e-004   4.8873e+006  -4.6566e-010   7.0082e+005    0.0339   -0.0000    0.0000    0.0000    0.0117
                2.6048   1.4618e-004  -5.8470e-005   1.0667e-004   4.0929e+006  -3.4925e-010   7.4669e+005    0.0284   -0.0000    0.0000    0.0000    0.0124
                2.8942   1.1627e-004  -4.6508e-005   1.1205e-004   3.2555e+006  -2.3283e-010   7.8436e+005    0.0226   -0.0000    0.0000    0.0000    0.0131
                3.1836   8.4989e-005  -3.3995e-005   1.1618e-004   2.3797e+006  -5.8208e-011   8.1324e+005    0.0165   -0.0000    0.0000    0.0000    0.0136
                3.4722   5.2840e-005  -2.1136e-005   1.1900e-004   1.4795e+006  -5.8208e-011   8.3297e+005    0.0103   -0.0000    0.0000    0.0000    0.0139
                3.7617   2.0137e-005  -8.0548e-006   1.2049e-004   5.6384e+005  -5.8208e-011   8.4345e+005    0.0039   -0.0000    0.0000    0.0000    0.0141
                4.0506  -1.2879e-005   5.1518e-006   1.2064e-004  -3.6062e+005   1.4552e-011   8.4449e+005    0.0000    0.0017    0.0000   -0.0000    0.0141
                4.3397  -4.5657e-005   1.8263e-005   1.1944e-004  -1.2784e+006   5.8208e-011   8.3609e+005    0.0000    0.0060    0.0000   -0.0000    0.0139
                4.6289  -7.7968e-005   3.1187e-005   1.1691e-004  -2.1831e+006   1.7462e-010   8.1835e+005    0.0000    0.0102    0.0000   -0.0000    0.0136
                4.9178  -1.0948e-004   4.3792e-005   1.1307e-004  -3.0655e+006   2.3283e-010   7.9149e+005    0.0000    0.0144    0.0000   -0.0000    0.0132
                5.2073  -1.3969e-004   5.5877e-005   1.0796e-004  -3.9114e+006   3.4925e-010   7.5570e+005    0.0000    0.0184    0.0000   -0.0000    0.0126
                5.4959  -1.6846e-004   6.7384e-005   1.0166e-004  -4.7169e+006   4.6566e-010   7.1159e+005    0.0000    0.0221    0.0000   -0.0000    0.0119
                5.7853  -1.9536e-004   7.8146e-005   9.4193e-005  -5.4702e+006   4.6566e-010   6.5935e+005    0.0000    0.0257    0.0000   -0.0000    0.0110
                6.0747  -2.2007e-004   8.8030e-005   8.5673e-005  -6.1621e+006   4.6566e-010   5.9971e+005    0.0000    0.0289    0.0000   -0.0000    0.0100
                6.3630  -2.4246e-004   9.6983e-005   7.6223e-005  -6.7888e+006   6.9849e-010   5.3356e+005    0.0000    0.0319    0.0000   -0.0000    0.0089
                6.6534  -2.6211e-004   1.0485e-004   6.5841e-005  -7.3392e+006   6.9849e-010   4.6089e+005    0.0000    0.0345    0.0000   -0.0000    0.0077
                6.9421  -2.7892e-004   1.1157e-004   5.4772e-005  -7.8097e+006   9.3132e-010   3.8341e+005    0.0000    0.0367    0.0000   -0.0000    0.0064
                7.2307  -2.9270e-004   1.1708e-004   4.3084e-005  -8.1955e+006   6.9849e-010   3.0159e+005    0.0000    0.0385    0.0000   -0.0000    0.0050
                7.5213  -3.0322e-004   1.2129e-004   3.0809e-005  -8.4902e+006   6.9849e-010   2.1567e+005    0.0000    0.0399    0.0000   -0.0000    0.0036
                7.8113  -3.1043e-004   1.2417e-004   1.8200e-005  -8.6921e+006   2.3283e-010   1.2740e+005    0.0000    0.0408    0.0000   -0.0000    0.0021
                8.0993  -3.1428e-004   1.2571e-004   5.4518e-006  -8.7998e+006   4.6566e-010   3.8162e+004    0.0000    0.0413    0.0000   -0.0000    0.0006
                8.3957  -3.1455e-004   1.2582e-004   7.7581e-006  -8.8074e+006   4.6566e-010   5.4306e+004    0.0000    0.0413    0.0000   -0.0000    0.0009
                8.6795  -3.1175e-004   1.2470e-004   2.0350e-005  -8.7291e+006   4.6566e-010   1.4245e+005    0.0000    0.0410    0.0000   -0.0000    0.0024

               lamina:  2     
              matName:  (blade-root)
                     s           e11           e22           e12           s11           s22           s12   s11_fcT   s11_fcC   s22_fcT   s22_fcC   s12_fcS
                   (m)         (m/m)         (m/m)         (rad)          (Pa)          (Pa)          (Pa)       (-)       (-)       (-)       (-)       (-)
                0.0000   3.0982e-004  -1.2393e-004   1.5382e-005   8.6750e+006  -6.9849e-010   1.0767e+005    0.0602   -0.0000    0.0000    0.0000    0.0018
                0.2838   3.0368e-004  -1.2147e-004   2.7785e-005   8.5029e+006  -9.3132e-010   1.9450e+005    0.0590   -0.0000    0.0000    0.0000    0.0032
                0.5802   2.9381e-004  -1.1752e-004   4.0399e-005   8.2267e+006  -6.9849e-010   2.8279e+005    0.0571   -0.0000    0.0000    0.0000    0.0047
                0.8682   2.8082e-004  -1.1233e-004   5.2183e-005   7.8631e+006  -6.9849e-010   3.6528e+005    0.0546   -0.0000    0.0000    0.0000    0.0061
                1.1582   2.6476e-004  -1.0591e-004   6.3449e-005   7.4134e+006  -4.6566e-010   4.4415e+005    0.0515   -0.0000    0.0000    0.0000    0.0074
                1.4488   2.4577e-004  -9.8306e-005   7.4017e-005   6.8814e+006  -6.9849e-010   5.1812e+005    0.0478   -0.0000    0.0000    0.0000    0.0086
                1.7374   2.2409e-004  -8.9635e-005   8.3671e-005   6.2744e+006  -2.3283e-010   5.8570e+005    0.0436   -0.0000    0.0000    0.0000    0.0098
                2.0261   2.0001e-004  -8.0005e-005   9.2390e-005   5.6003e+006  -4.6566e-010   6.4673e+005    0.0389   -0.0000    0.0000    0.0000    0.0108
                2.3165   1.7368e-004  -6.9471e-005   1.0012e-004   4.8630e+006  -4.6566e-010   7.0082e+005    0.0338   -0.0000    0.0000    0.0000    0.0117
                2.6048   1.4545e-004  -5.8180e-005   1.0667e-004   4.0726e+006  -3.4925e-010   7.4669e+005    0.0283   -0.0000    0.0000    0.0000    0.0124
                2.8942   1.1569e-004  -4.6275e-005   1.1205e-004   3.2393e+006  -2.3283e-010   7.8436e+005    0.0225   -0.0000    0.0000    0.0000    0.0131
                3.1836   8.4566e-005  -3.3827e-005   1.1618e-004   2.3679e+006  -5.8208e-011   8.1324e+005    0.0164   -0.0000    0.0000    0.0000    0.0136
                3.4722   5.2579e-005  -2.1032e-005   1.1900e-004   1.4722e+006  -1.1642e-010   8.3297e+005    0.0102   -0.0000    0.0000    0.0000    0.0139
                3.7617   2.0034e-005  -8.0138e-006   1.2049e-004   5.6096e+005  -5.8208e-011   8.4345e+005    0.0039   -0.0000    0.0000    0.0000    0.0141
                4.0506  -1.2814e-005   5.1254e-006   1.2064e-004  -3.5878e+005   1.4552e-011   8.4449e+005    0.0000    0.0017    0.0000   -0.0000    0.0141
                4.3397  -4.5430e-005   1.8172e-005   1.1944e-004  -1.2720e+006   8.7311e-011   8.3609e+005    0.0000    0.0060    0.0000   -0.0000    0.0139
                4.6289  -7.7583e-005   3.1033e-005   1.1691e-004  -2.1723e+006   2.3283e-010   8.1835e+005    0.0000    0.0102    0.0000   -0.0000    0.0136
                4.9178  -1.0893e-004   4.3574e-005   1.1307e-004  -3.0502e+006   2.3283e-010   7.9149e+005    0.0000    0.0143    0.0000   -0.0000    0.0132
                5.2073  -1.3900e-004   5.5600e-005   1.0796e-004  -3.8920e+006   3.4925e-010   7.5570e+005    0.0000    0.0183    0.0000   -0.0000    0.0126
                5.4959  -1.6762e-004   6.7049e-005   1.0166e-004  -4.6934e+006   4.6566e-010   7.1159e+005    0.0000    0.0220    0.0000   -0.0000    0.0119
                5.7853  -1.9439e-004   7.7757e-005   9.4193e-005  -5.4430e+006   4.6566e-010   6.5935e+005    0.0000    0.0256    0.0000   -0.0000    0.0110
                6.0747  -2.1898e-004   8.7593e-005   8.5673e-005  -6.1315e+006   4.6566e-010   5.9971e+005    0.0000    0.0288    0.0000   -0.0000    0.0100
                6.3630  -2.4125e-004   9.6500e-005   7.6223e-005  -6.7550e+006   6.9849e-010   5.3356e+005    0.0000    0.0317    0.0000   -0.0000    0.0089
                6.6534  -2.6081e-004   1.0432e-004   6.5841e-005  -7.3026e+006   6.9849e-010   4.6089e+005    0.0000    0.0343    0.0000   -0.0000    0.0077
                6.9421  -2.7753e-004   1.1101e-004   5.4772e-005  -7.7709e+006   1.1642e-009   3.8341e+005    0.0000    0.0365    0.0000   -0.0000    0.0064
                7.2307  -2.9124e-004   1.1650e-004   4.3084e-005  -8.1548e+006   6.9849e-010   3.0159e+005    0.0000    0.0383    0.0000   -0.0000    0.0050
                7.5213  -3.0171e-004   1.2069e-004   3.0809e-005  -8.4480e+006   6.9849e-010   2.1567e+005    0.0000    0.0397    0.0000   -0.0000    0.0036
                7.8113  -3.0889e-004   1.2356e-004   1.8200e-005  -8.6489e+006   2.3283e-010   1.2740e+005    0.0000    0.0406    0.0000   -0.0000    0.0021
                8.0993  -3.1271e-004   1.2509e-004   5.4518e-006  -8.7560e+006   6.9849e-010   3.8162e+004    0.0000    0.0411    0.0000   -0.0000    0.0006
                8.3957  -3.1299e-004   1.2519e-004   7.7581e-006  -8.7636e+006   6.9849e-010   5.4306e+004    0.0000    0.0411    0.0000   -0.0000    0.0009
                8.6795  -3.1019e-004   1.2408e-004   2.0350e-005  -8.6854e+006   4.6566e-010   1.4245e+005    0.0000    0.0408    0.0000   -0.0000    0.0024

               lamina:  3     
              matName:  (blade-shell)
                     s           e11           e22           e12           s11           s22           s12   s11_fcT   s11_fcC   s22_fcT   s22_fcC   s12_fcS
                   (m)         (m/m)         (m/m)         (rad)          (Pa)          (Pa)          (Pa)       (-)       (-)       (-)       (-)       (-)
                0.0000   2.6072e-004  -1.0429e-004   1.5382e-005   7.3000e+006  -6.9849e-010   1.0767e+005    0.0507   -0.0000    0.0000    0.0000    0.0018
                0.2838   2.5514e-004  -1.0206e-004   2.7785e-005   7.1439e+006  -6.9849e-010   1.9450e+005    0.0496   -0.0000    0.0000    0.0000    0.0032
                0.5802   2.4679e-004  -9.8718e-005   4.0399e-005   6.9103e+006  -6.9849e-010   2.8279e+005    0.0480   -0.0000    0.0000    0.0000    0.0047
                0.8682   2.3592e-004  -9.4370e-005   5.2183e-005   6.6059e+006  -6.9849e-010   3.6528e+005    0.0459   -0.0000    0.0000    0.0000    0.0061
                1.1582   2.2238e-004  -8.8953e-005   6.3449e-005   6.2267e+006  -4.6566e-010   4.4415e+005    0.0432   -0.0000    0.0000    0.0000    0.0074
                1.4488   2.0643e-004  -8.2571e-005   7.4017e-005   5.7800e+006  -6.9849e-010   5.1812e+005    0.0401   -0.0000    0.0000    0.0000    0.0086
                1.7374   1.8829e-004  -7.5317e-005   8.3671e-005   5.2722e+006  -4.6566e-010   5.8570e+005    0.0366   -0.0000    0.0000    0.0000    0.0098
                2.0261   1.6799e-004  -6.7194e-005   9.2390e-005   4.7036e+006  -3.4925e-010   6.4673e+005    0.0327   -0.0000    0.0000    0.0000    0.0108
                2.3165   1.4586e-004  -5.8343e-005   1.0012e-004   4.0840e+006  -4.6566e-010   7.0082e+005    0.0284   -0.0000    0.0000    0.0000    0.0117
                2.6048   1.2224e-004  -4.8895e-005   1.0667e-004   3.4227e+006  -3.4925e-010   7.4669e+005    0.0238   -0.0000    0.0000    0.0000    0.0124
                2.8942   9.7106e-005  -3.8843e-005   1.1205e-004   2.7190e+006  -2.3283e-010   7.8436e+005    0.0189   -0.0000    0.0000    0.0000    0.0131
                3.1836   7.1056e-005  -2.8422e-005   1.1618e-004   1.9896e+006  -5.8208e-011   8.1324e+005    0.0138   -0.0000    0.0000    0.0000    0.0136
                3.4722   4.4215e-005  -1.7686e-005   1.1900e-004   1.2380e+006  -1.1642e-010   8.3297e+005    0.0086   -0.0000    0.0000    0.0000    0.0139
                3.7617   1.6747e-005  -6.6987e-006   1.2049e-004   4.6891e+005  -2.9104e-011   8.4345e+005    0.0033   -0.0000    0.0000    0.0000    0.0141
                4.0506  -1.0706e-005   4.2822e-006   1.2064e-004  -2.9975e+005   1.4552e-011   8.4449e+005    0.0000    0.0014    0.0000   -0.0000    0.0141
                4.3397  -3.8171e-005   1.5269e-005   1.1944e-004  -1.0688e+006   8.7311e-011   8.3609e+005    0.0000    0.0050    0.0000   -0.0000    0.0139
                4.6289  -6.5251e-005   2.6100e-005   1.1691e-004  -1.8270e+006   2.3283e-010   8.1835e+005    0.0000    0.0086    0.0000   -0.0000    0.0136
                4.9178  -9.1452e-005   3.6581e-005   1.1307e-004  -2.5606e+006   2.3283e-010   7.9149e+005    0.0000    0.0120    0.0000   -0.0000    0.0132
                5.2073  -1.1682e-004   4.6729e-005   1.0796e-004  -3.2711e+006   2.3283e-010   7.5570e+005    0.0000    0.0154    0.0000   -0.0000    0.0126
                5.4959  -1.4085e-004   5.6339e-005   1.0166e-004  -3.9437e+006   4.6566e-010   7.1159e+005    0.0000    0.0185    0.0000   -0.0000    0.0119
                5.7853  -1.6325e-004   6.5300e-005   9.4193e-005  -4.5710e+006   3.4925e-010   6.5935e+005    0.0000    0.0215    0.0000   -0.0000    0.0110
                6.0747  -1.8401e-004   7.3606e-005   8.5673e-005  -5.1524e+006   4.6566e-010   5.9971e+005    0.0000    0.0242    0.0000   -0.0000    0.0100
                6.3630  -2.0265e-004   8.1061e-005   7.6223e-005  -5.6742e+006   6.9849e-010   5.3356e+005    0.0000    0.0266    0.0000   -0.0000    0.0089
                6.6534  -2.1908e-004   8.7632e-005   6.5841e-005  -6.1343e+006   6.9849e-010   4.6089e+005    0.0000    0.0288    0.0000   -0.0000    0.0077
                6.9421  -2.3319e-004   9.3275e-005   5.4772e-005  -6.5293e+006   1.1642e-009   3.8341e+005    0.0000    0.0307    0.0000   -0.0000    0.0064
                7.2307  -2.4466e-004   9.7864e-005   4.3084e-005  -6.8505e+006   6.9849e-010   3.0159e+005    0.0000    0.0322    0.0000   -0.0000    0.0050
                7.5213  -2.5345e-004   1.0138e-004   3.0809e-005  -7.0967e+006   6.9849e-010   2.1567e+005    0.0000    0.0333    0.0000   -0.0000    0.0036
                7.8113  -2.5950e-004   1.0380e-004   1.8200e-005  -7.2660e+006   2.3283e-010   1.2740e+005    0.0000    0.0341    0.0000   -0.0000    0.0021
                8.0993  -2.6271e-004   1.0508e-004   5.4518e-006  -7.3559e+006   6.9849e-010   3.8162e+004    0.0000    0.0345    0.0000   -0.0000    0.0006
                8.3957  -2.6293e-004   1.0517e-004   7.7581e-006  -7.3620e+006   9.3132e-010   5.4306e+004    0.0000    0.0346    0.0000   -0.0000    0.0009
                8.6795  -2.6030e-004   1.0412e-004   2.0350e-005  -7.2884e+006   2.3283e-010   1.4245e+005    0.0000    0.0342    0.0000   -0.0000    0.0024

     Web:  panel  nNode   nLam     xc_St    xc_End         b         t         E_eff         G_eff      nu_eff     density  buckleCrit
            (-)    (-)    (-)       (-)       (-)       (m)       (m)          (Pa)          (Pa)         (-)    (kg/m^3)         (-)

================================================================================
sec        =  3      
zSec       =  1.0000  (m)
nPanelsTop =  1      
nPanelsBot =  1      
nWebs      =  0      

    Top:  panel  nNode   nLam     xc_St    xc_End         b         t         E_eff         G_eff      nu_eff     density  buckleCrit
            (-)    (-)    (-)       (-)       (-)       (m)       (m)          (Pa)          (Pa)         (-)    (kg/m^3)         (-)
              1     31      3    0.0000    1.0000    8.6001    0.1700   2.8000e+010   7.0000e+009      0.4000   1850.0000      0.0001

            panel:  1     
           lam_num    nPlies        tPly      fibAng     matID  matName
               (-)       (-)         (m)       (deg)       (-)  (-)
                 1         1    0.005000      0.0000         2  (blade-shell)
                 2         1    0.160000      0.0000         1  (blade-root)
                 3         1    0.005000      0.0000         2  (blade-shell)

               lamina:  1     
              matName:  (blade-shell)
                     s           e11           e22           e12           s11           s22           s12   s11_fcT   s11_fcC   s22_fcT   s22_fcC   s12_fcS
                   (m)         (m/m)         (m/m)         (rad)          (Pa)          (Pa)          (Pa)       (-)       (-)       (-)       (-)       (-)
                0.0000   3.0717e-004  -1.2287e-004   1.5170e-005   8.6008e+006  -9.3132e-010   1.0619e+005    0.0597   -0.0000    0.0000    0.0000    0.0018
                0.2824   3.1007e-004  -1.2403e-004   2.8556e-006   8.6820e+006  -6.9849e-010   1.9989e+004    0.0603   -0.0000    0.0000    0.0000    0.0003
                0.5588   3.0964e-004  -1.2385e-004   9.2432e-006   8.6698e+006  -4.6566e-010   6.4702e+004    0.0602   -0.0000    0.0000    0.0000    0.0011
                0.8632   3.0626e-004  -1.2250e-004   2.2490e-005   8.5752e+006  -9.3132e-010   1.5743e+005    0.0596   -0.0000    0.0000    0.0000    0.0026
                1.1417   2.9906e-004  -1.1962e-004   3.4401e-005   8.3737e+006  -4.6566e-010   2.4081e+005    0.0582   -0.0000    0.0000    0.0000    0.0040
                1.4305   2.8878e-004  -1.1551e-004   4.6397e-005   8.0859e+006  -9.3132e-010   3.2478e+005    0.0562   -0.0000    0.0000    0.0000    0.0054
                1.7157   2.7522e-004  -1.1009e-004   5.7766e-005   7.7063e+006  -9.3132e-010   4.0436e+005    0.0535   -0.0000    0.0000    0.0000    0.0067
                2.0016   2.5868e-004  -1.0347e-004   6.8553e-005   7.2431e+006  -4.6566e-010   4.7987e+005    0.0503   -0.0000    0.0000    0.0000    0.0080
                2.2897   2.3932e-004  -9.5726e-005   7.8691e-005   6.7008e+006  -4.6566e-010   5.5084e+005    0.0465   -0.0000    0.0000    0.0000    0.0092
                2.5756   2.1724e-004  -8.6894e-005   8.7919e-005   6.0826e+006  -4.6566e-010   6.1543e+005    0.0422   -0.0000    0.0000    0.0000    0.0103
                2.8633   1.9285e-004  -7.7142e-005   9.6259e-005   5.3999e+006  -4.6566e-010   6.7381e+005    0.0375   -0.0000    0.0000    0.0000    0.0112
                3.1510   1.6629e-004  -6.6517e-005   1.0357e-004   4.6562e+006  -5.8208e-010   7.2496e+005    0.0323   -0.0000    0.0000    0.0000    0.0121
                3.4387   1.3791e-004  -5.5163e-005   1.0975e-004   3.8614e+006  -2.3283e-010   7.6828e+005    0.0268   -0.0000    0.0000    0.0000    0.0128
                3.7275   1.0806e-004  -4.3226e-005   1.1478e-004   3.0258e+006  -2.3283e-010   8.0345e+005    0.0210   -0.0000    0.0000    0.0000    0.0134
                4.0160   7.6947e-005  -3.0779e-005   1.1856e-004   2.1545e+006  -1.7462e-010   8.2989e+005    0.0150   -0.0000    0.0000    0.0000    0.0138
                4.3052   4.5046e-005  -1.8018e-005   1.2105e-004   1.2613e+006  -1.1642e-010   8.4736e+005    0.0088   -0.0000    0.0000    0.0000    0.0141
                4.5946   1.2675e-005  -5.0699e-006   1.2223e-004   3.5489e+005  -4.3656e-011   8.5562e+005    0.0025   -0.0000    0.0000    0.0000    0.0143
                4.8839  -1.9916e-005   7.9665e-006   1.2208e-004  -5.5766e+005   4.3656e-011   8.5457e+005    0.0000    0.0026    0.0000   -0.0000    0.0142
                5.1737  -5.2208e-005   2.0883e-005   1.2060e-004  -1.4618e+006   1.1642e-010   8.4420e+005    0.0000    0.0069    0.0000   -0.0000    0.0141
                5.4622  -8.3971e-005   3.3589e-005   1.1782e-004  -2.3512e+006   1.7462e-010   8.2471e+005    0.0000    0.0110    0.0000   -0.0000    0.0137
                5.7514  -1.1488e-004   4.5952e-005   1.1374e-004  -3.2166e+006   2.3283e-010   7.9620e+005    0.0000    0.0151    0.0000   -0.0000    0.0133
                6.0398  -1.4443e-004   5.7771e-005   1.0845e-004  -4.0440e+006   3.4925e-010   7.5913e+005    0.0000    0.0190    0.0000   -0.0000    0.0127
                6.3263  -1.7249e-004   6.8995e-005   1.0202e-004  -4.8296e+006   3.4925e-010   7.1411e+005    0.0000    0.0227    0.0000   -0.0000    0.0119
                6.6143  -1.9868e-004   7.9472e-005   9.4451e-005  -5.5630e+006   4.6566e-010   6.6116e+005    0.0000    0.0261    0.0000   -0.0000    0.0110
                6.8999  -2.2263e-004   8.9052e-005   8.5935e-005  -6.2336e+006   4.6566e-010   6.0155e+005    0.0000    0.0293    0.0000   -0.0000    0.0100
                7.1841  -2.4422e-004   9.7687e-005   7.6547e-005  -6.8381e+006   4.6566e-010   5.3583e+005    0.0000    0.0321    0.0000   -0.0000    0.0089
                7.4709  -2.6310e-004   1.0524e-004   6.6256e-005  -7.3669e+006   9.3132e-010   4.6379e+005    0.0000    0.0346    0.0000   -0.0000    0.0077
                7.7465  -2.7909e-004   1.1164e-004   5.5687e-005  -7.8146e+006   2.3283e-010   3.8981e+005    0.0000    0.0367    0.0000   -0.0000    0.0065
                8.0482  -2.9233e-004   1.1693e-004   4.3498e-005  -8.1852e+006   6.9849e-010   3.0449e+005    0.0000    0.0384    0.0000   -0.0000    0.0051
                8.3207  -3.0190e-004   1.2076e-004   3.2050e-005  -8.4531e+006   9.3132e-010   2.2435e+005    0.0000    0.0397    0.0000   -0.0000    0.0037
                8.6001  -3.0809e-004   1.2324e-004   1.9997e-005  -8.6265e+006   9.3132e-010   1.3998e+005    0.0000    0.0405    0.0000   -0.0000    0.0023

               lamina:  2     
              matName:  (blade-root)
                     s           e11           e22           e12           s11           s22           s12   s11_fcT   s11_fcC   s22_fcT   s22_fcC   s12_fcS
                   (m)         (m/m)         (m/m)         (rad)          (Pa)          (Pa)          (Pa)       (-)       (-)       (-)       (-)       (-)
                0.0000   3.0563e-004  -1.2225e-004   1.5170e-005   8.5577e+006  -9.3132e-010   1.0619e+005    0.0594   -0.0000    0.0000    0.0000    0.0018
                0.2824   3.0852e-004  -1.2341e-004   2.8556e-006   8.6387e+006  -6.9849e-010   1.9989e+004    0.0600   -0.0000    0.0000    0.0000    0.0003
                0.5588   3.0809e-004  -1.2324e-004   9.2432e-006   8.6266e+006  -4.6566e-010   6.4702e+004    0.0599   -0.0000    0.0000    0.0000    0.0011
                0.8632   3.0473e-004  -1.2189e-004   2.2490e-005   8.5325e+006  -9.3132e-010   1.5743e+005    0.0593   -0.0000    0.0000    0.0000    0.0026
                1.1417   2.9757e-004  -1.1903e-004   3.4401e-005   8.3320e+006  -4.6566e-010   2.4081e+005    0.0579   -0.0000    0.0000    0.0000    0.0040
                1.4305   2.8735e-004  -1.1494e-004   4.6397e-005   8.0457e+006  -9.3132e-010   3.2478e+005    0.0559   -0.0000    0.0000    0.0000    0.0054
                1.7157   2.7386e-004  -1.0954e-004   5.7766e-005   7.6680e+006  -6.9849e-010   4.0436e+005    0.0532   -0.0000    0.0000    0.0000    0.0067
                2.0016   2.5740e-004  -1.0296e-004   6.8553e-005   7.2071e+006  -4.6566e-010   4.7987e+005    0.0500   -0.0000    0.0000    0.0000    0.0080
                2.2897   2.3813e-004  -9.5251e-005   7.8691e-005   6.6676e+006  -6.9849e-010   5.5084e+005    0.0463   -0.0000    0.0000    0.0000    0.0092
                2.5756   2.1616e-004  -8.6465e-005   8.7919e-005   6.0525e+006  -6.9849e-010   6.1543e+005    0.0420   -0.0000    0.0000    0.0000    0.0103
                2.8633   1.9190e-004  -7.6760e-005   9.6259e-005   5.3732e+006  -4.6566e-010   6.7381e+005    0.0373   -0.0000    0.0000    0.0000    0.0112
                3.1510   1.6547e-004  -6.6189e-005   1.0357e-004   4.6332e+006  -5.8208e-010   7.2496e+005    0.0322   -0.0000    0.0000    0.0000    0.0121
                3.4387   1.3723e-004  -5.4891e-005   1.0975e-004   3.8424e+006  -2.3283e-010   7.6828e+005    0.0267   -0.0000    0.0000    0.0000    0.0128
                3.7275   1.0753e-004  -4.3012e-005   1.1478e-004   3.0109e+006  -2.3283e-010   8.0345e+005    0.0209   -0.0000    0.0000    0.0000    0.0134
                4.0160   7.6570e-005  -3.0628e-005   1.1856e-004   2.1440e+006  -2.3283e-010   8.2989e+005    0.0149   -0.0000    0.0000    0.0000    0.0138
                4.3052   4.4824e-005  -1.7930e-005   1.2105e-004   1.2551e+006  -8.7311e-011   8.4736e+005    0.0087   -0.0000    0.0000    0.0000    0.0141
                4.5946   1.2609e-005  -5.0437e-006   1.2223e-004   3.5306e+005  -2.9104e-011   8.5562e+005    0.0025   -0.0000    0.0000    0.0000    0.0143
                4.8839  -1.9820e-005   7.9278e-006   1.2208e-004  -5.5495e+005   5.8208e-011   8.5457e+005    0.0000    0.0026    0.0000   -0.0000    0.0142
                5.1737  -5.1958e-005   2.0783e-005   1.2060e-004  -1.4548e+006   1.1642e-010   8.4420e+005    0.0000    0.0068    0.0000   -0.0000    0.0141
                5.4622  -8.3565e-005   3.3426e-005   1.1782e-004  -2.3398e+006   1.7462e-010   8.2471e+005    0.0000    0.0110    0.0000   -0.0000    0.0137
                5.7514  -1.1432e-004   4.5728e-005   1.1374e-004  -3.2010e+006   2.3283e-010   7.9620e+005    0.0000    0.0150    0.0000   -0.0000    0.0133
                6.0398  -1.4373e-004   5.7491e-005   1.0845e-004  -4.0243e+006   3.4925e-010   7.5913e+005    0.0000    0.0189    0.0000   -0.0000    0.0127
                6.3263  -1.7164e-004   6.8658e-005   1.0202e-004  -4.8060e+006   3.4925e-010   7.1411e+005    0.0000    0.0226    0.0000   -0.0000    0.0119
                6.6143  -1.9771e-004   7.9082e-005   9.4451e-005  -5.5358e+006   3.4925e-010   6.6116e+005    0.0000    0.0260    0.0000   -0.0000    0.0110
                6.8999  -2.2154e-004   8.8616e-005   8.5935e-005  -6.2031e+006   4.6566e-010   6.0155e+005    0.0000    0.0291    0.0000   -0.0000    0.0100
                7.1841  -2.4302e-004   9.7207e-005   7.6547e-005  -6.8045e+006   4.6566e-010   5.3583e+005    0.0000    0.0319    0.0000   -0.0000    0.0089
                7.4709  -2.6181e-004   1.0472e-004   6.6256e-005  -7.3307e+006   9.3132e-010   4.6379e+005    0.0000    0.0344    0.0000   -0.0000    0.0077
                7.7465  -2.7771e-004   1.1108e-004   5.5687e-005  -7.7759e+006   2.3283e-010   3.8981e+005    0.0000    0.0365    0.0000   -0.0000    0.0065
                8.0482  -2.9088e-004   1.1635e-004   4.3498e-005  -8.1447e+006   6.9849e-010   3.0449e+005    0.0000    0.0382    0.0000   -0.0000    0.0051
                8.3207  -3.0040e-004   1.2016e-004   3.2050e-005  -8.4113e+006   9.3132e-010   2.2435e+005    0.0000    0.0395    0.0000   -0.0000    0.0037
                8.6001  -3.0658e-004   1.2263e-004   1.9997e-005  -8.5841e+006   9.3132e-010   1.3998e+005    0.0000    0.0403    0.0000   -0.0000    0.0023

               lamina:  3     
              matName:  (blade-shell)
                     s           e11           e22           e12           s11           s22           s12   s11_fcT   s11_fcC   s22_fcT   s22_fcC   s12_fcS
                   (m)         (m/m)         (m/m)         (rad)          (Pa)          (Pa)          (Pa)       (-)       (-)       (-)       (-)       (-)
                0.0000   2.5635e-004  -1.0254e-004   1.5170e-005   7.1779e+006  -9.3132e-010   1.0619e+005    0.0498   -0.0000    0.0000    0.0000    0.0018
                0.2824   2.5906e-004  -1.0362e-004   2.8556e-006   7.2537e+006  -6.9849e-010   1.9989e+004    0.0504   -0.0000    0.0000    0.0000    0.0003
                0.5588   2.5867e-004  -1.0347e-004   9.2432e-006   7.2428e+006  -2.3283e-010   6.4702e+004    0.0503   -0.0000    0.0000    0.0000    0.0011
                0.8632   2.5587e-004  -1.0235e-004   2.2490e-005   7.1643e+006  -9.3132e-010   1.5743e+005    0.0498   -0.0000    0.0000    0.0000    0.0026
                1.1417   2.4995e-004  -9.9979e-005   3.4401e-005   6.9985e+006  -4.6566e-010   2.4081e+005    0.0486   -0.0000    0.0000    0.0000    0.0040
                1.4305   2.4133e-004  -9.6530e-005   4.6397e-005   6.7571e+006  -9.3132e-010   3.2478e+005    0.0469   -0.0000    0.0000    0.0000    0.0054
                1.7157   2.3010e-004  -9.2040e-005   5.7766e-005   6.4428e+006  -6.9849e-010   4.0436e+005    0.0447   -0.0000    0.0000    0.0000    0.0067
                2.0016   2.1624e-004  -8.6498e-005   6.8553e-005   6.0548e+006  -4.6566e-010   4.7987e+005    0.0420   -0.0000    0.0000    0.0000    0.0080
                2.2897   2.0011e-004  -8.0044e-005   7.8691e-005   5.6031e+006  -6.9849e-010   5.5084e+005    0.0389   -0.0000    0.0000    0.0000    0.0092
                2.5756   1.8177e-004  -7.2709e-005   8.7919e-005   5.0896e+006  -6.9849e-010   6.1543e+005    0.0353   -0.0000    0.0000    0.0000    0.0103
                2.8633   1.6133e-004  -6.4533e-005   9.6259e-005   4.5173e+006  -4.6566e-010   6.7381e+005    0.0314   -0.0000    0.0000    0.0000    0.0112
                3.1510   1.3924e-004  -5.5694e-005   1.0357e-004   3.8986e+006  -5.8208e-010   7.2496e+005    0.0271   -0.0000    0.0000    0.0000    0.0121
                3.4387   1.1550e-004  -4.6201e-005   1.0975e-004   3.2341e+006  -3.4925e-010   7.6828e+005    0.0225   -0.0000    0.0000    0.0000    0.0128
                3.7275   9.0460e-005  -3.6184e-005   1.1478e-004   2.5329e+006  -3.4925e-010   8.0345e+005    0.0176   -0.0000    0.0000    0.0000    0.0134
                4.0160   6.4534e-005  -2.5814e-005   1.1856e-004   1.8070e+006  -2.3283e-010   8.2989e+005    0.0125   -0.0000    0.0000    0.0000    0.0138
                4.3052   3.7723e-005  -1.5089e-005   1.2105e-004   1.0562e+006  -8.7311e-011   8.4736e+005    0.0073   -0.0000    0.0000    0.0000    0.0141
                4.5946   1.0514e-005  -4.2054e-006   1.2223e-004   2.9438e+005  -2.9104e-011   8.5562e+005    0.0020   -0.0000    0.0000    0.0000    0.0143
                4.8839  -1.6722e-005   6.6886e-006   1.2208e-004  -4.6820e+005   5.8208e-011   8.5457e+005    0.0000    0.0022    0.0000   -0.0000    0.0142
                5.1737  -4.3963e-005   1.7585e-005   1.2060e-004  -1.2310e+006   1.1642e-010   8.4420e+005    0.0000    0.0058    0.0000   -0.0000    0.0141
                5.4622  -7.0555e-005   2.8222e-005   1.1782e-004  -1.9755e+006   1.7462e-010   8.2471e+005    0.0000    0.0093    0.0000   -0.0000    0.0137
                5.7514  -9.6392e-005   3.8557e-005   1.1374e-004  -2.6990e+006   2.3283e-010   7.9620e+005    0.0000    0.0127    0.0000   -0.0000    0.0133
                6.0398  -1.2131e-004   4.8524e-005   1.0845e-004  -3.3967e+006   3.4925e-010   7.5913e+005    0.0000    0.0159    0.0000   -0.0000    0.0127
                6.3263  -1.4469e-004   5.7874e-005   1.0202e-004  -4.0512e+006   3.4925e-010   7.1411e+005    0.0000    0.0190    0.0000   -0.0000    0.0119
                6.6143  -1.6657e-004   6.6629e-005   9.4451e-005  -4.6640e+006   3.4925e-010   6.6116e+005    0.0000    0.0219    0.0000   -0.0000    0.0110
                6.8999  -1.8666e-004   7.4663e-005   8.5935e-005  -5.2264e+006   4.6566e-010   6.0155e+005    0.0000    0.0245    0.0000   -0.0000    0.0100
                7.1841  -2.0456e-004   8.1823e-005   7.6547e-005  -5.7276e+006   4.6566e-010   5.3583e+005    0.0000    0.0269    0.0000   -0.0000    0.0089
                7.4709  -2.2042e-004   8.8167e-005   6.6256e-005  -6.1717e+006   6.9849e-010   4.6379e+005    0.0000    0.0290    0.0000   -0.0000    0.0077
                7.7465  -2.3345e-004   9.3381e-005   5.5687e-005  -6.5367e+006   2.3283e-010   3.8981e+005    0.0000    0.0307    0.0000   -0.0000    0.0065
                8.0482  -2.4457e-004   9.7828e-005   4.3498e-005  -6.8479e+006   4.6566e-010   3.0449e+005    0.0000    0.0321    0.0000   -0.0000    0.0051
                8.3207  -2.5257e-004   1.0103e-004   3.2050e-005  -7.0720e+006   9.3132e-010   2.2435e+005    0.0000    0.0332    0.0000   -0.0000    0.0037
                8.6001  -2.5811e-004   1.0324e-004   1.9997e-005  -7.2270e+006   9.3132e-010   1.3998e+005    0.0000    0.0339    0.0000   -0.0000    0.0023

  Bottom:  panel  nNode   nLam     xc_St    xc_End         b         t         E_eff         G_eff      nu_eff     density  buckleCrit
            (-)    (-)    (-)       (-)       (-)       (m)       (m)          (Pa)          (Pa)         (-)    (kg/m^3)         (-)
              1     31      3    0.0000    1.0000    8.5986    0.1700   2.8000e+010   7.0000e+009      0.4000   1850.0000      0.0008

            panel:  1     
           lam_num    nPlies        tPly      fibAng     matID  matName
               (-)       (-)         (m)       (deg)       (-)  (-)
                 1         1    0.005000      0.0000         2  (blade-shell)
                 2         1    0.160000      0.0000         1  (blade-root)
                 3         1    0.005000      0.0000         2  (blade-shell)

               lamina:  1     
              matName:  (blade-shell)
                     s           e11           e22           e12           s11           s22           s12   s11_fcT   s11_fcC   s22_fcT   s22_fcC   s12_fcS
                   (m)         (m/m)         (m/m)         (rad)          (Pa)          (Pa)          (Pa)       (-)       (-)       (-)       (-)       (-)
                0.0000   3.0688e-004  -1.2275e-004   1.5170e-005   8.5928e+006  -6.9849e-010   1.0619e+005    0.0597   -0.0000    0.0000    0.0000    0.0018
                0.2799   3.0071e-004  -1.2028e-004   2.7193e-005   8.4198e+006  -6.9849e-010   1.9035e+005    0.0585   -0.0000    0.0000    0.0000    0.0032
                0.5727   2.9080e-004  -1.1632e-004   3.9432e-005   8.1425e+006  -6.9849e-010   2.7602e+005    0.0565   -0.0000    0.0000    0.0000    0.0046
                0.8570   2.7781e-004  -1.1112e-004   5.0853e-005   7.7786e+006  -2.3283e-010   3.5597e+005    0.0540   -0.0000    0.0000    0.0000    0.0059
                1.1434   2.6177e-004  -1.0471e-004   6.1776e-005   7.3294e+006  -4.6566e-010   4.3243e+005    0.0509   -0.0000    0.0000    0.0000    0.0072
                1.4313   2.4281e-004  -9.7122e-005   7.2042e-005   6.7985e+006  -6.9849e-010   5.0429e+005    0.0472   -0.0000    0.0000    0.0000    0.0084
                1.7171   2.2119e-004  -8.8476e-005   8.1415e-005   6.1933e+006  -4.6566e-010   5.6991e+005    0.0430   -0.0000    0.0000    0.0000    0.0095
                2.0035   1.9721e-004  -7.8885e-005   8.9888e-005   5.5220e+006  -4.6566e-010   6.2922e+005    0.0383   -0.0000    0.0000    0.0000    0.0105
                2.2918   1.7100e-004  -6.8399e-005   9.7396e-005   4.7879e+006  -3.4925e-010   6.8177e+005    0.0332   -0.0000    0.0000    0.0000    0.0114
                2.5783   1.4291e-004  -5.7164e-005   1.0376e-004   4.0015e+006  -4.6566e-010   7.2631e+005    0.0278   -0.0000    0.0000    0.0000    0.0121
                2.8661   1.1331e-004  -4.5324e-005   1.0898e-004   3.1727e+006  -2.3283e-010   7.6284e+005    0.0220   -0.0000    0.0000    0.0000    0.0127
                3.1539   8.2365e-005  -3.2946e-005   1.1296e-004   2.3062e+006  -1.7462e-010   7.9075e+005    0.0160   -0.0000    0.0000    0.0000    0.0132
                3.4411   5.0616e-005  -2.0246e-005   1.1568e-004   1.4172e+006  -1.7462e-010   8.0974e+005    0.0098   -0.0000    0.0000    0.0000    0.0135
                3.7298   1.8325e-005  -7.3300e-006   1.1709e-004   5.1310e+005  -1.4552e-011   8.1966e+005    0.0036   -0.0000    0.0000    0.0000    0.0137
                4.0181  -1.4255e-005   5.7019e-006   1.1719e-004  -3.9914e+005   4.3656e-011   8.2033e+005    0.0000    0.0019    0.0000   -0.0000    0.0137
                4.3072  -4.6563e-005   1.8625e-005   1.1596e-004  -1.3038e+006   1.7462e-010   8.1174e+005    0.0000    0.0061    0.0000   -0.0000    0.0135
                4.5967  -7.8371e-005   3.1348e-005   1.1342e-004  -2.1944e+006   1.1642e-010   7.9392e+005    0.0000    0.0103    0.0000   -0.0000    0.0132
                4.8862  -1.0937e-004   4.3749e-005   1.0959e-004  -3.0624e+006   2.3283e-010   7.6710e+005    0.0000    0.0144    0.0000   -0.0000    0.0128
                5.1764  -1.3908e-004   5.5631e-005   1.0449e-004  -3.8942e+006   2.3283e-010   7.3146e+005    0.0000    0.0183    0.0000   -0.0000    0.0122
                5.4654  -1.6737e-004   6.6949e-005   9.8239e-005  -4.6864e+006   4.6566e-010   6.8767e+005    0.0000    0.0220    0.0000   -0.0000    0.0115
                5.7549  -1.9383e-004   7.7533e-005   9.0849e-005  -5.4273e+006   4.6566e-010   6.3594e+005    0.0000    0.0255    0.0000   -0.0000    0.0106
                6.0437  -2.1813e-004   8.7253e-005   8.2438e-005  -6.1077e+006   4.6566e-010   5.7707e+005    0.0000    0.0287    0.0000   -0.0000    0.0096
                6.3304  -2.4016e-004   9.6064e-005   7.3148e-005  -6.7245e+006   6.9849e-010   5.1203e+005    0.0000    0.0316    0.0000   -0.0000    0.0085
                6.6180  -2.5952e-004   1.0381e-004   6.2986e-005  -7.2665e+006   6.9849e-010   4.4090e+005    0.0000    0.0341    0.0000   -0.0000    0.0073
                6.9030  -2.7607e-004   1.1043e-004   5.2193e-005  -7.7301e+006   6.9849e-010   3.6535e+005    0.0000    0.0363    0.0000   -0.0000    0.0061
                7.1865  -2.8966e-004   1.1586e-004   4.0852e-005  -8.1105e+006   6.9849e-010   2.8596e+005    0.0000    0.0381    0.0000   -0.0000    0.0048
                7.4708  -3.0004e-004   1.2002e-004   2.8999e-005  -8.4012e+006   4.6566e-010   2.0299e+005    0.0000    0.0394    0.0000   -0.0000    0.0034
                7.7535  -3.0716e-004   1.2286e-004   1.6868e-005  -8.6004e+006   6.9849e-010   1.1808e+005    0.0000    0.0404    0.0000   -0.0000    0.0020
                8.0340  -3.1094e-004   1.2437e-004   4.6133e-006  -8.7062e+006   4.6566e-010   3.2293e+004    0.0000    0.0409    0.0000   -0.0000    0.0005
                8.3221  -3.1118e-004   1.2447e-004   8.0547e-006  -8.7131e+006   4.6566e-010   5.6383e+004    0.0000    0.0409    0.0000   -0.0000    0.0009
                8.5986  -3.0838e-004   1.2335e-004   2.0163e-005  -8.6346e+006   9.3132e-010   1.4114e+005    0.0000    0.0405    0.0000   -0.0000    0.0024

               lamina:  2     
              matName:  (blade-root)
                     s           e11           e22           e12           s11           s22           s12   s11_fcT   s11_fcC   s22_fcT   s22_fcC   s12_fcS
                   (m)         (m/m)         (m/m)         (rad)          (Pa)          (Pa)          (Pa)       (-)       (-)       (-)       (-)       (-)
                0.0000   3.0537e-004  -1.2215e-004   1.5170e-005   8.5504e+006  -6.9849e-010   1.0619e+005    0.0594   -0.0000    0.0000    0.0000    0.0018
                0.2799   2.9921e-004  -1.1968e-004   2.7193e-005   8.3779e+006  -6.9849e-010   1.9035e+005    0.0582   -0.0000    0.0000    0.0000    0.0032
                0.5727   2.8936e-004  -1.1574e-004   3.9432e-005   8.1020e+006  -4.6566e-010   2.7602e+005    0.0563   -0.0000    0.0000    0.0000    0.0046
                0.8570   2.7643e-004  -1.1057e-004   5.0853e-005   7.7399e+006  -4.6566e-010   3.5597e+005    0.0537   -0.0000    0.0000    0.0000    0.0059
                1.1434   2.6047e-004  -1.0419e-004   6.1776e-005   7.2930e+006  -4.6566e-010   4.3243e+005    0.0506   -0.0000    0.0000    0.0000    0.0072
                1.4313   2.4160e-004  -9.6640e-005   7.2042e-005   6.7648e+006  -6.9849e-010   5.0429e+005    0.0470   -0.0000    0.0000    0.0000    0.0084
                1.7171   2.2010e-004  -8.8039e-005   8.1415e-005   6.1627e+006  -4.6566e-010   5.6991e+005    0.0428   -0.0000    0.0000    0.0000    0.0095
                2.0035   1.9624e-004  -7.8495e-005   8.9888e-005   5.4947e+006  -4.6566e-010   6.2922e+005    0.0382   -0.0000    0.0000    0.0000    0.0105
                2.2918   1.7015e-004  -6.8061e-005   9.7396e-005   4.7643e+006  -3.4925e-010   6.8177e+005    0.0331   -0.0000    0.0000    0.0000    0.0114
                2.5783   1.4221e-004  -5.6884e-005   1.0376e-004   3.9819e+006  -4.6566e-010   7.2631e+005    0.0277   -0.0000    0.0000    0.0000    0.0121
                2.8661   1.1276e-004  -4.5102e-005   1.0898e-004   3.1572e+006  -3.4925e-010   7.6284e+005    0.0219   -0.0000    0.0000    0.0000    0.0127
                3.1539   8.1971e-005  -3.2788e-005   1.1296e-004   2.2952e+006  -1.7462e-010   7.9075e+005    0.0159   -0.0000    0.0000    0.0000    0.0132
                3.4411   5.0382e-005  -2.0153e-005   1.1568e-004   1.4107e+006  -1.7462e-010   8.0974e+005    0.0098   -0.0000    0.0000    0.0000    0.0135
                3.7298   1.8248e-005  -7.2994e-006   1.1709e-004   5.1096e+005  -2.9104e-011   8.1966e+005    0.0035   -0.0000    0.0000    0.0000    0.0137
                4.0181  -1.4164e-005   5.6655e-006   1.1719e-004  -3.9659e+005   4.3656e-011   8.2033e+005    0.0000    0.0019    0.0000   -0.0000    0.0137
                4.3072  -4.6314e-005   1.8525e-005   1.1596e-004  -1.2968e+006   1.7462e-010   8.1174e+005    0.0000    0.0061    0.0000   -0.0000    0.0135
                4.5967  -7.7969e-005   3.1188e-005   1.1342e-004  -2.1831e+006   1.1642e-010   7.9392e+005    0.0000    0.0102    0.0000   -0.0000    0.0132
                4.8862  -1.0882e-004   4.3526e-005   1.0959e-004  -3.0468e+006   2.3283e-010   7.6710e+005    0.0000    0.0143    0.0000   -0.0000    0.0128
                5.1764  -1.3838e-004   5.5353e-005   1.0449e-004  -3.8747e+006   3.4925e-010   7.3146e+005    0.0000    0.0182    0.0000   -0.0000    0.0122
                5.4654  -1.6654e-004   6.6616e-005   9.8239e-005  -4.6631e+006   3.4925e-010   6.8767e+005    0.0000    0.0219    0.0000   -0.0000    0.0115
                5.7549  -1.9287e-004   7.7147e-005   9.0849e-005  -5.4003e+006   5.8208e-010   6.3594e+005    0.0000    0.0254    0.0000   -0.0000    0.0106
                6.0437  -2.1706e-004   8.6822e-005   8.2438e-005  -6.0776e+006   4.6566e-010   5.7707e+005    0.0000    0.0285    0.0000   -0.0000    0.0096
                6.3304  -2.3897e-004   9.5589e-005   7.3148e-005  -6.6912e+006   6.9849e-010   5.1203e+005    0.0000    0.0314    0.0000   -0.0000    0.0085
                6.6180  -2.5823e-004   1.0329e-004   6.2986e-005  -7.2306e+006   6.9849e-010   4.4090e+005    0.0000    0.0339    0.0000   -0.0000    0.0073
                6.9030  -2.7471e-004   1.0988e-004   5.2193e-005  -7.6918e+006   6.9849e-010   3.6535e+005    0.0000    0.0361    0.0000   -0.0000    0.0061
                7.1865  -2.8822e-004   1.1529e-004   4.0852e-005  -8.0703e+006   4.6566e-010   2.8596e+005    0.0000    0.0379    0.0000   -0.0000    0.0048
                7.4708  -2.9855e-004   1.1942e-004   2.8999e-005  -8.3595e+006   4.6566e-010   2.0299e+005    0.0000    0.0392    0.0000   -0.0000    0.0034
                7.7535  -3.0563e-004   1.2225e-004   1.6868e-005  -8.5577e+006   6.9849e-010   1.1808e+005    0.0000    0.0402    0.0000   -0.0000    0.0020
                8.0340  -3.0939e-004   1.2376e-004   4.6133e-006  -8.6630e+006   2.3283e-010   3.2293e+004    0.0000    0.0407    0.0000   -0.0000    0.0005
                8.3221  -3.0964e-004   1.2385e-004   8.0547e-006  -8.6698e+006   4.6566e-010   5.6383e+004    0.0000    0.0407    0.0000   -0.0000    0.0009
                8.5986  -3.0684e-004   1.2274e-004   2.0163e-005  -8.5915e+006   9.3132e-010   1.4114e+005    0.0000    0.0403    0.0000   -0.0000    0.0024

               lamina:  3     
              matName:  (blade-shell)
                     s           e11           e22           e12           s11           s22           s12   s11_fcT   s11_fcC   s22_fcT   s22_fcC   s12_fcS
                   (m)         (m/m)         (m/m)         (rad)          (Pa)          (Pa)          (Pa)       (-)       (-)       (-)       (-)       (-)
                0.0000   2.5690e-004  -1.0276e-004   1.5170e-005   7.1933e+006  -6.9849e-010   1.0619e+005    0.0500   -0.0000    0.0000    0.0000    0.0018
                0.2799   2.5133e-004  -1.0053e-004   2.7193e-005   7.0371e+006  -9.3132e-010   1.9035e+005    0.0489   -0.0000    0.0000    0.0000    0.0032
                0.5727   2.4303e-004  -9.7210e-005   3.9432e-005   6.8047e+006  -4.6566e-010   2.7602e+005    0.0473   -0.0000    0.0000    0.0000    0.0046
                0.8570   2.3225e-004  -9.2901e-005   5.0853e-005   6.5031e+006  -4.6566e-010   3.5597e+005    0.0452   -0.0000    0.0000    0.0000    0.0059
                1.1434   2.1884e-004  -8.7536e-005   6.1776e-005   6.1275e+006  -4.6566e-010   4.3243e+005    0.0426   -0.0000    0.0000    0.0000    0.0072
                1.4313   2.0304e-004  -8.1217e-005   7.2042e-005   5.6852e+006  -4.6566e-010   5.0429e+005    0.0395   -0.0000    0.0000    0.0000    0.0084
                1.7171   1.8511e-004  -7.4043e-005   8.1415e-005   5.1830e+006  -6.9849e-010   5.6991e+005    0.0360   -0.0000    0.0000    0.0000    0.0095
                2.0035   1.6502e-004  -6.6009e-005   8.9888e-005   4.6206e+006  -4.6566e-010   6.2922e+005    0.0321   -0.0000    0.0000    0.0000    0.0105
                2.2918   1.4315e-004  -5.7260e-005   9.7396e-005   4.0082e+006  -4.6566e-010   6.8177e+005    0.0278   -0.0000    0.0000    0.0000    0.0114
                2.5783   1.1982e-004  -4.7928e-005   1.0376e-004   3.3550e+006  -4.6566e-010   7.2631e+005    0.0233   -0.0000    0.0000    0.0000    0.0121
                2.8661   9.5029e-005  -3.8011e-005   1.0898e-004   2.6608e+006  -4.6566e-010   7.6284e+005    0.0185   -0.0000    0.0000    0.0000    0.0127
                3.1539   6.9370e-005  -2.7748e-005   1.1296e-004   1.9424e+006  -1.7462e-010   7.9075e+005    0.0135   -0.0000    0.0000    0.0000    0.0132
                3.4411   4.2890e-005  -1.7156e-005   1.1568e-004   1.2009e+006  -1.4552e-010   8.0974e+005    0.0083   -0.0000    0.0000    0.0000    0.0135
                3.7298   1.5796e-005  -6.3183e-006   1.1709e-004   4.4228e+005  -4.3656e-011   8.1966e+005    0.0031   -0.0000    0.0000    0.0000    0.0137
                4.0181  -1.1252e-005   4.5008e-006   1.1719e-004  -3.1505e+005   2.9104e-011   8.2033e+005    0.0000    0.0015    0.0000   -0.0000    0.0137
                4.3072  -3.8348e-005   1.5339e-005   1.1596e-004  -1.0737e+006   8.7311e-011   8.1174e+005    0.0000    0.0050    0.0000   -0.0000    0.0135
                4.5967  -6.5097e-005   2.6039e-005   1.1342e-004  -1.8227e+006   0.0000e+000   7.9392e+005    0.0000    0.0086    0.0000   -0.0000    0.0132
                4.8862  -9.1016e-005   3.6406e-005   1.0959e-004  -2.5484e+006   3.4925e-010   7.6710e+005    0.0000    0.0120    0.0000   -0.0000    0.0128
                5.1764  -1.1612e-004   4.6448e-005   1.0449e-004  -3.2513e+006   3.4925e-010   7.3146e+005    0.0000    0.0153    0.0000   -0.0000    0.0122
                5.4654  -1.3988e-004   5.5954e-005   9.8239e-005  -3.9168e+006   3.4925e-010   6.8767e+005    0.0000    0.0184    0.0000   -0.0000    0.0115
                5.7549  -1.6203e-004   6.4811e-005   9.0849e-005  -4.5367e+006   5.8208e-010   6.3594e+005    0.0000    0.0213    0.0000   -0.0000    0.0106
                6.0437  -1.8256e-004   7.3022e-005   8.2438e-005  -5.1116e+006   4.6566e-010   5.7707e+005    0.0000    0.0240    0.0000   -0.0000    0.0096
                6.3304  -2.0096e-004   8.0383e-005   7.3148e-005  -5.6268e+006   6.9849e-010   5.1203e+005    0.0000    0.0264    0.0000   -0.0000    0.0085
                6.6180  -2.1715e-004   8.6860e-005   6.2986e-005  -6.0802e+006   6.9849e-010   4.4090e+005    0.0000    0.0285    0.0000   -0.0000    0.0073
                6.9030  -2.3104e-004   9.2414e-005   5.2193e-005  -6.4690e+006   6.9849e-010   3.6535e+005    0.0000    0.0304    0.0000   -0.0000    0.0061
                7.1865  -2.4231e-004   9.6925e-005   4.0852e-005  -6.7848e+006   4.6566e-010   2.8596e+005    0.0000    0.0319    0.0000   -0.0000    0.0048
                7.4708  -2.5094e-004   1.0038e-004   2.8999e-005  -7.0263e+006   4.6566e-010   2.0299e+005    0.0000    0.0330    0.0000   -0.0000    0.0034
                7.7535  -2.5686e-004   1.0274e-004   1.6868e-005  -7.1921e+006   6.9849e-010   1.1808e+005    0.0000    0.0338    0.0000   -0.0000    0.0020
                8.0340  -2.5998e-004   1.0399e-004   4.6133e-006  -7.2795e+006   6.9849e-010   3.2293e+004    0.0000    0.0342    0.0000   -0.0000    0.0005
                8.3221  -2.6017e-004   1.0407e-004   8.0547e-006  -7.2849e+006   4.6566e-010   5.6383e+004    0.0000    0.0342    0.0000   -0.0000    0.0009
                8.5986  -2.5756e-004   1.0302e-004   2.0163e-005  -7.2116e+006   9.3132e-010   1.4114e+005    0.0000    0.0339    0.0000   -0.0000    0.0024

     Web:  panel  nNode   nLam     xc_St    xc_End         b         t         E_eff         G_eff      nu_eff     density  buckleCrit
            (-)    (-)    (-)       (-)       (-)       (m)       (m)          (Pa)          (Pa)         (-)    (kg/m^3)         (-)

================================================================================
sec        =  4      
zSec       =  2.2000  (m)
nPanelsTop =  3      
nPanelsBot =  3      
nWebs      =  2      

    Top:  panel  nNode   nLam     xc_St    xc_End         b         t         E_eff         G_eff      nu_eff     density  buckleCrit
            (-)    (-)    (-)       (-)       (-)       (m)       (m)          (Pa)          (Pa)         (-)    (kg/m^3)         (-)
              1     14      3    0.0000    0.3695    3.5428    0.1700   2.8000e+010   7.0000e+009      0.4000   1850.0000      0.0000
              2      7      3    0.3695    0.6300    1.4785    0.1700   2.8000e+010   7.0000e+009      0.4000   1850.0000      0.0000
              3     14      3    0.6300    1.0000    3.5045    0.1700   2.8000e+010   7.0000e+009      0.4000   1850.0000      0.0039

            panel:  1     
           lam_num    nPlies        tPly      fibAng     matID  matName
               (-)       (-)         (m)       (deg)       (-)  (-)
                 1         1    0.005000      0.0000         2  (blade-shell)
                 2         1    0.160000      0.0000         1  (blade-root)
                 3         1    0.005000      0.0000         2  (blade-shell)

               lamina:  1     
              matName:  (blade-shell)
                     s           e11           e22           e12           s11           s22           s12   s11_fcT   s11_fcC   s22_fcT   s22_fcC   s12_fcS
                   (m)         (m/m)         (m/m)         (rad)          (Pa)          (Pa)          (Pa)       (-)       (-)       (-)       (-)       (-)
                0.0000   2.9377e-004  -1.1751e-004   1.4417e-005   8.2257e+006  -4.6566e-010   1.0092e+005    0.0571   -0.0000    0.0000    0.0000    0.0017
                0.2762   2.9676e-004  -1.1871e-004   2.9753e-006   8.3094e+006  -6.9849e-010   2.0827e+004    0.0577   -0.0000    0.0000    0.0000    0.0003
                0.5485   2.9658e-004  -1.1863e-004   8.3615e-006   8.3042e+006  -2.3283e-010   5.8530e+004    0.0577   -0.0000    0.0000    0.0000    0.0010
                0.8464   2.9353e-004  -1.1741e-004   2.0695e-005   8.2189e+006  -4.6566e-010   1.4487e+005    0.0571   -0.0000    0.0000    0.0000    0.0024
                1.1203   2.8680e-004  -1.1472e-004   3.1852e-005   8.0303e+006  -6.9849e-010   2.2296e+005    0.0558   -0.0000    0.0000    0.0000    0.0037
                1.4046   2.7708e-004  -1.1083e-004   4.3105e-005   7.7582e+006  -4.6566e-010   3.0173e+005    0.0539   -0.0000    0.0000    0.0000    0.0050
                1.6863   2.6419e-004  -1.0568e-004   5.3809e-005   7.3973e+006  -6.9849e-010   3.7667e+005    0.0514   -0.0000    0.0000    0.0000    0.0063
                1.9695   2.4841e-004  -9.9364e-005   6.4002e-005   6.9555e+006  -6.9849e-010   4.4801e+005    0.0483   -0.0000    0.0000    0.0000    0.0075
                2.2551   2.2989e-004  -9.1955e-005   7.3600e-005   6.4368e+006  -4.6566e-010   5.1520e+005    0.0447   -0.0000    0.0000    0.0000    0.0086
                2.5400   2.0874e-004  -8.3496e-005   8.2384e-005   5.8447e+006  -4.6566e-010   5.7669e+005    0.0406   -0.0000    0.0000    0.0000    0.0096
                2.8269   1.8534e-004  -7.4136e-005   9.0335e-005   5.1895e+006  -4.6566e-010   6.3234e+005    0.0360   -0.0000    0.0000    0.0000    0.0105
                3.1153   1.5984e-004  -6.3937e-005   9.7337e-005   4.4756e+006  -3.4925e-010   6.8136e+005    0.0311   -0.0000    0.0000    0.0000    0.0114
                3.4058   1.3283e-004  -5.3130e-005   1.0332e-004   3.7191e+006  -2.3283e-010   7.2321e+005    0.0258   -0.0000    0.0000    0.0000    0.0121
                3.5428   1.1897e-004  -4.7590e-005   1.0574e-004   3.3313e+006  -2.3283e-010   7.4018e+005    0.0231   -0.0000    0.0000    0.0000    0.0123

               lamina:  2     
              matName:  (blade-root)
                     s           e11           e22           e12           s11           s22           s12   s11_fcT   s11_fcC   s22_fcT   s22_fcC   s12_fcS
                   (m)         (m/m)         (m/m)         (rad)          (Pa)          (Pa)          (Pa)       (-)       (-)       (-)       (-)       (-)
                0.0000   2.9231e-004  -1.1693e-004   1.4417e-005   8.1848e+006  -4.6566e-010   1.0092e+005    0.0568   -0.0000    0.0000    0.0000    0.0017
                0.2762   2.9530e-004  -1.1812e-004   2.9753e-006   8.2683e+006  -6.9849e-010   2.0827e+004    0.0574   -0.0000    0.0000    0.0000    0.0003
                0.5485   2.9511e-004  -1.1804e-004   8.3615e-006   8.2631e+006  -4.6566e-010   5.8530e+004    0.0574   -0.0000    0.0000    0.0000    0.0010
                0.8464   2.9208e-004  -1.1683e-004   2.0695e-005   8.1783e+006  -4.6566e-010   1.4487e+005    0.0568   -0.0000    0.0000    0.0000    0.0024
                1.1203   2.8538e-004  -1.1415e-004   3.1852e-005   7.9907e+006  -9.3132e-010   2.2296e+005    0.0555   -0.0000    0.0000    0.0000    0.0037
                1.4046   2.7571e-004  -1.1029e-004   4.3105e-005   7.7200e+006  -4.6566e-010   3.0173e+005    0.0536   -0.0000    0.0000    0.0000    0.0050
                1.6863   2.6289e-004  -1.0516e-004   5.3809e-005   7.3610e+006  -4.6566e-010   3.7667e+005    0.0511   -0.0000    0.0000    0.0000    0.0063
                1.9695   2.4719e-004  -9.8878e-005   6.4002e-005   6.9214e+006  -9.3132e-010   4.4801e+005    0.0481   -0.0000    0.0000    0.0000    0.0075
                2.2551   2.2877e-004  -9.1507e-005   7.3600e-005   6.4055e+006  -4.6566e-010   5.1520e+005    0.0445   -0.0000    0.0000    0.0000    0.0086
                2.5400   2.0773e-004  -8.3092e-005   8.2384e-005   5.8164e+006  -4.6566e-010   5.7669e+005    0.0404   -0.0000    0.0000    0.0000    0.0096
                2.8269   1.8445e-004  -7.3778e-005   9.0335e-005   5.1645e+006  -4.6566e-010   6.3234e+005    0.0359   -0.0000    0.0000    0.0000    0.0105
                3.1153   1.5908e-004  -6.3632e-005   9.7337e-005   4.4542e+006  -4.6566e-010   6.8136e+005    0.0309   -0.0000    0.0000    0.0000    0.0114
                3.4058   1.3217e-004  -5.2869e-005   1.0332e-004   3.7009e+006  -2.3283e-010   7.2321e+005    0.0257   -0.0000    0.0000    0.0000    0.0121
                3.5428   1.1841e-004  -4.7363e-005   1.0574e-004   3.3154e+006  -2.3283e-010   7.4018e+005    0.0230   -0.0000    0.0000    0.0000    0.0123

               lamina:  3     
              matName:  (blade-shell)
                     s           e11           e22           e12           s11           s22           s12   s11_fcT   s11_fcC   s22_fcT   s22_fcC   s12_fcS
                   (m)         (m/m)         (m/m)         (rad)          (Pa)          (Pa)          (Pa)       (-)       (-)       (-)       (-)       (-)
                0.0000   2.4554e-004  -9.8215e-005   1.4417e-005   6.8750e+006  -6.9849e-010   1.0092e+005    0.0477   -0.0000    0.0000    0.0000    0.0017
                0.2762   2.4831e-004  -9.9325e-005   2.9753e-006   6.9528e+006  -4.6566e-010   2.0827e+004    0.0483   -0.0000    0.0000    0.0000    0.0003
                0.5485   2.4814e-004  -9.9255e-005   8.3615e-006   6.9478e+006  -4.6566e-010   5.8530e+004    0.0482   -0.0000    0.0000    0.0000    0.0010
                0.8464   2.4564e-004  -9.8255e-005   2.0695e-005   6.8779e+006  -4.6566e-010   1.4487e+005    0.0478   -0.0000    0.0000    0.0000    0.0024
                1.1203   2.4014e-004  -9.6056e-005   3.1852e-005   6.7239e+006  -9.3132e-010   2.2296e+005    0.0467   -0.0000    0.0000    0.0000    0.0037
                1.4046   2.3205e-004  -9.2820e-005   4.3105e-005   6.4974e+006  -6.9849e-010   3.0173e+005    0.0451   -0.0000    0.0000    0.0000    0.0050
                1.6863   2.2144e-004  -8.8577e-005   5.3809e-005   6.2004e+006  -4.6566e-010   3.7667e+005    0.0431   -0.0000    0.0000    0.0000    0.0063
                1.9695   2.0830e-004  -8.3322e-005   6.4002e-005   5.8325e+006  -9.3132e-010   4.4801e+005    0.0405   -0.0000    0.0000    0.0000    0.0075
                2.2551   1.9294e-004  -7.7174e-005   7.3600e-005   5.4022e+006  -4.6566e-010   5.1520e+005    0.0375   -0.0000    0.0000    0.0000    0.0086
                2.5400   1.7544e-004  -7.0175e-005   8.2384e-005   4.9122e+006  -4.6566e-010   5.7669e+005    0.0341   -0.0000    0.0000    0.0000    0.0096
                2.8269   1.5587e-004  -6.2347e-005   9.0335e-005   4.3643e+006  -2.3283e-010   6.3234e+005    0.0303   -0.0000    0.0000    0.0000    0.0105
                3.1153   1.3465e-004  -5.3862e-005   9.7337e-005   3.7703e+006  -4.6566e-010   6.8136e+005    0.0262   -0.0000    0.0000    0.0000    0.0114
                3.4058   1.1131e-004  -4.4524e-005   1.0332e-004   3.1167e+006  -2.3283e-010   7.2321e+005    0.0216   -0.0000    0.0000    0.0000    0.0121
                3.5428   1.0029e-004  -4.0114e-005   1.0574e-004   2.8080e+006  -2.3283e-010   7.4018e+005    0.0195   -0.0000    0.0000    0.0000    0.0123

            panel:  2     
           lam_num    nPlies        tPly      fibAng     matID  matName
               (-)       (-)         (m)       (deg)       (-)  (-)
                 1         1    0.005000      0.0000         2  (blade-shell)
                 2         1    0.160000      0.0000         1  (blade-root)
                 3         1    0.005000      0.0000         2  (blade-shell)

               lamina:  1     
              matName:  (blade-shell)
                     s           e11           e22           e12           s11           s22           s12   s11_fcT   s11_fcC   s22_fcT   s22_fcC   s12_fcS
                   (m)         (m/m)         (m/m)         (rad)          (Pa)          (Pa)          (Pa)       (-)       (-)       (-)       (-)       (-)
                0.0000   1.1897e-004  -4.7590e-005   1.0560e-004   3.3313e+006  -1.1642e-010   7.3921e+005    0.0231   -0.0000    0.0000    0.0000    0.0123
                0.1516   1.0366e-004  -4.1466e-005   1.0798e-004   2.9026e+006  -1.1642e-010   7.5588e+005    0.0202   -0.0000    0.0000    0.0000    0.0126
                0.4450   7.4012e-005  -2.9605e-005   1.1166e-004   2.0723e+006  -1.7462e-010   7.8164e+005    0.0144   -0.0000    0.0000    0.0000    0.0130
                0.7385   4.3362e-005  -1.7345e-005   1.1409e-004   1.2141e+006  -1.1642e-010   7.9862e+005    0.0084   -0.0000    0.0000    0.0000    0.0133
                1.0326   1.2256e-005  -4.9023e-006   1.1524e-004   3.4316e+005   0.0000e+000   8.0666e+005    0.0024   -0.0000    0.0000   -0.0000    0.0134
                1.3281  -1.8828e-005   7.5310e-006   1.1509e-004  -5.2717e+005   4.3656e-011   8.0561e+005    0.0000    0.0025    0.0000   -0.0000    0.0134
                1.4785  -3.5083e-005   1.4033e-005   1.1451e-004  -9.8231e+005   5.8208e-011   8.0155e+005    0.0000    0.0046    0.0000   -0.0000    0.0134

               lamina:  2     
              matName:  (blade-root)
                     s           e11           e22           e12           s11           s22           s12   s11_fcT   s11_fcC   s22_fcT   s22_fcC   s12_fcS
                   (m)         (m/m)         (m/m)         (rad)          (Pa)          (Pa)          (Pa)       (-)       (-)       (-)       (-)       (-)
                0.0000   1.1841e-004  -4.7363e-005   1.0560e-004   3.3154e+006  -1.1642e-010   7.3921e+005    0.0230   -0.0000    0.0000    0.0000    0.0123
                0.1516   1.0319e-004  -4.1277e-005   1.0798e-004   2.8894e+006  -1.1642e-010   7.5588e+005    0.0201   -0.0000    0.0000    0.0000    0.0126
                0.4450   7.3664e-005  -2.9466e-005   1.1166e-004   2.0626e+006  -1.7462e-010   7.8164e+005    0.0143   -0.0000    0.0000    0.0000    0.0130
                0.7385   4.3155e-005  -1.7262e-005   1.1409e-004   1.2083e+006  -1.1642e-010   7.9862e+005    0.0084   -0.0000    0.0000    0.0000    0.0133
                1.0326   1.2191e-005  -4.8764e-006   1.1524e-004   3.4135e+005  -1.4552e-011   8.0666e+005    0.0024   -0.0000    0.0000    0.0000    0.0134
                1.3281  -1.8767e-005   7.5070e-006   1.1509e-004  -5.2549e+005   5.8208e-011   8.0561e+005    0.0000    0.0025    0.0000   -0.0000    0.0134
                1.4785  -3.4929e-005   1.3971e-005   1.1451e-004  -9.7800e+005   8.7311e-011   8.0155e+005    0.0000    0.0046    0.0000   -0.0000    0.0134

               lamina:  3     
              matName:  (blade-shell)
                     s           e11           e22           e12           s11           s22           s12   s11_fcT   s11_fcC   s22_fcT   s22_fcC   s12_fcS
                   (m)         (m/m)         (m/m)         (rad)          (Pa)          (Pa)          (Pa)       (-)       (-)       (-)       (-)       (-)
                0.0000   1.0029e-004  -4.0114e-005   1.0560e-004   2.8080e+006  -1.1642e-010   7.3921e+005    0.0195   -0.0000    0.0000    0.0000    0.0123
                0.1516   8.8089e-005  -3.5236e-005   1.0798e-004   2.4665e+006  -2.3283e-010   7.5588e+005    0.0171   -0.0000    0.0000    0.0000    0.0126
                0.4450   6.2537e-005  -2.5015e-005   1.1166e-004   1.7510e+006  -1.7462e-010   7.8164e+005    0.0122   -0.0000    0.0000    0.0000    0.0130
                0.7385   3.6523e-005  -1.4609e-005   1.1409e-004   1.0227e+006  -5.8208e-011   7.9862e+005    0.0071   -0.0000    0.0000    0.0000    0.0133
                1.0326   1.0119e-005  -4.0477e-006   1.1524e-004   2.8334e+005  -1.4552e-011   8.0666e+005    0.0020   -0.0000    0.0000    0.0000    0.0134
                1.3281  -1.6843e-005   6.7372e-006   1.1509e-004  -4.7160e+005   5.8208e-011   8.0561e+005    0.0000    0.0022    0.0000   -0.0000    0.0134
                1.4785  -2.9999e-005   1.1999e-005   1.1451e-004  -8.3996e+005   8.7311e-011   8.0155e+005    0.0000    0.0039    0.0000   -0.0000    0.0134

            panel:  3     
           lam_num    nPlies        tPly      fibAng     matID  matName
               (-)       (-)         (m)       (deg)       (-)  (-)
                 1         1    0.005000      0.0000         2  (blade-shell)
                 2         1    0.160000      0.0000         1  (blade-root)
                 3         1    0.005000      0.0000         2  (blade-shell)

               lamina:  1     
              matName:  (blade-shell)
                     s           e11           e22           e12           s11           s22           s12   s11_fcT   s11_fcC   s22_fcT   s22_fcC   s12_fcS
                   (m)         (m/m)         (m/m)         (rad)          (Pa)          (Pa)          (Pa)       (-)       (-)       (-)       (-)       (-)
                0.0000  -3.5083e-005   1.4033e-005   1.1364e-004  -9.8231e+005   5.8208e-011   7.9547e+005    0.0000    0.0046    0.0000   -0.0000    0.0133
                0.1415  -5.0387e-005   2.0155e-005   1.1278e-004  -1.4108e+006   5.8208e-011   7.8949e+005    0.0000    0.0066    0.0000   -0.0000    0.0132
                0.4357  -8.0657e-005   3.2263e-005   1.1006e-004  -2.2584e+006   2.3283e-010   7.7043e+005    0.0000    0.0106    0.0000   -0.0000    0.0128
                0.7279  -1.1038e-004   4.4154e-005   1.0611e-004  -3.0908e+006   1.1642e-010   7.4278e+005    0.0000    0.0145    0.0000   -0.0000    0.0124
                1.0182  -1.3885e-004   5.5540e-005   1.0099e-004  -3.8878e+006   4.6566e-010   7.0696e+005    0.0000    0.0183    0.0000   -0.0000    0.0118
                1.3049  -1.6588e-004   6.6351e-005   9.4818e-005  -4.6446e+006   4.6566e-010   6.6372e+005    0.0000    0.0218    0.0000   -0.0000    0.0111
                1.5907  -1.9114e-004   7.6456e-005   8.7612e-005  -5.3519e+006   4.6566e-010   6.1328e+005    0.0000    0.0251    0.0000   -0.0000    0.0102
                1.8717  -2.1427e-004   8.5710e-005   7.9570e-005  -5.9997e+006   4.6566e-010   5.5699e+005    0.0000    0.0282    0.0000   -0.0000    0.0093
                2.1493  -2.3517e-004   9.4070e-005   7.0772e-005  -6.5849e+006   4.6566e-010   4.9541e+005    0.0000    0.0309    0.0000   -0.0000    0.0083
                2.4274  -2.5348e-004   1.0139e-004   6.1196e-005  -7.0974e+006   4.6566e-010   4.2837e+005    0.0000    0.0333    0.0000   -0.0000    0.0071
                2.6923  -2.6901e-004   1.0760e-004   5.1454e-005  -7.5321e+006   4.6566e-010   3.6018e+005    0.0000    0.0354    0.0000   -0.0000    0.0060
                2.9799  -2.8188e-004   1.1275e-004   4.0308e-005  -7.8925e+006   4.6566e-010   2.8215e+005    0.0000    0.0371    0.0000   -0.0000    0.0047
                3.2386  -2.9120e-004   1.1648e-004   2.9884e-005  -8.1537e+006   4.6566e-010   2.0919e+005    0.0000    0.0383    0.0000   -0.0000    0.0035
                3.5045  -2.9726e-004   1.1890e-004   1.8883e-005  -8.3233e+006   4.6566e-010   1.3218e+005    0.0000    0.0391    0.0000   -0.0000    0.0022

               lamina:  2     
              matName:  (blade-root)
                     s           e11           e22           e12           s11           s22           s12   s11_fcT   s11_fcC   s22_fcT   s22_fcC   s12_fcS
                   (m)         (m/m)         (m/m)         (rad)          (Pa)          (Pa)          (Pa)       (-)       (-)       (-)       (-)       (-)
                0.0000  -3.4929e-005   1.3971e-005   1.1364e-004  -9.7800e+005   8.7311e-011   7.9547e+005    0.0000    0.0046    0.0000   -0.0000    0.0133
                0.1415  -5.0144e-005   2.0058e-005   1.1278e-004  -1.4040e+006   5.8208e-011   7.8949e+005    0.0000    0.0066    0.0000   -0.0000    0.0132
                0.4357  -8.0297e-005   3.2119e-005   1.1006e-004  -2.2483e+006   2.3283e-010   7.7043e+005    0.0000    0.0106    0.0000   -0.0000    0.0128
                0.7279  -1.0988e-004   4.3954e-005   1.0611e-004  -3.0768e+006   2.3283e-010   7.4278e+005    0.0000    0.0144    0.0000   -0.0000    0.0124
                1.0182  -1.3822e-004   5.5289e-005   1.0099e-004  -3.8702e+006   4.6566e-010   7.0696e+005    0.0000    0.0182    0.0000   -0.0000    0.0118
                1.3049  -1.6512e-004   6.6047e-005   9.4818e-005  -4.6233e+006   4.6566e-010   6.6372e+005    0.0000    0.0217    0.0000   -0.0000    0.0111
                1.5907  -1.9026e-004   7.6103e-005   8.7612e-005  -5.3272e+006   5.8208e-010   6.1328e+005    0.0000    0.0250    0.0000   -0.0000    0.0102
                1.8717  -2.1328e-004   8.5311e-005   7.9570e-005  -5.9718e+006   4.6566e-010   5.5699e+005    0.0000    0.0280    0.0000   -0.0000    0.0093
                2.1493  -2.3407e-004   9.3627e-005   7.0772e-005  -6.5539e+006   6.9849e-010   4.9541e+005    0.0000    0.0308    0.0000   -0.0000    0.0083
                2.4274  -2.5228e-004   1.0091e-004   6.1196e-005  -7.0638e+006   4.6566e-010   4.2837e+005    0.0000    0.0332    0.0000   -0.0000    0.0071
                2.6923  -2.6771e-004   1.0708e-004   5.1454e-005  -7.4959e+006   4.6566e-010   3.6018e+005    0.0000    0.0352    0.0000   -0.0000    0.0060
                2.9799  -2.8051e-004   1.1221e-004   4.0308e-005  -7.8544e+006   4.6566e-010   2.8215e+005    0.0000    0.0369    0.0000   -0.0000    0.0047
                3.2386  -2.8979e-004   1.1592e-004   2.9884e-005  -8.1141e+006   4.6566e-010   2.0919e+005    0.0000    0.0381    0.0000   -0.0000    0.0035
                3.5045  -2.9583e-004   1.1833e-004   1.8883e-005  -8.2831e+006   6.9849e-010   1.3218e+005    0.0000    0.0389    0.0000   -0.0000    0.0022

               lamina:  3     
              matName:  (blade-shell)
                     s           e11           e22           e12           s11           s22           s12   s11_fcT   s11_fcC   s22_fcT   s22_fcC   s12_fcS
                   (m)         (m/m)         (m/m)         (rad)          (Pa)          (Pa)          (Pa)       (-)       (-)       (-)       (-)       (-)
                0.0000  -2.9999e-005   1.1999e-005   1.1364e-004  -8.3996e+005   8.7311e-011   7.9547e+005    0.0000    0.0039    0.0000   -0.0000    0.0133
                0.1415  -4.2364e-005   1.6946e-005   1.1278e-004  -1.1862e+006   5.8208e-011   7.8949e+005    0.0000    0.0056    0.0000   -0.0000    0.0132
                0.4357  -6.8783e-005   2.7513e-005   1.1006e-004  -1.9259e+006   1.7462e-010   7.7043e+005    0.0000    0.0090    0.0000   -0.0000    0.0128
                0.7279  -9.3915e-005   3.7566e-005   1.0611e-004  -2.6296e+006   2.3283e-010   7.4278e+005    0.0000    0.0123    0.0000   -0.0000    0.0124
                1.0182  -1.1811e-004   4.7245e-005   1.0099e-004  -3.3071e+006   4.6566e-010   7.0696e+005    0.0000    0.0155    0.0000   -0.0000    0.0118
                1.3049  -1.4082e-004   5.6326e-005   9.4818e-005  -3.9429e+006   3.4925e-010   6.6372e+005    0.0000    0.0185    0.0000   -0.0000    0.0111
                1.5907  -1.6202e-004   6.4807e-005   8.7612e-005  -4.5365e+006   5.8208e-010   6.1328e+005    0.0000    0.0213    0.0000   -0.0000    0.0102
                1.8717  -1.8140e-004   7.2559e-005   7.9570e-005  -5.0792e+006   4.6566e-010   5.5699e+005    0.0000    0.0238    0.0000   -0.0000    0.0093
                2.1493  -1.9861e-004   7.9445e-005   7.0772e-005  -5.5612e+006   6.9849e-010   4.9541e+005    0.0000    0.0261    0.0000   -0.0000    0.0083
                2.4274  -2.1386e-004   8.5543e-005   6.1196e-005  -5.9880e+006   4.6566e-010   4.2837e+005    0.0000    0.0281    0.0000   -0.0000    0.0071
                2.6923  -2.2632e-004   9.0530e-005   5.1454e-005  -6.3371e+006   2.3283e-010   3.6018e+005    0.0000    0.0298    0.0000   -0.0000    0.0060
                2.9799  -2.3695e-004   9.4779e-005   4.0308e-005  -6.6345e+006   4.6566e-010   2.8215e+005    0.0000    0.0311    0.0000   -0.0000    0.0047
                3.2386  -2.4458e-004   9.7833e-005   2.9884e-005  -6.8483e+006   4.6566e-010   2.0919e+005    0.0000    0.0322    0.0000   -0.0000    0.0035
                3.5045  -2.4993e-004   9.9971e-005   1.8883e-005  -6.9980e+006   6.9849e-010   1.3218e+005    0.0000    0.0329    0.0000   -0.0000    0.0022

  Bottom:  panel  nNode   nLam     xc_St    xc_End         b         t         E_eff         G_eff      nu_eff     density  buckleCrit
            (-)    (-)    (-)       (-)       (-)       (m)       (m)          (Pa)          (Pa)         (-)    (kg/m^3)         (-)
              1     14      3    0.0000    0.3695    3.5509    0.1700   2.8000e+010   7.0000e+009      0.4000   1850.0000      0.0000
              2      7      3    0.3695    0.6300    1.4791    0.1700   2.8000e+010   7.0000e+009      0.4000   1850.0000      0.0006
              3     14      3    0.6300    1.0000    3.4906    0.1700   2.8000e+010   7.0000e+009      0.4000   1850.0000      0.0049

            panel:  1     
           lam_num    nPlies        tPly      fibAng     matID  matName
               (-)       (-)         (m)       (deg)       (-)  (-)
                 1         1    0.005000      0.0000         2  (blade-shell)
                 2         1    0.160000      0.0000         1  (blade-root)
                 3         1    0.005000      0.0000         2  (blade-shell)

               lamina:  1     
              matName:  (blade-shell)
                     s           e11           e22           e12           s11           s22           s12   s11_fcT   s11_fcC   s22_fcT   s22_fcC   s12_fcS
                   (m)         (m/m)         (m/m)         (rad)          (Pa)          (Pa)          (Pa)       (-)       (-)       (-)       (-)       (-)
                0.0000   2.9347e-004  -1.1739e-004   1.4417e-005   8.2171e+006  -1.1642e-009   1.0092e+005    0.0571   -0.0000    0.0000    0.0000    0.0017
                0.2737   2.8732e-004  -1.1493e-004   2.5579e-005   8.0451e+006  -6.9849e-010   1.7905e+005    0.0559   -0.0000    0.0000    0.0000    0.0030
                0.5612   2.7755e-004  -1.1102e-004   3.6981e-005   7.7714e+006  -9.3132e-010   2.5887e+005    0.0540   -0.0000    0.0000    0.0000    0.0043
                0.8406   2.6480e-004  -1.0592e-004   4.7618e-005   7.4145e+006  -4.6566e-010   3.3333e+005    0.0515   -0.0000    0.0000    0.0000    0.0056
                1.1233   2.4913e-004  -9.9653e-005   5.7823e-005   6.9757e+006  -4.6566e-010   4.0476e+005    0.0484   -0.0000    0.0000    0.0000    0.0067
                1.4077   2.3067e-004  -9.2267e-005   6.7412e-005   6.4587e+006  -6.9849e-010   4.7188e+005    0.0449   -0.0000    0.0000    0.0000    0.0079
                1.6911   2.0967e-004  -8.3867e-005   7.6185e-005   5.8707e+006  -4.6566e-010   5.3330e+005    0.0408   -0.0000    0.0000    0.0000    0.0089
                1.9758   1.8642e-004  -7.4569e-005   8.4117e-005   5.2198e+006  -2.3283e-010   5.8882e+005    0.0362   -0.0000    0.0000    0.0000    0.0098
                2.2632   1.6104e-004  -6.4416e-005   9.1147e-005   4.5091e+006  -3.4925e-010   6.3803e+005    0.0313   -0.0000    0.0000    0.0000    0.0106
                2.5492   1.3388e-004  -5.3553e-005   9.7092e-005   3.7487e+006  -5.8208e-010   6.7964e+005    0.0260   -0.0000    0.0000    0.0000    0.0113
                2.8368   1.0531e-004  -4.2123e-005   1.0195e-004   2.9486e+006  -2.3283e-010   7.1365e+005    0.0205   -0.0000    0.0000    0.0000    0.0119
                3.1249   7.5479e-005  -3.0192e-005   1.0564e-004   2.1134e+006  -1.7462e-010   7.3948e+005    0.0147   -0.0000    0.0000    0.0000    0.0123
                3.4146   4.5212e-005  -1.8085e-005   1.0813e-004   1.2659e+006  -5.8208e-011   7.5689e+005    0.0088   -0.0000    0.0000    0.0000    0.0126
                3.5509   3.0180e-005  -1.2072e-005   1.0886e-004   8.4504e+005  -5.8208e-011   7.6205e+005    0.0059   -0.0000    0.0000    0.0000    0.0127

               lamina:  2     
              matName:  (blade-root)
                     s           e11           e22           e12           s11           s22           s12   s11_fcT   s11_fcC   s22_fcT   s22_fcC   s12_fcS
                   (m)         (m/m)         (m/m)         (rad)          (Pa)          (Pa)          (Pa)       (-)       (-)       (-)       (-)       (-)
                0.0000   2.9203e-004  -1.1681e-004   1.4417e-005   8.1770e+006  -1.1642e-009   1.0092e+005    0.0568   -0.0000    0.0000    0.0000    0.0017
                0.2737   2.8591e-004  -1.1436e-004   2.5579e-005   8.0054e+006  -6.9849e-010   1.7905e+005    0.0556   -0.0000    0.0000    0.0000    0.0030
                0.5612   2.7618e-004  -1.1047e-004   3.6981e-005   7.7331e+006  -9.3132e-010   2.5887e+005    0.0537   -0.0000    0.0000    0.0000    0.0043
                0.8406   2.6351e-004  -1.0540e-004   4.7618e-005   7.3782e+006  -9.3132e-010   3.3333e+005    0.0512   -0.0000    0.0000    0.0000    0.0056
                1.1233   2.4792e-004  -9.9167e-005   5.7823e-005   6.9417e+006  -6.9849e-010   4.0476e+005    0.0482   -0.0000    0.0000    0.0000    0.0067
                1.4077   2.2955e-004  -9.1819e-005   6.7412e-005   6.4273e+006  -6.9849e-010   4.7188e+005    0.0446   -0.0000    0.0000    0.0000    0.0079
                1.6911   2.0866e-004  -8.3463e-005   7.6185e-005   5.8424e+006  -4.6566e-010   5.3330e+005    0.0406   -0.0000    0.0000    0.0000    0.0089
                1.9758   1.8553e-004  -7.4211e-005   8.4117e-005   5.1948e+006  -2.3283e-010   5.8882e+005    0.0361   -0.0000    0.0000    0.0000    0.0098
                2.2632   1.6028e-004  -6.4110e-005   9.1147e-005   4.4877e+006  -3.4925e-010   6.3803e+005    0.0312   -0.0000    0.0000    0.0000    0.0106
                2.5492   1.3326e-004  -5.3304e-005   9.7092e-005   3.7313e+006  -5.8208e-010   6.7964e+005    0.0259   -0.0000    0.0000    0.0000    0.0113
                2.8368   1.0483e-004  -4.1932e-005   1.0195e-004   2.9352e+006  -2.3283e-010   7.1365e+005    0.0204   -0.0000    0.0000    0.0000    0.0119
                3.1249   7.5159e-005  -3.0064e-005   1.0564e-004   2.1044e+006  -1.7462e-010   7.3948e+005    0.0146   -0.0000    0.0000    0.0000    0.0123
                3.4146   4.5023e-005  -1.8009e-005   1.0813e-004   1.2606e+006  -8.7311e-011   7.5689e+005    0.0088   -0.0000    0.0000    0.0000    0.0126
                3.5509   3.0091e-005  -1.2036e-005   1.0886e-004   8.4255e+005  -8.7311e-011   7.6205e+005    0.0059   -0.0000    0.0000    0.0000    0.0127

               lamina:  3     
              matName:  (blade-shell)
                     s           e11           e22           e12           s11           s22           s12   s11_fcT   s11_fcC   s22_fcT   s22_fcC   s12_fcS
                   (m)         (m/m)         (m/m)         (rad)          (Pa)          (Pa)          (Pa)       (-)       (-)       (-)       (-)       (-)
                0.0000   2.4612e-004  -9.8448e-005   1.4417e-005   6.8914e+006  -9.3132e-010   1.0092e+005    0.0479   -0.0000    0.0000    0.0000    0.0017
                0.2737   2.4060e-004  -9.6241e-005   2.5579e-005   6.7369e+006  -6.9849e-010   1.7905e+005    0.0468   -0.0000    0.0000    0.0000    0.0030
                0.5612   2.3248e-004  -9.2991e-005   3.6981e-005   6.5093e+006  -9.3132e-010   2.5887e+005    0.0452   -0.0000    0.0000    0.0000    0.0043
                0.8406   2.2200e-004  -8.8800e-005   4.7618e-005   6.2160e+006  -9.3132e-010   3.3333e+005    0.0432   -0.0000    0.0000    0.0000    0.0056
                1.1233   2.0898e-004  -8.3591e-005   5.7823e-005   5.8514e+006  -6.9849e-010   4.0476e+005    0.0406   -0.0000    0.0000    0.0000    0.0067
                1.4077   1.9368e-004  -7.7473e-005   6.7412e-005   5.4231e+006  -6.9849e-010   4.7188e+005    0.0377   -0.0000    0.0000    0.0000    0.0079
                1.6911   1.7633e-004  -7.0534e-005   7.6185e-005   4.9373e+006  -4.6566e-010   5.3330e+005    0.0343   -0.0000    0.0000    0.0000    0.0089
                1.9758   1.5693e-004  -6.2770e-005   8.4117e-005   4.3939e+006  -3.4925e-010   5.8882e+005    0.0305   -0.0000    0.0000    0.0000    0.0098
                2.2632   1.3581e-004  -5.4326e-005   9.1147e-005   3.8028e+006  -3.4925e-010   6.3803e+005    0.0264   -0.0000    0.0000    0.0000    0.0106
                2.5492   1.1336e-004  -4.5342e-005   9.7092e-005   3.1740e+006  -4.6566e-010   6.7964e+005    0.0220   -0.0000    0.0000    0.0000    0.0113
                2.8368   8.9528e-005  -3.5811e-005   1.0195e-004   2.5068e+006  -2.3283e-010   7.1365e+005    0.0174   -0.0000    0.0000    0.0000    0.0119
                3.1249   6.4902e-005  -2.5961e-005   1.0564e-004   1.8172e+006  -1.7462e-010   7.3948e+005    0.0126   -0.0000    0.0000    0.0000    0.0123
                3.4146   3.8986e-005  -1.5594e-005   1.0813e-004   1.0916e+006  -1.1642e-010   7.5689e+005    0.0076   -0.0000    0.0000    0.0000    0.0126
                3.5509   2.7251e-005  -1.0900e-005   1.0886e-004   7.6303e+005  -8.7311e-011   7.6205e+005    0.0053   -0.0000    0.0000    0.0000    0.0127

            panel:  2     
           lam_num    nPlies        tPly      fibAng     matID  matName
               (-)       (-)         (m)       (deg)       (-)  (-)
                 1         1    0.005000      0.0000         2  (blade-shell)
                 2         1    0.160000      0.0000         1  (blade-root)
                 3         1    0.005000      0.0000         2  (blade-shell)

               lamina:  1     
              matName:  (blade-shell)
                     s           e11           e22           e12           s11           s22           s12   s11_fcT   s11_fcC   s22_fcT   s22_fcC   s12_fcS
                   (m)         (m/m)         (m/m)         (rad)          (Pa)          (Pa)          (Pa)       (-)       (-)       (-)       (-)       (-)
                0.0000   3.0180e-005  -1.2072e-005   1.0968e-004   8.4504e+005  -8.7311e-011   7.6775e+005    0.0059   -0.0000    0.0000    0.0000    0.0128
                0.1511   1.3658e-005  -5.4633e-006   1.1017e-004   3.8243e+005  -2.9104e-011   7.7120e+005    0.0027   -0.0000    0.0000    0.0000    0.0129
                0.4439  -1.7256e-005   6.9023e-006   1.1015e-004  -4.8316e+005   2.9104e-011   7.7106e+005    0.0000    0.0023    0.0000   -0.0000    0.0129
                0.7370  -4.8128e-005   1.9251e-005   1.0885e-004  -1.3476e+006   1.1642e-010   7.6195e+005    0.0000    0.0063    0.0000   -0.0000    0.0127
                1.0315  -7.8474e-005   3.1390e-005   1.0627e-004  -2.1973e+006   1.7462e-010   7.4389e+005    0.0000    0.0103    0.0000   -0.0000    0.0124
                1.3280  -1.0775e-004   4.3098e-005   1.0242e-004  -3.0169e+006   2.3283e-010   7.1692e+005    0.0000    0.0142    0.0000   -0.0000    0.0119
                1.4791  -1.2256e-004   4.9025e-005   9.9982e-005  -3.4317e+006   2.3283e-010   6.9987e+005    0.0000    0.0161    0.0000   -0.0000    0.0117

               lamina:  2     
              matName:  (blade-root)
                     s           e11           e22           e12           s11           s22           s12   s11_fcT   s11_fcC   s22_fcT   s22_fcC   s12_fcS
                   (m)         (m/m)         (m/m)         (rad)          (Pa)          (Pa)          (Pa)       (-)       (-)       (-)       (-)       (-)
                0.0000   3.0091e-005  -1.2036e-005   1.0968e-004   8.4255e+005  -8.7311e-011   7.6775e+005    0.0059   -0.0000    0.0000    0.0000    0.0128
                0.1511   1.4118e-005  -5.6473e-006   1.1017e-004   3.9531e+005  -2.9104e-011   7.7120e+005    0.0027   -0.0000    0.0000    0.0000    0.0129
                0.4439  -1.7110e-005   6.8438e-006   1.1015e-004  -4.7907e+005   4.3656e-011   7.7106e+005    0.0000    0.0022    0.0000   -0.0000    0.0129
                0.7370  -4.7836e-005   1.9134e-005   1.0885e-004  -1.3394e+006   1.1642e-010   7.6195e+005    0.0000    0.0063    0.0000   -0.0000    0.0127
                1.0315  -7.8043e-005   3.1217e-005   1.0627e-004  -2.1852e+006   1.7462e-010   7.4389e+005    0.0000    0.0103    0.0000   -0.0000    0.0124
                1.3280  -1.0720e-004   4.2880e-005   1.0242e-004  -3.0016e+006   3.4925e-010   7.1692e+005    0.0000    0.0141    0.0000   -0.0000    0.0119
                1.4791  -1.2193e-004   4.8772e-005   9.9982e-005  -3.4141e+006   2.3283e-010   6.9987e+005    0.0000    0.0160    0.0000   -0.0000    0.0117

               lamina:  3     
              matName:  (blade-shell)
                     s           e11           e22           e12           s11           s22           s12   s11_fcT   s11_fcC   s22_fcT   s22_fcC   s12_fcS
                   (m)         (m/m)         (m/m)         (rad)          (Pa)          (Pa)          (Pa)       (-)       (-)       (-)       (-)       (-)
                0.0000   2.7251e-005  -1.0900e-005   1.0968e-004   7.6303e+005  -8.7311e-011   7.6775e+005    0.0053   -0.0000    0.0000    0.0000    0.0128
                0.1511   1.4133e-005  -5.6530e-006   1.1017e-004   3.9571e+005  -2.9104e-011   7.7120e+005    0.0027   -0.0000    0.0000    0.0000    0.0129
                0.4439  -1.2430e-005   4.9721e-006   1.1015e-004  -3.4805e+005   4.3656e-011   7.7106e+005    0.0000    0.0016    0.0000   -0.0000    0.0129
                0.7370  -3.8496e-005   1.5398e-005   1.0885e-004  -1.0779e+006   8.7311e-011   7.6195e+005    0.0000    0.0051    0.0000   -0.0000    0.0127
                1.0315  -6.4250e-005   2.5700e-005   1.0627e-004  -1.7990e+006   2.3283e-010   7.4389e+005    0.0000    0.0084    0.0000   -0.0000    0.0124
                1.3280  -8.9723e-005   3.5889e-005   1.0242e-004  -2.5122e+006   3.4925e-010   7.1692e+005    0.0000    0.0118    0.0000   -0.0000    0.0119
                1.4791  -1.0172e-004   4.0690e-005   9.9982e-005  -2.8483e+006   3.4925e-010   6.9987e+005    0.0000    0.0134    0.0000   -0.0000    0.0117

            panel:  3     
           lam_num    nPlies        tPly      fibAng     matID  matName
               (-)       (-)         (m)       (deg)       (-)  (-)
                 1         1    0.005000      0.0000         2  (blade-shell)
                 2         1    0.160000      0.0000         1  (blade-root)
                 3         1    0.005000      0.0000         2  (blade-shell)

               lamina:  1     
              matName:  (blade-shell)
                     s           e11           e22           e12           s11           s22           s12   s11_fcT   s11_fcC   s22_fcT   s22_fcC   s12_fcS
                   (m)         (m/m)         (m/m)         (rad)          (Pa)          (Pa)          (Pa)       (-)       (-)       (-)       (-)       (-)
                0.0000  -1.2256e-004   4.9025e-005   1.0016e-004  -3.4317e+006   2.3283e-010   7.0110e+005    0.0000    0.0161    0.0000   -0.0000    0.0117
                0.1422  -1.3647e-004   5.4590e-005   9.7583e-005  -3.8213e+006   1.1642e-010   6.8308e+005    0.0000    0.0179    0.0000   -0.0000    0.0114
                0.4381  -1.6313e-004   6.5252e-005   9.1376e-005  -4.5676e+006   3.4925e-010   6.3964e+005    0.0000    0.0214    0.0000   -0.0000    0.0107
                0.7316  -1.8828e-004   7.5312e-005   8.4133e-005  -5.2719e+006   2.3283e-010   5.8893e+005    0.0000    0.0248    0.0000   -0.0000    0.0098
                1.0229  -2.1141e-004   8.4564e-005   7.5950e-005  -5.9195e+006   2.3283e-010   5.3165e+005    0.0000    0.0278    0.0000   -0.0000    0.0089
                1.3098  -2.3239e-004   9.2958e-005   6.6994e-005  -6.5070e+006   4.6566e-010   4.6896e+005    0.0000    0.0305    0.0000   -0.0000    0.0078
                1.5950  -2.5086e-004   1.0034e-004   5.7300e-005  -7.0241e+006   6.9849e-010   4.0110e+005    0.0000    0.0330    0.0000   -0.0000    0.0067
                1.8741  -2.6670e-004   1.0668e-004   4.7138e-005  -7.4676e+006   9.3132e-010   3.2996e+005    0.0000    0.0351    0.0000   -0.0000    0.0055
                2.1491  -2.7973e-004   1.1189e-004   3.6569e-005  -7.8323e+006   9.3132e-010   2.5599e+005    0.0000    0.0368    0.0000   -0.0000    0.0043
                2.4222  -2.8969e-004   1.1588e-004   2.5637e-005  -8.1114e+006   9.3132e-010   1.7946e+005    0.0000    0.0381    0.0000   -0.0000    0.0030
                2.6915  -2.9652e-004   1.1861e-004   1.4543e-005  -8.3026e+006   6.9849e-010   1.0180e+005    0.0000    0.0390    0.0000   -0.0000    0.0017
                2.9562  -3.0015e-004   1.2006e-004   3.4464e-006  -8.4043e+006   4.6566e-010   2.4125e+004    0.0000    0.0395    0.0000   -0.0000    0.0004
                3.2281  -3.0035e-004   1.2014e-004   8.0217e-006  -8.4097e+006   4.6566e-010   5.6152e+004    0.0000    0.0395    0.0000   -0.0000    0.0009
                3.4906  -2.9758e-004   1.1903e-004   1.9045e-005  -8.3321e+006   9.3132e-010   1.3332e+005    0.0000    0.0391    0.0000   -0.0000    0.0022

               lamina:  2     
              matName:  (blade-root)
                     s           e11           e22           e12           s11           s22           s12   s11_fcT   s11_fcC   s22_fcT   s22_fcC   s12_fcS
                   (m)         (m/m)         (m/m)         (rad)          (Pa)          (Pa)          (Pa)       (-)       (-)       (-)       (-)       (-)
                0.0000  -1.2193e-004   4.8772e-005   1.0016e-004  -3.4141e+006   3.4925e-010   7.0110e+005    0.0000    0.0160    0.0000   -0.0000    0.0117
                0.1422  -1.3577e-004   5.4306e-005   9.7583e-005  -3.8014e+006   1.1642e-010   6.8308e+005    0.0000    0.0178    0.0000   -0.0000    0.0114
                0.4381  -1.6232e-004   6.4929e-005   9.1376e-005  -4.5450e+006   3.4925e-010   6.3964e+005    0.0000    0.0213    0.0000   -0.0000    0.0107
                0.7316  -1.8736e-004   7.4944e-005   8.4133e-005  -5.2461e+006   2.3283e-010   5.8893e+005    0.0000    0.0246    0.0000   -0.0000    0.0098
                1.0229  -2.1039e-004   8.4155e-005   7.5950e-005  -5.8909e+006   2.3283e-010   5.3165e+005    0.0000    0.0277    0.0000   -0.0000    0.0089
                1.3098  -2.3127e-004   9.2510e-005   6.6994e-005  -6.4757e+006   4.6566e-010   4.6896e+005    0.0000    0.0304    0.0000   -0.0000    0.0078
                1.5950  -2.4965e-004   9.9861e-005   5.7300e-005  -6.9903e+006   6.9849e-010   4.0110e+005    0.0000    0.0328    0.0000   -0.0000    0.0067
                1.8741  -2.6541e-004   1.0617e-004   4.7138e-005  -7.4316e+006   9.3132e-010   3.2996e+005    0.0000    0.0349    0.0000   -0.0000    0.0055
                2.1491  -2.7837e-004   1.1135e-004   3.6569e-005  -7.7944e+006   6.9849e-010   2.5599e+005    0.0000    0.0366    0.0000   -0.0000    0.0043
                2.4222  -2.8829e-004   1.1531e-004   2.5637e-005  -8.0720e+006   9.3132e-010   1.7946e+005    0.0000    0.0379    0.0000   -0.0000    0.0030
                2.6915  -2.9508e-004   1.1803e-004   1.4543e-005  -8.2622e+006   9.3132e-010   1.0180e+005    0.0000    0.0388    0.0000   -0.0000    0.0017
                2.9562  -2.9869e-004   1.1947e-004   3.4464e-006  -8.3632e+006   6.9849e-010   2.4125e+004    0.0000    0.0393    0.0000   -0.0000    0.0004
                3.2281  -2.9888e-004   1.1955e-004   8.0217e-006  -8.3685e+006   4.6566e-010   5.6152e+004    0.0000    0.0393    0.0000   -0.0000    0.0009
                3.4906  -2.9611e-004   1.1845e-004   1.9045e-005  -8.2912e+006   9.3132e-010   1.3332e+005    0.0000    0.0389    0.0000   -0.0000    0.0022

               lamina:  3     
              matName:  (blade-shell)
                     s           e11           e22           e12           s11           s22           s12   s11_fcT   s11_fcC   s22_fcT   s22_fcC   s12_fcS
                   (m)         (m/m)         (m/m)         (rad)          (Pa)          (Pa)          (Pa)       (-)       (-)       (-)       (-)       (-)
                0.0000  -1.0172e-004   4.0690e-005   1.0016e-004  -2.8483e+006   3.4925e-010   7.0110e+005    0.0000    0.0134    0.0000   -0.0000    0.0117
                0.1422  -1.1307e-004   4.5229e-005   9.7583e-005  -3.1661e+006   1.1642e-010   6.8308e+005    0.0000    0.0149    0.0000   -0.0000    0.0114
                0.4381  -1.3649e-004   5.4595e-005   9.1376e-005  -3.8216e+006   4.6566e-010   6.3964e+005    0.0000    0.0179    0.0000   -0.0000    0.0107
                0.7316  -1.5792e-004   6.3166e-005   8.4133e-005  -4.4217e+006   2.3283e-010   5.8893e+005    0.0000    0.0208    0.0000   -0.0000    0.0098
                1.0229  -1.7771e-004   7.1086e-005   7.5950e-005  -4.9760e+006   2.3283e-010   5.3165e+005    0.0000    0.0234    0.0000   -0.0000    0.0089
                1.3098  -1.9545e-004   7.8179e-005   6.6994e-005  -5.4725e+006   4.6566e-010   4.6896e+005    0.0000    0.0257    0.0000   -0.0000    0.0078
                1.5950  -2.1101e-004   8.4404e-005   5.7300e-005  -5.9083e+006   4.6566e-010   4.0110e+005    0.0000    0.0277    0.0000   -0.0000    0.0067
                1.8741  -2.2431e-004   8.9724e-005   4.7138e-005  -6.2807e+006   9.3132e-010   3.2996e+005    0.0000    0.0295    0.0000   -0.0000    0.0055
                2.1491  -2.3505e-004   9.4019e-005   3.6569e-005  -6.5813e+006   6.9849e-010   2.5599e+005    0.0000    0.0309    0.0000   -0.0000    0.0043
                2.4222  -2.4323e-004   9.7290e-005   2.5637e-005  -6.8103e+006   9.3132e-010   1.7946e+005    0.0000    0.0320    0.0000   -0.0000    0.0030
                2.6915  -2.4881e-004   9.9525e-005   1.4543e-005  -6.9668e+006   9.3132e-010   1.0180e+005    0.0000    0.0327    0.0000   -0.0000    0.0017
                2.9562  -2.5175e-004   1.0070e-004   3.4464e-006  -7.0489e+006   6.9849e-010   2.4125e+004    0.0000    0.0331    0.0000   -0.0000    0.0004
                3.2281  -2.5189e-004   1.0076e-004   8.0217e-006  -7.0529e+006   4.6566e-010   5.6152e+004    0.0000    0.0331    0.0000   -0.0000    0.0009
                3.4906  -2.4932e-004   9.9730e-005   1.9045e-005  -6.9811e+006   6.9849e-010   1.3332e+005    0.0000    0.0328    0.0000   -0.0000    0.0022

     Web:  panel  nNode   nLam     xc_St    xc_End         b         t         E_eff         G_eff      nu_eff     density  buckleCrit
            (-)    (-)    (-)       (-)       (-)       (m)       (m)          (Pa)          (Pa)         (-)    (kg/m^3)         (-)
              1     10      3    0.3695    0.3695    4.9317    0.0830   7.6445e+008   4.5301e+008      0.4420    257.1084      0.0000
              2     10      3    0.6300    0.6300    4.8527    0.0830   7.6445e+008   4.5301e+008      0.4420    257.1084      0.0004

            panel:  1     
           lam_num    nPlies        tPly      fibAng     matID  matName
               (-)       (-)         (m)       (deg)       (-)  (-)
                 1         1    0.001500      0.0000         7  (web-shell)
                 2         1    0.080000      0.0000         8  (web-core)
                 3         1    0.001500      0.0000         7  (web-shell)

               lamina:  1     
              matName:  (web-shell)
                     s           e11           e22           e12           s11           s22           s12   s11_fcT   s11_fcC   s22_fcT   s22_fcC   s12_fcS
                   (m)         (m/m)         (m/m)         (rad)          (Pa)          (Pa)          (Pa)       (-)       (-)       (-)       (-)       (-)
                0.0000   1.0094e-004  -4.4436e-005   4.3904e-006   1.4694e+006   1.1260e+005   5.2685e+004    0.0102   -0.0000    0.0000   -0.0000    0.0006
                0.5480   9.2273e-005  -4.0606e-005   7.9961e-006   1.3434e+006   1.0323e+005   9.5953e+004    0.0093   -0.0000    0.0000   -0.0000    0.0011
                1.0959   8.3610e-005  -3.6777e-005   1.1295e-005   1.2175e+006   9.3854e+004   1.3554e+005    0.0085   -0.0000    0.0000   -0.0000    0.0015
                1.6439   7.4946e-005  -3.2947e-005   1.4287e-005   1.0915e+006   8.4479e+004   1.7144e+005    0.0076   -0.0000    0.0000   -0.0000    0.0019
                2.1918   6.6283e-005  -2.9118e-005   1.6972e-005   9.6551e+005   7.5105e+004   2.0366e+005    0.0067   -0.0000    0.0000   -0.0000    0.0023
                2.7398   5.7620e-005  -2.5289e-005   1.9350e-005   8.3954e+005   6.5730e+004   2.3220e+005    0.0058   -0.0000    0.0000   -0.0000    0.0026
                3.2878   4.8957e-005  -2.1459e-005   2.1421e-005   7.1357e+005   5.6355e+004   2.5706e+005    0.0050   -0.0000    0.0000   -0.0000    0.0029
                3.8357   4.0293e-005  -1.7630e-005   2.3186e-005   5.8760e+005   4.6981e+004   2.7823e+005    0.0041   -0.0000    0.0000   -0.0000    0.0031
                4.3837   3.1630e-005  -1.3800e-005   2.4643e-005   4.6162e+005   3.7606e+004   2.9572e+005    0.0032   -0.0000    0.0000   -0.0000    0.0033
                4.9317   2.2967e-005  -9.9710e-006   2.5794e-005   3.3565e+005   2.8231e+004   3.0953e+005    0.0023   -0.0000    0.0000   -0.0000    0.0034

               lamina:  2     
              matName:  (web-core)
                     s           e11           e22           e12           s11           s22           s12   s11_fcT   s11_fcC   s22_fcT   s22_fcC   s12_fcS
                   (m)         (m/m)         (m/m)         (rad)          (Pa)          (Pa)          (Pa)       (-)       (-)       (-)       (-)       (-)
                0.0000   1.1134e-004  -4.9396e-005   4.3904e-006   2.7577e+004  -4.5698e+003   8.7808e+001    0.0000   -0.0000    0.0000    0.0000    0.0000
                0.5480   1.0268e-004  -4.5567e-005   7.9961e-006   2.5430e+004  -4.2183e+003   1.5992e+002    0.0000   -0.0000    0.0000    0.0000    0.0000
                1.0959   9.4012e-005  -4.1737e-005   1.1295e-005   2.3283e+004  -3.8667e+003   2.2590e+002    0.0000   -0.0000    0.0000    0.0000    0.0000
                1.6439   8.5349e-005  -3.7908e-005   1.4287e-005   2.1136e+004  -3.5151e+003   2.8574e+002    0.0000   -0.0000    0.0000    0.0000    0.0000
                2.1918   7.6686e-005  -3.4078e-005   1.6972e-005   1.8989e+004  -3.1636e+003   3.3944e+002    0.0000   -0.0000    0.0000    0.0000    0.0000
                2.7398   6.8023e-005  -3.0249e-005   1.9350e-005   1.6842e+004  -2.8120e+003   3.8700e+002    0.0000   -0.0000    0.0000    0.0000    0.0000
                3.2878   5.9359e-005  -2.6420e-005   2.1421e-005   1.4695e+004  -2.4605e+003   4.2843e+002    0.0000   -0.0000    0.0000    0.0000    0.0000
                3.8357   5.0696e-005  -2.2590e-005   2.3186e-005   1.2548e+004  -2.1089e+003   4.6372e+002    0.0000   -0.0000    0.0000    0.0000    0.0000
                4.3837   4.2033e-005  -1.8761e-005   2.4643e-005   1.0401e+004  -1.7574e+003   4.9287e+002    0.0000   -0.0000    0.0000    0.0000    0.0000
                4.9317   3.3370e-005  -1.4931e-005   2.5794e-005   8.2543e+003  -1.4058e+003   5.1588e+002    0.0000   -0.0000    0.0000    0.0000    0.0000

               lamina:  3     
              matName:  (web-shell)
                     s           e11           e22           e12           s11           s22           s12   s11_fcT   s11_fcC   s22_fcT   s22_fcC   s12_fcS
                   (m)         (m/m)         (m/m)         (rad)          (Pa)          (Pa)          (Pa)       (-)       (-)       (-)       (-)       (-)
                0.0000   1.1153e-004  -4.9489e-005   4.3904e-006   1.6201e+006   1.1719e+005   5.2685e+004    0.0113   -0.0000    0.0000   -0.0000    0.0006
                0.5480   1.0287e-004  -4.5660e-005   7.9961e-006   1.4941e+006   1.0781e+005   9.5953e+004    0.0104   -0.0000    0.0000   -0.0000    0.0011
                1.0959   9.4207e-005  -4.1830e-005   1.1295e-005   1.3681e+006   9.8439e+004   1.3554e+005    0.0095   -0.0000    0.0000   -0.0000    0.0015
                1.6439   8.5544e-005  -3.8001e-005   1.4287e-005   1.2421e+006   8.9065e+004   1.7144e+005    0.0086   -0.0000    0.0000   -0.0000    0.0019
                2.1918   7.6881e-005  -3.4171e-005   1.6972e-005   1.1162e+006   7.9690e+004   2.0366e+005    0.0078   -0.0000    0.0000   -0.0000    0.0023
                2.7398   6.8218e-005  -3.0342e-005   1.9350e-005   9.9020e+005   7.0315e+004   2.3220e+005    0.0069   -0.0000    0.0000   -0.0000    0.0026
                3.2878   5.9554e-005  -2.6513e-005   2.1421e-005   8.6423e+005   6.0940e+004   2.5706e+005    0.0060   -0.0000    0.0000   -0.0000    0.0029
                3.8357   5.0891e-005  -2.2683e-005   2.3186e-005   7.3826e+005   5.1566e+004   2.7823e+005    0.0051   -0.0000    0.0000   -0.0000    0.0031
                4.3837   4.2228e-005  -1.8854e-005   2.4643e-005   6.1229e+005   4.2191e+004   2.9572e+005    0.0043   -0.0000    0.0000   -0.0000    0.0033
                4.9317   3.3565e-005  -1.5024e-005   2.5794e-005   4.8631e+005   3.2816e+004   3.0953e+005    0.0034   -0.0000    0.0000   -0.0000    0.0034

            panel:  2     
           lam_num    nPlies        tPly      fibAng     matID  matName
               (-)       (-)         (m)       (deg)       (-)  (-)
                 1         1    0.001500      0.0000         7  (web-shell)
                 2         1    0.080000      0.0000         8  (web-core)
                 3         1    0.001500      0.0000         7  (web-shell)

               lamina:  1     
              matName:  (web-shell)
                     s           e11           e22           e12           s11           s22           s12   s11_fcT   s11_fcC   s22_fcT   s22_fcC   s12_fcS
                   (m)         (m/m)         (m/m)         (rad)          (Pa)          (Pa)          (Pa)       (-)       (-)       (-)       (-)       (-)
                0.0000  -3.6987e-005   1.6537e-005   2.7500e-005  -5.3608e+005  -3.6520e+004   3.3000e+005    0.0000    0.0025    0.0000    0.0000    0.0037
                0.5392  -4.5505e-005   2.0302e-005   2.6250e-005  -6.5994e+005  -4.5737e+004   3.1500e+005    0.0000    0.0031    0.0000    0.0000    0.0035
                1.0784  -5.4022e-005   2.4067e-005   2.4703e-005  -7.8379e+005  -5.4954e+004   2.9644e+005    0.0000    0.0037    0.0000    0.0000    0.0033
                1.6176  -6.2540e-005   2.7832e-005   2.2860e-005  -9.0765e+005  -6.4171e+004   2.7432e+005    0.0000    0.0043    0.0000    0.0000    0.0030
                2.1568  -7.1058e-005   3.1597e-005   2.0719e-005  -1.0315e+006  -7.3388e+004   2.4863e+005    0.0000    0.0048    0.0000    0.0000    0.0028
                2.6960  -7.9575e-005   3.5362e-005   1.8282e-005  -1.1554e+006  -8.2605e+004   2.1938e+005    0.0000    0.0054    0.0000    0.0000    0.0024
                3.2351  -8.8093e-005   3.9127e-005   1.5547e-005  -1.2792e+006  -9.1823e+004   1.8657e+005    0.0000    0.0060    0.0000    0.0000    0.0021
                3.7743  -9.6610e-005   4.2892e-005   1.2516e-005  -1.4031e+006  -1.0104e+005   1.5020e+005    0.0000    0.0066    0.0000    0.0000    0.0017
                4.3135  -1.0513e-004   4.6657e-005   9.1883e-006  -1.5269e+006  -1.1026e+005   1.1026e+005    0.0000    0.0072    0.0000    0.0000    0.0012
                4.8527  -1.1365e-004   5.0422e-005   5.5634e-006  -1.6508e+006  -1.1947e+005   6.6760e+004    0.0000    0.0078    0.0000    0.0000    0.0007

               lamina:  2     
              matName:  (web-core)
                     s           e11           e22           e12           s11           s22           s12   s11_fcT   s11_fcC   s22_fcT   s22_fcC   s12_fcS
                   (m)         (m/m)         (m/m)         (rad)          (Pa)          (Pa)          (Pa)       (-)       (-)       (-)       (-)       (-)
                0.0000  -3.6792e-005   1.6444e-005   2.7500e-005  -9.1025e+003   1.5447e+003   5.5000e+002    0.0000    0.0000    0.0000   -0.0000    0.0000
                0.5392  -4.5310e-005   2.0209e-005   2.6250e-005  -1.1213e+004   1.8904e+003   5.2500e+002    0.0000    0.0000    0.0000   -0.0000    0.0000
                1.0784  -5.3827e-005   2.3974e-005   2.4703e-005  -1.3324e+004   2.2360e+003   4.9406e+002    0.0000    0.0000    0.0000   -0.0000    0.0000
                1.6176  -6.2345e-005   2.7739e-005   2.2860e-005  -1.5435e+004   2.5816e+003   4.5719e+002    0.0000    0.0000    0.0000   -0.0000    0.0000
                2.1568  -7.0863e-005   3.1504e-005   2.0719e-005  -1.7546e+004   2.9273e+003   4.1438e+002    0.0000    0.0000    0.0000   -0.0000    0.0000
                2.6960  -7.9380e-005   3.5269e-005   1.8282e-005  -1.9657e+004   3.2729e+003   3.6563e+002    0.0000    0.0000    0.0000   -0.0000    0.0000
                3.2351  -8.7898e-005   3.9034e-005   1.5547e-005  -2.1768e+004   3.6186e+003   3.1095e+002    0.0000    0.0000    0.0000   -0.0000    0.0000
                3.7743  -9.6415e-005   4.2799e-005   1.2516e-005  -2.3879e+004   3.9642e+003   2.5033e+002    0.0000    0.0000    0.0000   -0.0000    0.0000
                4.3135  -1.0493e-004   4.6564e-005   9.1883e-006  -2.5990e+004   4.3099e+003   1.8377e+002    0.0000    0.0000    0.0000   -0.0000    0.0000
                4.8527  -1.1345e-004   5.0329e-005   5.5634e-006  -2.8100e+004   4.6555e+003   1.1127e+002    0.0000    0.0000    0.0000   -0.0000    0.0000

               lamina:  3     
              matName:  (web-shell)
                     s           e11           e22           e12           s11           s22           s12   s11_fcT   s11_fcC   s22_fcT   s22_fcC   s12_fcS
                   (m)         (m/m)         (m/m)         (rad)          (Pa)          (Pa)          (Pa)       (-)       (-)       (-)       (-)       (-)
                0.0000  -2.6389e-005   1.1484e-005   2.7500e-005  -3.8541e+005  -3.1935e+004   3.3000e+005    0.0000    0.0018    0.0000    0.0000    0.0037
                0.5392  -3.4907e-005   1.5249e-005   2.6250e-005  -5.0927e+005  -4.1152e+004   3.1500e+005    0.0000    0.0024    0.0000    0.0000    0.0035
                1.0784  -4.3424e-005   1.9014e-005   2.4703e-005  -6.3312e+005  -5.0369e+004   2.9644e+005    0.0000    0.0030    0.0000    0.0000    0.0033
                1.6176  -5.1942e-005   2.2779e-005   2.2860e-005  -7.5698e+005  -5.9586e+004   2.7432e+005    0.0000    0.0036    0.0000    0.0000    0.0030
                2.1568  -6.0460e-005   2.6544e-005   2.0719e-005  -8.8083e+005  -6.8803e+004   2.4863e+005    0.0000    0.0041    0.0000    0.0000    0.0028
                2.6960  -6.8977e-005   3.0309e-005   1.8282e-005  -1.0047e+006  -7.8020e+004   2.1938e+005    0.0000    0.0047    0.0000    0.0000    0.0024
                3.2351  -7.7495e-005   3.4074e-005   1.5547e-005  -1.1285e+006  -8.7237e+004   1.8657e+005    0.0000    0.0053    0.0000    0.0000    0.0021
                3.7743  -8.6012e-005   3.7839e-005   1.2516e-005  -1.2524e+006  -9.6454e+004   1.5020e+005    0.0000    0.0059    0.0000    0.0000    0.0017
                4.3135  -9.4530e-005   4.1604e-005   9.1883e-006  -1.3763e+006  -1.0567e+005   1.1026e+005    0.0000    0.0065    0.0000    0.0000    0.0012
                4.8527  -1.0305e-004   4.5369e-005   5.5634e-006  -1.5001e+006  -1.1489e+005   6.6760e+004    0.0000    0.0070    0.0000    0.0000    0.0007

================================================================================
sec        =  5      
zSec       =  3.8000  (m)
nPanelsTop =  4      
nPanelsBot =  4      
nWebs      =  2      

    Top:  panel  nNode   nLam     xc_St    xc_End         b         t         E_eff         G_eff      nu_eff     density  buckleCrit
            (-)    (-)    (-)       (-)       (-)       (m)       (m)          (Pa)          (Pa)         (-)    (kg/m^3)         (-)
              1     14      5    0.0000    0.3646    3.5083    0.1608   2.7043e+010   6.7591e+009      0.3999   1793.0421      0.0000
              2      7      7    0.3646    0.6154    1.4672    0.1678   2.9064e+010   6.7001e+009      0.3915   1855.2459      0.0000
              3      2      5    0.6154    0.6169    0.0088    0.1608   2.7043e+010   6.7591e+009      0.3999   1793.0421      0.0000
              4     14      5    0.6169    1.0000    3.5355    0.1608   2.7043e+010   6.7591e+009      0.3999   1793.0421      0.0043

            panel:  1     
           lam_num    nPlies        tPly      fibAng     matID  matName
               (-)       (-)         (m)       (deg)       (-)  (-)
                 1         1    0.005000      0.0000         2  (blade-shell)
                 2         1    0.072601      0.0000         1  (blade-root)
                 3         1    0.005549      0.0000         5  (LEP-core)
                 4         1    0.072601      0.0000         1  (blade-root)
                 5         1    0.005000      0.0000         2  (blade-shell)

               lamina:  1     
              matName:  (blade-shell)
                     s           e11           e22           e12           s11           s22           s12   s11_fcT   s11_fcC   s22_fcT   s22_fcC   s12_fcS
                   (m)         (m/m)         (m/m)         (rad)          (Pa)          (Pa)          (Pa)       (-)       (-)       (-)       (-)       (-)
                0.0000   2.9415e-004  -1.1764e-004   1.5489e-005   8.2364e+006   2.7745e+002   1.0842e+005    0.0572   -0.0000    0.0000   -0.0000    0.0018
                0.2700   2.9735e-004  -1.1892e-004   4.3352e-006   8.3259e+006   2.8060e+002   3.0347e+004    0.0578   -0.0000    0.0000   -0.0000    0.0005
                0.5393   2.9738e-004  -1.1893e-004   6.8497e-006   8.3267e+006   2.8061e+002   4.7948e+004    0.0578   -0.0000    0.0000   -0.0000    0.0008
                0.8310   2.9446e-004  -1.1777e-004   1.8910e-005   8.2450e+006   2.7791e+002   1.3237e+005    0.0573   -0.0000    0.0000   -0.0000    0.0022
                1.1015   2.8781e-004  -1.1511e-004   2.9915e-005   8.0588e+006   2.7173e+002   2.0941e+005    0.0560   -0.0000    0.0000   -0.0000    0.0035
                1.3831   2.7813e-004  -1.1124e-004   4.1055e-005   7.7878e+006   2.6267e+002   2.8738e+005    0.0541   -0.0000    0.0000   -0.0000    0.0048
                1.6628   2.6522e-004  -1.0607e-004   5.1681e-005   7.4262e+006   2.5064e+002   3.6177e+005    0.0516   -0.0000    0.0000   -0.0000    0.0060
                1.9453   2.4937e-004  -9.9732e-005   6.1851e-005   6.9824e+006   2.3577e+002   4.3296e+005    0.0485   -0.0000    0.0000   -0.0000    0.0072
                2.2317   2.3073e-004  -9.2277e-005   7.1475e-005   6.4605e+006   2.1831e+002   5.0033e+005    0.0449   -0.0000    0.0000   -0.0000    0.0083
                2.5182   2.0939e-004  -8.3744e-005   8.0312e-005   5.8631e+006   1.9834e+002   5.6218e+005    0.0407   -0.0000    0.0000   -0.0000    0.0094
                2.8081   1.8576e-004  -7.4292e-005   8.8347e-005   5.2013e+006   1.7609e+002   6.1843e+005    0.0361   -0.0000    0.0000   -0.0000    0.0103
                3.1010   1.6001e-004  -6.3995e-005   9.5456e-005   4.4804e+006   1.5184e+002   6.6819e+005    0.0311   -0.0000    0.0000   -0.0000    0.0111
                3.3982   1.3275e-004  -5.3092e-005   1.0156e-004   3.7171e+006   1.2565e+002   7.1092e+005    0.0258   -0.0000    0.0000   -0.0000    0.0118
                3.5083   1.2138e-004  -4.8543e-005   1.0352e-004   3.3986e+006   1.1551e+002   7.2467e+005    0.0236   -0.0000    0.0000   -0.0000    0.0121

               lamina:  2     
              matName:  (blade-root)
                     s           e11           e22           e12           s11           s22           s12   s11_fcT   s11_fcC   s22_fcT   s22_fcC   s12_fcS
                   (m)         (m/m)         (m/m)         (rad)          (Pa)          (Pa)          (Pa)       (-)       (-)       (-)       (-)       (-)
                0.0000   2.9276e-004  -1.1709e-004   1.5489e-005   8.1974e+006   2.7745e+002   1.0842e+005    0.0569   -0.0000    0.0000   -0.0000    0.0018
                0.2700   2.9595e-004  -1.1836e-004   4.3352e-006   8.2867e+006   2.8060e+002   3.0347e+004    0.0575   -0.0000    0.0000   -0.0000    0.0005
                0.5393   2.9598e-004  -1.1837e-004   6.8497e-006   8.2874e+006   2.8061e+002   4.7948e+004    0.0576   -0.0000    0.0000   -0.0000    0.0008
                0.8310   2.9308e-004  -1.1721e-004   1.8910e-005   8.2062e+006   2.7790e+002   1.3237e+005    0.0570   -0.0000    0.0000   -0.0000    0.0022
                1.1015   2.8646e-004  -1.1457e-004   2.9915e-005   8.0211e+006   2.7173e+002   2.0941e+005    0.0557   -0.0000    0.0000   -0.0000    0.0035
                1.3831   2.7683e-004  -1.1072e-004   4.1055e-005   7.7515e+006   2.6267e+002   2.8738e+005    0.0538   -0.0000    0.0000   -0.0000    0.0048
                1.6628   2.6399e-004  -1.0558e-004   5.1681e-005   7.3918e+006   2.5064e+002   3.6177e+005    0.0513   -0.0000    0.0000   -0.0000    0.0060
                1.9453   2.4822e-004  -9.9273e-005   6.1851e-005   6.9503e+006   2.3577e+002   4.3296e+005    0.0483   -0.0000    0.0000   -0.0000    0.0072
                2.2317   2.2968e-004  -9.1856e-005   7.1475e-005   6.4310e+006   2.1831e+002   5.0033e+005    0.0447   -0.0000    0.0000   -0.0000    0.0083
                2.5182   2.0845e-004  -8.3368e-005   8.0312e-005   5.8367e+006   1.9834e+002   5.6218e+005    0.0405   -0.0000    0.0000   -0.0000    0.0094
                2.8081   1.8493e-004  -7.3962e-005   8.8347e-005   5.1782e+006   1.7609e+002   6.1843e+005    0.0360   -0.0000    0.0000   -0.0000    0.0103
                3.1010   1.5931e-004  -6.3715e-005   9.5456e-005   4.4608e+006   1.5184e+002   6.6819e+005    0.0310   -0.0000    0.0000   -0.0000    0.0111
                3.3982   1.3215e-004  -5.2851e-005   1.0156e-004   3.7002e+006   1.2565e+002   7.1092e+005    0.0257   -0.0000    0.0000   -0.0000    0.0118
                3.5083   1.2087e-004  -4.8338e-005   1.0352e-004   3.3843e+006   1.1551e+002   7.2467e+005    0.0235   -0.0000    0.0000   -0.0000    0.0121

               lamina:  3     
              matName:  (LEP-core)
                     s           e11           e22           e12           s11           s22           s12   s11_fcT   s11_fcC   s22_fcT   s22_fcC   s12_fcS
                   (m)         (m/m)         (m/m)         (rad)          (Pa)          (Pa)          (Pa)       (-)       (-)       (-)       (-)       (-)
                0.0000   2.7253e-004  -1.0899e-004   1.5489e-005   6.8523e+004  -7.7814e+003   3.0978e+002    0.0000   -0.0000    0.0000    0.0000    0.0000
                0.2700   2.7561e-004  -1.1023e-004   4.3352e-006   6.9299e+004  -7.8694e+003   8.6704e+001    0.0000   -0.0000    0.0000    0.0000    0.0000
                0.5393   2.7563e-004  -1.1023e-004   6.8497e-006   6.9303e+004  -7.8699e+003   1.3699e+002    0.0000   -0.0000    0.0000    0.0000    0.0000
                0.8310   2.7297e-004  -1.0917e-004   1.8910e-005   6.8634e+004  -7.7939e+003   3.7821e+002    0.0000   -0.0000    0.0000    0.0000    0.0000
                1.1015   2.6690e-004  -1.0674e-004   2.9915e-005   6.7109e+004  -7.6207e+003   5.9831e+002    0.0000   -0.0000    0.0000    0.0000    0.0000
                1.3831   2.5800e-004  -1.0318e-004   4.1055e-005   6.4870e+004  -7.3665e+003   8.2109e+002    0.0000   -0.0000    0.0000    0.0000    0.0000
                1.6628   2.4617e-004  -9.8453e-005   5.1681e-005   6.1897e+004  -7.0288e+003   1.0336e+003    0.0000   -0.0000    0.0000    0.0000    0.0000
                1.9453   2.3157e-004  -9.2611e-005   6.1851e-005   5.8224e+004  -6.6117e+003   1.2370e+003    0.0000   -0.0000    0.0000    0.0000    0.0000
                2.2317   2.1441e-004  -8.5749e-005   7.1475e-005   5.3910e+004  -6.1219e+003   1.4295e+003    0.0000   -0.0000    0.0000    0.0000    0.0000
                2.5182   1.9479e-004  -7.7903e-005   8.0312e-005   4.8977e+004  -5.5617e+003   1.6062e+003    0.0000   -0.0000    0.0000    0.0000    0.0000
                2.8081   1.7293e-004  -6.9161e-005   8.8347e-005   4.3481e+004  -4.9376e+003   1.7669e+003    0.0000   -0.0000    0.0000    0.0000    0.0000
                3.1010   1.4912e-004  -5.9637e-005   9.5456e-005   3.7493e+004  -4.2577e+003   1.9091e+003    0.0000   -0.0000    0.0000    0.0000    0.0000
                3.3982   1.2341e-004  -4.9354e-005   1.0156e-004   3.1029e+004  -3.5235e+003   2.0312e+003    0.0000   -0.0000    0.0000    0.0000    0.0000
                3.5083   1.1343e-004  -4.5363e-005   1.0352e-004   2.8519e+004  -3.2386e+003   2.0705e+003    0.0000   -0.0000    0.0000    0.0000    0.0000

               lamina:  4     
              matName:  (blade-root)
                     s           e11           e22           e12           s11           s22           s12   s11_fcT   s11_fcC   s22_fcT   s22_fcC   s12_fcS
                   (m)         (m/m)         (m/m)         (rad)          (Pa)          (Pa)          (Pa)       (-)       (-)       (-)       (-)       (-)
                0.0000   2.7098e-004  -1.0838e-004   1.5489e-005   7.5877e+006   2.7743e+002   1.0842e+005    0.0527   -0.0000    0.0000   -0.0000    0.0018
                0.2700   2.7406e-004  -1.0961e-004   4.3352e-006   7.6738e+006   2.8057e+002   3.0347e+004    0.0533   -0.0000    0.0000   -0.0000    0.0005
                0.5393   2.7408e-004  -1.0961e-004   6.8497e-006   7.6742e+006   2.8059e+002   4.7948e+004    0.0533   -0.0000    0.0000   -0.0000    0.0008
                0.8310   2.7143e-004  -1.0855e-004   1.8910e-005   7.6002e+006   2.7788e+002   1.3237e+005    0.0528   -0.0000    0.0000   -0.0000    0.0022
                1.1015   2.6541e-004  -1.0615e-004   2.9915e-005   7.4316e+006   2.7171e+002   2.0941e+005    0.0516   -0.0000    0.0000   -0.0000    0.0035
                1.3831   2.5656e-004  -1.0261e-004   4.1055e-005   7.1838e+006   2.6265e+002   2.8738e+005    0.0499   -0.0000    0.0000   -0.0000    0.0048
                1.6628   2.4481e-004  -9.7908e-005   5.1681e-005   6.8548e+006   2.5061e+002   3.6177e+005    0.0476   -0.0000    0.0000   -0.0000    0.0060
                1.9453   2.3029e-004  -9.2102e-005   6.1851e-005   6.4483e+006   2.3575e+002   4.3296e+005    0.0448   -0.0000    0.0000   -0.0000    0.0072
                2.2317   2.1324e-004  -8.5283e-005   7.1475e-005   5.9709e+006   2.1829e+002   5.0033e+005    0.0415   -0.0000    0.0000   -0.0000    0.0083
                2.5182   1.9375e-004  -7.7485e-005   8.0312e-005   5.4250e+006   1.9832e+002   5.6218e+005    0.0377   -0.0000    0.0000   -0.0000    0.0094
                2.8081   1.7202e-004  -6.8795e-005   8.8347e-005   4.8165e+006   1.7607e+002   6.1843e+005    0.0334   -0.0000    0.0000   -0.0000    0.0103
                3.1010   1.4834e-004  -5.9326e-005   9.5456e-005   4.1536e+006   1.5183e+002   6.6819e+005    0.0288   -0.0000    0.0000   -0.0000    0.0111
                3.3982   1.2274e-004  -4.9087e-005   1.0156e-004   3.4367e+006   1.2564e+002   7.1092e+005    0.0239   -0.0000    0.0000   -0.0000    0.0118
                3.5083   1.1286e-004  -4.5135e-005   1.0352e-004   3.1600e+006   1.1550e+002   7.2467e+005    0.0219   -0.0000    0.0000   -0.0000    0.0121

               lamina:  5     
              matName:  (blade-shell)
                     s           e11           e22           e12           s11           s22           s12   s11_fcT   s11_fcC   s22_fcT   s22_fcC   s12_fcS
                   (m)         (m/m)         (m/m)         (rad)          (Pa)          (Pa)          (Pa)       (-)       (-)       (-)       (-)       (-)
                0.0000   2.5075e-004  -1.0028e-004   1.5489e-005   7.0212e+006   2.7740e+002   1.0842e+005    0.0488   -0.0000    0.0000   -0.0000    0.0018
                0.2700   2.5373e-004  -1.0147e-004   4.3352e-006   7.1044e+006   2.8055e+002   3.0347e+004    0.0493   -0.0000    0.0000   -0.0000    0.0005
                0.5393   2.5373e-004  -1.0147e-004   6.8497e-006   7.1045e+006   2.8056e+002   4.7948e+004    0.0493   -0.0000    0.0000   -0.0000    0.0008
                0.8310   2.5133e-004  -1.0051e-004   1.8910e-005   7.0372e+006   2.7786e+002   1.3237e+005    0.0489   -0.0000    0.0000   -0.0000    0.0022
                1.1015   2.4585e-004  -9.8322e-005   2.9915e-005   6.8839e+006   2.7169e+002   2.0941e+005    0.0478   -0.0000    0.0000   -0.0000    0.0035
                1.3831   2.3773e-004  -9.5074e-005   4.1055e-005   6.6565e+006   2.6263e+002   2.8738e+005    0.0462   -0.0000    0.0000   -0.0000    0.0048
                1.6628   2.2700e-004  -9.0782e-005   5.1681e-005   6.3560e+006   2.5059e+002   3.6177e+005    0.0441   -0.0000    0.0000   -0.0000    0.0060
                1.9453   2.1364e-004  -8.5440e-005   6.1851e-005   5.9819e+006   2.3573e+002   4.3296e+005    0.0415   -0.0000    0.0000   -0.0000    0.0072
                2.2317   1.9798e-004  -7.9176e-005   7.1475e-005   5.5434e+006   2.1827e+002   5.0033e+005    0.0385   -0.0000    0.0000   -0.0000    0.0083
                2.5182   1.8008e-004  -7.2021e-005   8.0312e-005   5.0425e+006   1.9830e+002   5.6218e+005    0.0350   -0.0000    0.0000   -0.0000    0.0094
                2.8081   1.6001e-004  -6.3994e-005   8.8347e-005   4.4805e+006   1.7606e+002   6.1843e+005    0.0311   -0.0000    0.0000   -0.0000    0.0103
                3.1010   1.3815e-004  -5.5249e-005   9.5456e-005   3.8682e+006   1.5182e+002   6.6819e+005    0.0269   -0.0000    0.0000   -0.0000    0.0111
                3.3982   1.1400e-004  -4.5590e-005   1.0156e-004   3.1919e+006   1.2563e+002   7.1092e+005    0.0222   -0.0000    0.0000   -0.0000    0.0118
                3.5083   1.0542e-004  -4.2159e-005   1.0352e-004   2.9517e+006   1.1549e+002   7.2467e+005    0.0205   -0.0000    0.0000   -0.0000    0.0121

            panel:  2     
           lam_num    nPlies        tPly      fibAng     matID  matName
               (-)       (-)         (m)       (deg)       (-)  (-)
                 1         1    0.005000      0.0000         2  (blade-shell)
                 2         1    0.072601      0.0000         1  (blade-root)
                 3         1    0.006289      0.0000         3  (spar-uni)
                 4         1    0.000000      0.0000         4  (spar-core)
                 5         1    0.006289      0.0000         3  (spar-uni)
                 6         1    0.072601      0.0000         1  (blade-root)
                 7         1    0.005000      0.0000         2  (blade-shell)

               lamina:  1     
              matName:  (blade-shell)
                     s           e11           e22           e12           s11           s22           s12   s11_fcT   s11_fcC   s22_fcT   s22_fcC   s12_fcS
                   (m)         (m/m)         (m/m)         (rad)          (Pa)          (Pa)          (Pa)       (-)       (-)       (-)       (-)       (-)
                0.0000   1.2225e-004  -4.7937e-005   9.9851e-005   3.4290e+006   1.4683e+004   6.9896e+005    0.0238   -0.0000    0.0000   -0.0000    0.0116
                0.1859   1.0406e-004  -4.0802e-005   1.0304e-004   2.9187e+006   1.2507e+004   7.2127e+005    0.0203   -0.0000    0.0000   -0.0000    0.0120
                0.4876   7.3830e-005  -2.8950e-005   1.0710e-004   2.0708e+006   8.8548e+003   7.4972e+005    0.0144   -0.0000    0.0000   -0.0000    0.0125
                0.7908   4.2639e-005  -1.6720e-005   1.0977e-004   1.1959e+006   5.1001e+003   7.6839e+005    0.0083   -0.0000    0.0000   -0.0000    0.0128
                1.0953   1.1000e-005  -4.3155e-006   1.1100e-004   3.0851e+005   1.2860e+003   7.7697e+005    0.0021   -0.0000    0.0000   -0.0000    0.0129
                1.4025  -2.0380e-005   7.9827e-006   1.1074e-004  -5.7168e+005  -2.5783e+003   7.7521e+005    0.0000    0.0027    0.0000    0.0000    0.0129
                1.4672  -2.8479e-005   1.1169e-005   1.1050e-004  -7.9876e+005  -3.3896e+003   7.7351e+005    0.0000    0.0038    0.0000    0.0000    0.0129

               lamina:  2     
              matName:  (blade-root)
                     s           e11           e22           e12           s11           s22           s12   s11_fcT   s11_fcC   s22_fcT   s22_fcC   s12_fcS
                   (m)         (m/m)         (m/m)         (rad)          (Pa)          (Pa)          (Pa)       (-)       (-)       (-)       (-)       (-)
                0.0000   1.2170e-004  -4.7716e-005   9.9851e-005   3.4136e+006   1.4683e+004   6.9896e+005    0.0237   -0.0000    0.0000   -0.0000    0.0116
                0.1859   1.0360e-004  -4.0616e-005   1.0304e-004   2.9057e+006   1.2507e+004   7.2127e+005    0.0202   -0.0000    0.0000   -0.0000    0.0120
                0.4876   7.3492e-005  -2.8815e-005   1.0710e-004   2.0613e+006   8.8546e+003   7.4972e+005    0.0143   -0.0000    0.0000   -0.0000    0.0125
                0.7908   4.2437e-005  -1.6640e-005   1.0977e-004   1.1903e+006   5.1000e+003   7.6839e+005    0.0083   -0.0000    0.0000   -0.0000    0.0128
                1.0953   1.0934e-005  -4.2892e-006   1.1100e-004   3.0667e+005   1.2860e+003   7.7697e+005    0.0021   -0.0000    0.0000   -0.0000    0.0129
                1.4025  -2.0349e-005   7.9701e-006   1.1074e-004  -5.7080e+005  -2.5782e+003   7.7521e+005    0.0000    0.0027    0.0000    0.0000    0.0129
                1.4672  -2.8336e-005   1.1112e-005   1.1050e-004  -7.9477e+005  -3.3894e+003   7.7351e+005    0.0000    0.0037    0.0000    0.0000    0.0129

               lamina:  3     
              matName:  (spar-uni)
                     s           e11           e22           e12           s11           s22           s12   s11_fcT   s11_fcC   s22_fcT   s22_fcC   s12_fcS
                   (m)         (m/m)         (m/m)         (rad)          (Pa)          (Pa)          (Pa)       (-)       (-)       (-)       (-)       (-)
                0.0000   1.1371e-004  -4.4519e-005   9.9851e-005   4.7247e+006  -1.8229e+005   2.9955e+005    0.0049   -0.0000    0.0000    0.0000    0.0100
                0.1859   9.6849e-005  -3.7918e-005   1.0304e-004   4.0242e+006  -1.5526e+005   3.0912e+005    0.0041   -0.0000    0.0000    0.0000    0.0103
                0.4876   6.8580e-005  -2.6850e-005   1.0710e-004   2.8496e+006  -1.0994e+005   3.2131e+005    0.0029   -0.0000    0.0000    0.0000    0.0107
                0.7908   3.9508e-005  -1.5468e-005   1.0977e-004   1.6416e+006  -6.3338e+004   3.2931e+005    0.0017   -0.0000    0.0000    0.0000    0.0110
                1.0953   9.9795e-006  -3.9073e-006   1.1100e-004   4.1466e+005  -1.6001e+004   3.3299e+005    0.0004   -0.0000    0.0000    0.0000    0.0111
                1.4025  -1.9890e-005   7.7868e-006   1.1074e-004  -8.2647e+005   3.1877e+004   3.3223e+005    0.0000    0.0012    0.0000   -0.0000    0.0111
                1.4672  -2.6267e-005   1.0284e-005   1.1050e-004  -1.0914e+006   4.2112e+004   3.3150e+005    0.0000    0.0016    0.0000   -0.0000    0.0111

               lamina:  4     
              matName:  (spar-core)
                     s           e11           e22           e12           s11           s22           s12   s11_fcT   s11_fcC   s22_fcT   s22_fcC   s12_fcS
                   (m)         (m/m)         (m/m)         (rad)          (Pa)          (Pa)          (Pa)       (-)       (-)       (-)       (-)       (-)
                0.0000   1.1302e-004  -4.4242e-005   9.9851e-005   2.8498e+004  -2.9535e+003   1.9970e+003    0.0000   -0.0000    0.0000    0.0000    0.0000
                0.1859   9.6265e-005  -3.7684e-005   1.0304e-004   2.4274e+004  -2.5157e+003   2.0608e+003    0.0000   -0.0000    0.0000    0.0000    0.0000
                0.4876   6.8154e-005  -2.6680e-005   1.0710e-004   1.7186e+004  -1.7811e+003   2.1421e+003    0.0000   -0.0000    0.0000    0.0000    0.0000
                0.7908   3.9254e-005  -1.5367e-005   1.0977e-004   9.8983e+003  -1.0258e+003   2.1954e+003    0.0000   -0.0000    0.0000    0.0000    0.0000
                1.0953   9.8968e-006  -3.8743e-006   1.1100e-004   2.4956e+003  -2.5863e+002   2.2199e+003    0.0000   -0.0000    0.0000    0.0000    0.0000
                1.4025  -1.9851e-005   7.7709e-006   1.1074e-004  -5.0056e+003   5.1876e+002   2.2149e+003    0.0000    0.0000    0.0000   -0.0000    0.0000
                1.4672  -2.6088e-005   1.0212e-005   1.1050e-004  -6.5782e+003   6.8175e+002   2.2100e+003    0.0000    0.0000    0.0000   -0.0000    0.0000

               lamina:  5     
              matName:  (spar-uni)
                     s           e11           e22           e12           s11           s22           s12   s11_fcT   s11_fcC   s22_fcT   s22_fcC   s12_fcS
                   (m)         (m/m)         (m/m)         (rad)          (Pa)          (Pa)          (Pa)       (-)       (-)       (-)       (-)       (-)
                0.0000   1.1302e-004  -4.4242e-005   9.9851e-005   4.6960e+006  -1.8110e+005   2.9955e+005    0.0048   -0.0000    0.0000    0.0000    0.0100
                0.1859   9.6265e-005  -3.7684e-005   1.0304e-004   3.9999e+006  -1.5425e+005   3.0912e+005    0.0041   -0.0000    0.0000    0.0000    0.0103
                0.4876   6.8154e-005  -2.6680e-005   1.0710e-004   2.8319e+006  -1.0921e+005   3.2131e+005    0.0029   -0.0000    0.0000    0.0000    0.0107
                0.7908   3.9254e-005  -1.5367e-005   1.0977e-004   1.6311e+006  -6.2901e+004   3.2931e+005    0.0017   -0.0000    0.0000    0.0000    0.0110
                1.0953   9.8968e-006  -3.8743e-006   1.1100e-004   4.1122e+005  -1.5859e+004   3.3299e+005    0.0004   -0.0000    0.0000    0.0000    0.0111
                1.4025  -1.9851e-005   7.7709e-006   1.1074e-004  -8.2483e+005   3.1809e+004   3.3223e+005    0.0000    0.0012    0.0000   -0.0000    0.0111
                1.4672  -2.6088e-005   1.0212e-005   1.1050e-004  -1.0840e+006   4.1803e+004   3.3150e+005    0.0000    0.0015    0.0000   -0.0000    0.0111

               lamina:  6     
              matName:  (blade-root)
                     s           e11           e22           e12           s11           s22           s12   s11_fcT   s11_fcC   s22_fcT   s22_fcC   s12_fcS
                   (m)         (m/m)         (m/m)         (rad)          (Pa)          (Pa)          (Pa)       (-)       (-)       (-)       (-)       (-)
                0.0000   1.1232e-004  -4.3965e-005   9.9851e-005   3.1509e+006   1.4676e+004   6.9896e+005    0.0219   -0.0000    0.0000   -0.0000    0.0116
                0.1859   9.5680e-005  -3.7451e-005   1.0304e-004   2.6841e+006   1.2501e+004   7.2127e+005    0.0186   -0.0000    0.0000   -0.0000    0.0120
                0.4876   6.7729e-005  -2.6510e-005   1.0710e-004   1.8999e+006   8.8504e+003   7.4972e+005    0.0132   -0.0000    0.0000   -0.0000    0.0125
                0.7908   3.9000e-005  -1.5265e-005   1.0977e-004   1.0940e+006   5.0975e+003   7.6839e+005    0.0076   -0.0000    0.0000   -0.0000    0.0128
                1.0953   9.8141e-006  -3.8412e-006   1.1100e-004   2.7531e+005   1.2852e+003   7.7697e+005    0.0019   -0.0000    0.0000   -0.0000    0.0129
                1.4025  -1.9811e-005   7.7550e-006   1.1074e-004  -5.5574e+005  -2.5779e+003   7.7521e+005    0.0000    0.0026    0.0000    0.0000    0.0129
                1.4672  -2.5908e-005   1.0141e-005   1.1050e-004  -7.2679e+005  -3.3877e+003   7.7351e+005    0.0000    0.0034    0.0000    0.0000    0.0129

               lamina:  7     
              matName:  (blade-shell)
                     s           e11           e22           e12           s11           s22           s12   s11_fcT   s11_fcC   s22_fcT   s22_fcC   s12_fcS
                   (m)         (m/m)         (m/m)         (rad)          (Pa)          (Pa)          (Pa)       (-)       (-)       (-)       (-)       (-)
                0.0000   1.0433e-004  -4.0768e-005   9.9851e-005   2.9271e+006   1.4670e+004   6.9896e+005    0.0203   -0.0000    0.0000   -0.0000    0.0116
                0.1859   8.8934e-005  -3.4752e-005   1.0304e-004   2.4951e+006   1.2496e+004   7.2127e+005    0.0173   -0.0000    0.0000   -0.0000    0.0120
                0.4876   6.2817e-005  -2.4545e-005   1.0710e-004   1.7624e+006   8.8468e+003   7.4972e+005    0.0122   -0.0000    0.0000   -0.0000    0.0125
                0.7908   3.6071e-005  -1.4093e-005   1.0977e-004   1.0120e+006   5.0953e+003   7.6839e+005    0.0070   -0.0000    0.0000   -0.0000    0.0128
                1.0953   8.8594e-006  -3.4593e-006   1.1100e-004   2.4858e+005   1.2845e+003   7.7697e+005    0.0017   -0.0000    0.0000   -0.0000    0.0129
                1.4025  -1.9353e-005   7.5717e-006   1.1074e-004  -5.4291e+005  -2.5775e+003   7.7521e+005    0.0000    0.0025    0.0000    0.0000    0.0129
                1.4672  -2.3839e-005   9.3131e-006   1.1050e-004  -6.6885e+005  -3.3862e+003   7.7351e+005    0.0000    0.0031    0.0000    0.0000    0.0129

            panel:  3     
           lam_num    nPlies        tPly      fibAng     matID  matName
               (-)       (-)         (m)       (deg)       (-)  (-)
                 1         1    0.005000      0.0000         2  (blade-shell)
                 2         1    0.072601      0.0000         1  (blade-root)
                 3         1    0.005549      0.0000         6  (TEP-core)
                 4         1    0.072601      0.0000         1  (blade-root)
                 5         1    0.005000      0.0000         2  (blade-shell)

               lamina:  1     
              matName:  (blade-shell)
                     s           e11           e22           e12           s11           s22           s12   s11_fcT   s11_fcC   s22_fcT   s22_fcC   s12_fcS
                   (m)         (m/m)         (m/m)         (rad)          (Pa)          (Pa)          (Pa)       (-)       (-)       (-)       (-)       (-)
                0.0000  -2.8252e-005   1.1299e-005   1.1433e-004  -7.9106e+005  -2.6667e+001   8.0029e+005    0.0000    0.0037    0.0000    0.0000    0.0133
                0.0088  -2.9103e-005   1.1640e-005   1.1429e-004  -8.1490e+005  -2.7536e+001   8.0004e+005    0.0000    0.0038    0.0000    0.0000    0.0133

               lamina:  2     
              matName:  (blade-root)
                     s           e11           e22           e12           s11           s22           s12   s11_fcT   s11_fcC   s22_fcT   s22_fcC   s12_fcS
                   (m)         (m/m)         (m/m)         (rad)          (Pa)          (Pa)          (Pa)       (-)       (-)       (-)       (-)       (-)
                0.0000  -2.8119e-005   1.1246e-005   1.1433e-004  -7.8735e+005  -2.6667e+001   8.0029e+005    0.0000    0.0037    0.0000    0.0000    0.0133
                0.0088  -2.8971e-005   1.1586e-005   1.1429e-004  -8.1119e+005  -2.7536e+001   8.0004e+005    0.0000    0.0038    0.0000    0.0000    0.0133

               lamina:  3     
              matName:  (TEP-core)
                     s           e11           e22           e12           s11           s22           s12   s11_fcT   s11_fcC   s22_fcT   s22_fcC   s12_fcS
                   (m)         (m/m)         (m/m)         (rad)          (Pa)          (Pa)          (Pa)       (-)       (-)       (-)       (-)       (-)
                0.0000  -2.6193e-005   1.0476e-005   1.1433e-004  -6.5859e+003   7.4788e+002   2.2865e+003    0.0000    0.0000    0.0000   -0.0000    0.0000
                0.0088  -2.7045e-005   1.0816e-005   1.1429e-004  -6.8000e+003   7.7219e+002   2.2858e+003    0.0000    0.0000    0.0000   -0.0000    0.0000

               lamina:  4     
              matName:  (blade-root)
                     s           e11           e22           e12           s11           s22           s12   s11_fcT   s11_fcC   s22_fcT   s22_fcC   s12_fcS
                   (m)         (m/m)         (m/m)         (rad)          (Pa)          (Pa)          (Pa)       (-)       (-)       (-)       (-)       (-)
                0.0000  -2.6046e-005   1.0417e-005   1.1433e-004  -7.2930e+005  -2.6665e+001   8.0029e+005    0.0000    0.0034    0.0000    0.0000    0.0133
                0.0088  -2.6898e-005   1.0757e-005   1.1429e-004  -7.5314e+005  -2.7534e+001   8.0004e+005    0.0000    0.0035    0.0000    0.0000    0.0133

               lamina:  5     
              matName:  (blade-shell)
                     s           e11           e22           e12           s11           s22           s12   s11_fcT   s11_fcC   s22_fcT   s22_fcC   s12_fcS
                   (m)         (m/m)         (m/m)         (rad)          (Pa)          (Pa)          (Pa)       (-)       (-)       (-)       (-)       (-)
                0.0000  -2.4120e-005   9.6464e-006   1.1433e-004  -6.7538e+005  -2.6662e+001   8.0029e+005    0.0000    0.0032    0.0000    0.0000    0.0133
                0.0088  -2.4972e-005   9.9869e-006   1.1429e-004  -6.9922e+005  -2.7532e+001   8.0004e+005    0.0000    0.0033    0.0000    0.0000    0.0133

            panel:  4     
           lam_num    nPlies        tPly      fibAng     matID  matName
               (-)       (-)         (m)       (deg)       (-)  (-)
                 1         1    0.005000      0.0000         2  (blade-shell)
                 2         1    0.072601      0.0000         1  (blade-root)
                 3         1    0.005549      0.0000         6  (TEP-core)
                 4         1    0.072601      0.0000         1  (blade-root)
                 5         1    0.005000      0.0000         2  (blade-shell)

               lamina:  1     
              matName:  (blade-shell)
                     s           e11           e22           e12           s11           s22           s12   s11_fcT   s11_fcC   s22_fcT   s22_fcC   s12_fcS
                   (m)         (m/m)         (m/m)         (rad)          (Pa)          (Pa)          (Pa)       (-)       (-)       (-)       (-)       (-)
                0.0000  -2.9103e-005   1.1640e-005   1.1331e-004  -8.1490e+005  -2.7536e+001   7.9319e+005    0.0000    0.0038    0.0000    0.0000    0.0132
                0.2287  -5.2196e-005   2.0875e-005   1.1328e-004  -1.4615e+006  -5.0044e+001   7.9294e+005    0.0000    0.0069    0.0000    0.0000    0.0132
                0.5319  -8.2928e-005   3.3166e-005   1.1328e-004  -2.3220e+006  -7.9551e+001   7.9294e+005    0.0000    0.0109    0.0000    0.0000    0.0132
                0.8325  -1.1293e-004   4.5166e-005   1.1196e-004  -3.1621e+006  -1.0818e+002   7.8375e+005    0.0000    0.0148    0.0000    0.0000    0.0131
                1.1289  -1.4167e-004   5.6659e-005   1.0905e-004  -3.9668e+006  -1.3563e+002   7.6338e+005    0.0000    0.0186    0.0000    0.0000    0.0127
                1.4194  -1.6897e-004   6.7576e-005   1.0488e-004  -4.7311e+006  -1.6153e+002   7.3414e+005    0.0000    0.0222    0.0000    0.0000    0.0122
                1.7057  -1.9449e-004   7.7783e-005   9.9527e-005  -5.4457e+006  -1.8569e+002   6.9669e+005    0.0000    0.0256    0.0000    0.0000    0.0116
                1.9842  -2.1789e-004   8.7141e-005   9.3135e-005  -6.1009e+006  -2.0776e+002   6.5195e+005    0.0000    0.0286    0.0000    0.0000    0.0109
                2.2558  -2.3903e-004   9.5597e-005   8.5778e-005  -6.6929e+006  -2.2752e+002   6.0045e+005    0.0000    0.0314    0.0000    0.0000    0.0100
                2.5237  -2.5757e-004   1.0301e-004   7.7667e-005  -7.2120e+006  -2.4486e+002   5.4367e+005    0.0000    0.0339    0.0000    0.0000    0.0091
                2.7764  -2.7331e-004   1.0931e-004   6.8914e-005  -7.6527e+006  -2.5929e+002   4.8240e+005    0.0000    0.0359    0.0000    0.0000    0.0080
                3.0462  -2.8634e-004   1.1452e-004   5.9546e-005  -8.0177e+006  -2.7135e+002   4.1682e+005    0.0000    0.0376    0.0000    0.0000    0.0069
                3.2873  -2.9579e-004   1.1830e-004   5.0116e-005  -8.2822e+006  -2.8004e+002   3.5081e+005    0.0000    0.0389    0.0000    0.0000    0.0058
                3.5355  -3.0191e-004   1.2075e-004   3.9517e-005  -8.4537e+006  -2.8588e+002   2.7662e+005    0.0000    0.0397    0.0000    0.0000    0.0046

               lamina:  2     
              matName:  (blade-root)
                     s           e11           e22           e12           s11           s22           s12   s11_fcT   s11_fcC   s22_fcT   s22_fcC   s12_fcS
                   (m)         (m/m)         (m/m)         (rad)          (Pa)          (Pa)          (Pa)       (-)       (-)       (-)       (-)       (-)
                0.0000  -2.8971e-005   1.1586e-005   1.1331e-004  -8.1119e+005  -2.7536e+001   7.9319e+005    0.0000    0.0038    0.0000    0.0000    0.0132
                0.2287  -5.1998e-005   2.0796e-005   1.1328e-004  -1.4560e+006  -5.0044e+001   7.9294e+005    0.0000    0.0068    0.0000    0.0000    0.0132
                0.5319  -8.2616e-005   3.3041e-005   1.1328e-004  -2.3133e+006  -7.9551e+001   7.9294e+005    0.0000    0.0109    0.0000    0.0000    0.0132
                0.8325  -1.1250e-004   4.4992e-005   1.1196e-004  -3.1500e+006  -1.0818e+002   7.8375e+005    0.0000    0.0148    0.0000    0.0000    0.0131
                1.1289  -1.4112e-004   5.6439e-005   1.0905e-004  -3.9514e+006  -1.3563e+002   7.6338e+005    0.0000    0.0186    0.0000    0.0000    0.0127
                1.4194  -1.6830e-004   6.7308e-005   1.0488e-004  -4.7124e+006  -1.6153e+002   7.3414e+005    0.0000    0.0221    0.0000    0.0000    0.0122
                1.7057  -1.9370e-004   7.7469e-005   9.9527e-005  -5.4237e+006  -1.8569e+002   6.9669e+005    0.0000    0.0255    0.0000    0.0000    0.0116
                1.9842  -2.1699e-004   8.6783e-005   9.3135e-005  -6.0759e+006  -2.0776e+002   6.5195e+005    0.0000    0.0285    0.0000    0.0000    0.0109
                2.2558  -2.3802e-004   9.5194e-005   8.5778e-005  -6.6647e+006  -2.2752e+002   6.0045e+005    0.0000    0.0313    0.0000    0.0000    0.0100
                2.5237  -2.5646e-004   1.0257e-004   7.7667e-005  -7.1811e+006  -2.4486e+002   5.4367e+005    0.0000    0.0337    0.0000    0.0000    0.0091
                2.7764  -2.7210e-004   1.0882e-004   6.8914e-005  -7.6190e+006  -2.5929e+002   4.8240e+005    0.0000    0.0358    0.0000    0.0000    0.0080
                3.0462  -2.8506e-004   1.1401e-004   5.9546e-005  -7.9819e+006  -2.7135e+002   4.1682e+005    0.0000    0.0375    0.0000    0.0000    0.0069
                3.2873  -2.9445e-004   1.1776e-004   5.0116e-005  -8.2448e+006  -2.8004e+002   3.5081e+005    0.0000    0.0387    0.0000    0.0000    0.0058
                3.5355  -3.0055e-004   1.2020e-004   3.9517e-005  -8.4155e+006  -2.8588e+002   2.7662e+005    0.0000    0.0395    0.0000    0.0000    0.0046

               lamina:  3     
              matName:  (TEP-core)
                     s           e11           e22           e12           s11           s22           s12   s11_fcT   s11_fcC   s22_fcT   s22_fcC   s12_fcS
                   (m)         (m/m)         (m/m)         (rad)          (Pa)          (Pa)          (Pa)       (-)       (-)       (-)       (-)       (-)
                0.0000  -2.7045e-005   1.0816e-005   1.1331e-004  -6.8000e+003   7.7219e+002   2.2663e+003    0.0000    0.0000    0.0000   -0.0000    0.0000
                0.2287  -4.9127e-005   1.9648e-005   1.1328e-004  -1.2352e+004   1.4027e+003   2.2655e+003    0.0000    0.0000    0.0000   -0.0000    0.0000
                0.5319  -7.8092e-005   3.1232e-005   1.1328e-004  -1.9635e+004   2.2297e+003   2.2655e+003    0.0000    0.0000    0.0000   -0.0000    0.0000
                0.8325  -1.0620e-004   4.2473e-005   1.1196e-004  -2.6703e+004   3.0323e+003   2.2393e+003    0.0000    0.0000    0.0000   -0.0000    0.0000
                1.1289  -1.3315e-004   5.3251e-005   1.0905e-004  -3.3478e+004   3.8017e+003   2.1811e+003    0.0000    0.0000    0.0000   -0.0000    0.0000
                1.4194  -1.5858e-004   6.3423e-005   1.0488e-004  -3.9874e+004   4.5279e+003   2.0975e+003    0.0000    0.0000    0.0000   -0.0000    0.0000
                1.7057  -1.8231e-004   7.2913e-005   9.9527e-005  -4.5840e+004   5.2055e+003   1.9905e+003    0.0000    0.0000    0.0000   -0.0000    0.0000
                1.9842  -2.0400e-004   8.1585e-005   9.3135e-005  -5.1292e+004   5.8246e+003   1.8627e+003    0.0000    0.0000    0.0000   -0.0000    0.0000
                2.2558  -2.2341e-004   8.9348e-005   8.5778e-005  -5.6173e+004   6.3788e+003   1.7156e+003    0.0000    0.0000    0.0000   -0.0000    0.0000
                2.5237  -2.4045e-004   9.6162e-005   7.7667e-005  -6.0456e+004   6.8653e+003   1.5533e+003    0.0000    0.0000    0.0000   -0.0000    0.0000
                2.7764  -2.5464e-004   1.0184e-004   6.8914e-005  -6.4024e+004   7.2705e+003   1.3783e+003    0.0000    0.0000    0.0000   -0.0000    0.0000
                3.0462  -2.6649e-004   1.0658e-004   5.9546e-005  -6.7006e+004   7.6090e+003   1.1909e+003    0.0000    0.0000    0.0000   -0.0000    0.0000
                3.2873  -2.7503e-004   1.0999e-004   5.0116e-005  -6.9152e+004   7.8528e+003   1.0023e+003    0.0000    0.0000    0.0000   -0.0000    0.0000
                3.5355  -2.8077e-004   1.1229e-004   3.9517e-005  -7.0595e+004   8.0167e+003   7.9034e+002    0.0000    0.0000    0.0000   -0.0000    0.0000

               lamina:  4     
              matName:  (blade-root)
                     s           e11           e22           e12           s11           s22           s12   s11_fcT   s11_fcC   s22_fcT   s22_fcC   s12_fcS
                   (m)         (m/m)         (m/m)         (rad)          (Pa)          (Pa)          (Pa)       (-)       (-)       (-)       (-)       (-)
                0.0000  -2.6898e-005   1.0757e-005   1.1331e-004  -7.5314e+005  -2.7534e+001   7.9319e+005    0.0000    0.0035    0.0000    0.0000    0.0132
                0.2287  -4.8908e-005   1.9560e-005   1.1328e-004  -1.3694e+006  -5.0040e+001   7.9294e+005    0.0000    0.0064    0.0000    0.0000    0.0132
                0.5319  -7.7747e-005   3.1093e-005   1.1328e-004  -2.1769e+006  -7.9545e+001   7.9294e+005    0.0000    0.0102    0.0000    0.0000    0.0132
                0.8325  -1.0572e-004   4.2281e-005   1.1196e-004  -2.9602e+006  -1.0817e+002   7.8375e+005    0.0000    0.0139    0.0000    0.0000    0.0131
                1.1289  -1.3254e-004   5.3007e-005   1.0905e-004  -3.7112e+006  -1.3562e+002   7.6338e+005    0.0000    0.0174    0.0000    0.0000    0.0127
                1.4194  -1.5784e-004   6.3126e-005   1.0488e-004  -4.4196e+006  -1.6151e+002   7.3414e+005    0.0000    0.0207    0.0000    0.0000    0.0122
                1.7057  -1.8144e-004   7.2565e-005   9.9527e-005  -5.0805e+006  -1.8567e+002   6.9669e+005    0.0000    0.0239    0.0000    0.0000    0.0116
                1.9842  -2.0300e-004   8.1188e-005   9.3135e-005  -5.6842e+006  -2.0775e+002   6.5195e+005    0.0000    0.0267    0.0000    0.0000    0.0109
                2.2558  -2.2229e-004   8.8902e-005   8.5778e-005  -6.2242e+006  -2.2750e+002   6.0045e+005    0.0000    0.0292    0.0000    0.0000    0.0100
                2.5237  -2.3922e-004   9.5672e-005   7.7667e-005  -6.6983e+006  -2.4484e+002   5.4367e+005    0.0000    0.0314    0.0000    0.0000    0.0091
                2.7764  -2.5330e-004   1.0130e-004   6.8914e-005  -7.0925e+006  -2.5927e+002   4.8240e+005    0.0000    0.0333    0.0000    0.0000    0.0080
                3.0462  -2.6508e-004   1.0601e-004   5.9546e-005  -7.4222e+006  -2.7133e+002   4.1682e+005    0.0000    0.0348    0.0000    0.0000    0.0069
                3.2873  -2.7355e-004   1.0940e-004   5.0116e-005  -7.6594e+006  -2.8001e+002   3.5081e+005    0.0000    0.0360    0.0000    0.0000    0.0058
                3.5355  -2.7926e-004   1.1168e-004   3.9517e-005  -7.8194e+006  -2.8586e+002   2.7662e+005    0.0000    0.0367    0.0000    0.0000    0.0046

               lamina:  5     
              matName:  (blade-shell)
                     s           e11           e22           e12           s11           s22           s12   s11_fcT   s11_fcC   s22_fcT   s22_fcC   s12_fcS
                   (m)         (m/m)         (m/m)         (rad)          (Pa)          (Pa)          (Pa)       (-)       (-)       (-)       (-)       (-)
                0.0000  -2.4972e-005   9.9869e-006   1.1331e-004  -6.9922e+005  -2.7532e+001   7.9319e+005    0.0000    0.0033    0.0000    0.0000    0.0132
                0.2287  -4.6037e-005   1.8411e-005   1.1328e-004  -1.2890e+006  -5.0037e+001   7.9294e+005    0.0000    0.0061    0.0000    0.0000    0.0132
                0.5319  -7.3223e-005   2.9284e-005   1.1328e-004  -2.0503e+006  -7.9540e+001   7.9294e+005    0.0000    0.0096    0.0000    0.0000    0.0132
                0.8325  -9.9422e-005   3.9762e-005   1.1196e-004  -2.7839e+006  -1.0816e+002   7.8375e+005    0.0000    0.0131    0.0000    0.0000    0.0131
                1.1289  -1.2457e-004   4.9819e-005   1.0905e-004  -3.4880e+006  -1.3561e+002   7.6338e+005    0.0000    0.0164    0.0000    0.0000    0.0127
                1.4194  -1.4813e-004   5.9241e-005   1.0488e-004  -4.1477e+006  -1.6150e+002   7.3414e+005    0.0000    0.0195    0.0000    0.0000    0.0122
                1.7057  -1.7005e-004   6.8009e-005   9.9527e-005  -4.7615e+006  -1.8566e+002   6.9669e+005    0.0000    0.0224    0.0000    0.0000    0.0116
                1.9842  -1.9001e-004   7.5990e-005   9.3135e-005  -5.3204e+006  -2.0773e+002   6.5195e+005    0.0000    0.0250    0.0000    0.0000    0.0109
                2.2558  -2.0768e-004   8.3056e-005   8.5778e-005  -5.8150e+006  -2.2748e+002   6.0045e+005    0.0000    0.0273    0.0000    0.0000    0.0100
                2.5237  -2.2320e-004   8.9265e-005   7.7667e-005  -6.2498e+006  -2.4482e+002   5.4367e+005    0.0000    0.0293    0.0000    0.0000    0.0091
                2.7764  -2.3583e-004   9.4317e-005   6.8914e-005  -6.6035e+006  -2.5925e+002   4.8240e+005    0.0000    0.0310    0.0000    0.0000    0.0080
                3.0462  -2.4651e-004   9.8585e-005   5.9546e-005  -6.9023e+006  -2.7131e+002   4.1682e+005    0.0000    0.0324    0.0000    0.0000    0.0069
                3.2873  -2.5413e-004   1.0163e-004   5.0116e-005  -7.1157e+006  -2.7999e+002   3.5081e+005    0.0000    0.0334    0.0000    0.0000    0.0058
                3.5355  -2.5948e-004   1.0377e-004   3.9517e-005  -7.2655e+006  -2.8583e+002   2.7662e+005    0.0000    0.0341    0.0000    0.0000    0.0046

  Bottom:  panel  nNode   nLam     xc_St    xc_End         b         t         E_eff         G_eff      nu_eff     density  buckleCrit
            (-)    (-)    (-)       (-)       (-)       (m)       (m)          (Pa)          (Pa)         (-)    (kg/m^3)         (-)
              1     14      5    0.0000    0.3646    3.5251    0.1608   2.7043e+010   6.7591e+009      0.3999   1793.0421      0.0000
              2      7      7    0.3646    0.6154    1.4690    0.1678   2.9064e+010   6.7001e+009      0.3915   1855.2459      0.0007
              3      2      5    0.6154    0.6169    0.0089    0.1608   2.7043e+010   6.7591e+009      0.3999   1793.0421      0.0000
              4     14      5    0.6169    1.0000    3.5072    0.1608   2.7043e+010   6.7591e+009      0.3999   1793.0421      0.0055

            panel:  1     
           lam_num    nPlies        tPly      fibAng     matID  matName
               (-)       (-)         (m)       (deg)       (-)  (-)
                 1         1    0.005000      0.0000         2  (blade-shell)
                 2         1    0.072601      0.0000         1  (blade-root)
                 3         1    0.005549      0.0000         5  (LEP-core)
                 4         1    0.072601      0.0000         1  (blade-root)
                 5         1    0.005000      0.0000         2  (blade-shell)

               lamina:  1     
              matName:  (blade-shell)
                     s           e11           e22           e12           s11           s22           s12   s11_fcT   s11_fcC   s22_fcT   s22_fcC   s12_fcS
                   (m)         (m/m)         (m/m)         (rad)          (Pa)          (Pa)          (Pa)       (-)       (-)       (-)       (-)       (-)
                0.0000   2.9384e-004  -1.1752e-004   1.5489e-005   8.2277e+006   2.7762e+002   1.0842e+005    0.0571   -0.0000    0.0000   -0.0000    0.0018
                0.2676   2.8744e-004  -1.1496e-004   2.6366e-005   8.0485e+006   2.7142e+002   1.8456e+005    0.0559   -0.0000    0.0000   -0.0000    0.0031
                0.5506   2.7734e-004  -1.1092e-004   3.7538e-005   7.7656e+006   2.6198e+002   2.6277e+005    0.0539   -0.0000    0.0000   -0.0000    0.0044
                0.8262   2.6424e-004  -1.0568e-004   4.7977e-005   7.3988e+006   2.4979e+002   3.3584e+005    0.0514   -0.0000    0.0000   -0.0000    0.0056
                1.1058   2.4819e-004  -9.9262e-005   5.8003e-005   6.9495e+006   2.3478e+002   4.0602e+005    0.0483   -0.0000    0.0000   -0.0000    0.0068
                1.3885   2.2935e-004  -9.1724e-005   6.7461e-005   6.4218e+006   2.1714e+002   4.7223e+005    0.0446   -0.0000    0.0000   -0.0000    0.0079
                1.6721   2.0795e-004  -8.3167e-005   7.6157e-005   5.8227e+006   1.9712e+002   5.3310e+005    0.0404   -0.0000    0.0000   -0.0000    0.0089
                1.9581   1.8429e-004  -7.3706e-005   8.4031e-005   5.1603e+006   1.7489e+002   5.8822e+005    0.0358   -0.0000    0.0000   -0.0000    0.0098
                2.2474   1.5852e-004  -6.3397e-005   9.1003e-005   4.4385e+006   1.5070e+002   6.3702e+005    0.0308   -0.0000    0.0000   -0.0000    0.0106
                2.5365   1.3099e-004  -5.2389e-005   9.6901e-005   3.6679e+006   1.2492e+002   6.7831e+005    0.0255   -0.0000    0.0000   -0.0000    0.0113
                2.8278   1.0205e-004  -4.0812e-005   1.0170e-004   2.8573e+006   9.7762e+001   7.1192e+005    0.0198   -0.0000    0.0000   -0.0000    0.0119
                3.1202   7.1923e-005  -2.8765e-005   1.0532e-004   2.0139e+006   6.9599e+001   7.3727e+005    0.0140   -0.0000    0.0000   -0.0000    0.0123
                3.4160   4.1471e-005  -1.6586e-005   1.0773e-004   1.1612e+006   4.0528e+001   7.5414e+005    0.0081   -0.0000    0.0000   -0.0000    0.0126
                3.5251   2.9175e-005  -1.1668e-005   1.0830e-004   8.1690e+005   2.9738e+001   7.5811e+005    0.0057   -0.0000    0.0000   -0.0000    0.0126

               lamina:  2     
              matName:  (blade-root)
                     s           e11           e22           e12           s11           s22           s12   s11_fcT   s11_fcC   s22_fcT   s22_fcC   s12_fcS
                   (m)         (m/m)         (m/m)         (rad)          (Pa)          (Pa)          (Pa)       (-)       (-)       (-)       (-)       (-)
                0.0000   2.9248e-004  -1.1697e-004   1.5489e-005   8.1895e+006   2.7762e+002   1.0842e+005    0.0569   -0.0000    0.0000   -0.0000    0.0018
                0.2676   2.8610e-004  -1.1442e-004   2.6366e-005   8.0109e+006   2.7142e+002   1.8456e+005    0.0556   -0.0000    0.0000   -0.0000    0.0031
                0.5506   2.7605e-004  -1.1040e-004   3.7538e-005   7.7295e+006   2.6197e+002   2.6277e+005    0.0537   -0.0000    0.0000   -0.0000    0.0044
                0.8262   2.6302e-004  -1.0519e-004   4.7977e-005   7.3647e+006   2.4979e+002   3.3584e+005    0.0511   -0.0000    0.0000   -0.0000    0.0056
                1.1058   2.4706e-004  -9.8809e-005   5.8003e-005   6.9178e+006   2.3478e+002   4.0602e+005    0.0480   -0.0000    0.0000   -0.0000    0.0068
                1.3885   2.2831e-004  -9.1309e-005   6.7461e-005   6.3927e+006   2.1714e+002   4.7223e+005    0.0444   -0.0000    0.0000   -0.0000    0.0079
                1.6721   2.0703e-004  -8.2797e-005   7.6157e-005   5.7968e+006   1.9712e+002   5.3310e+005    0.0403   -0.0000    0.0000   -0.0000    0.0089
                1.9581   1.8348e-004  -7.3382e-005   8.4031e-005   5.1376e+006   1.7489e+002   5.8822e+005    0.0357   -0.0000    0.0000   -0.0000    0.0098
                2.2474   1.5784e-004  -6.3125e-005   9.1003e-005   4.4195e+006   1.5070e+002   6.3702e+005    0.0307   -0.0000    0.0000   -0.0000    0.0106
                2.5365   1.3046e-004  -5.2174e-005   9.6901e-005   3.6528e+006   1.2492e+002   6.7831e+005    0.0254   -0.0000    0.0000   -0.0000    0.0113
                2.8278   1.0165e-004  -4.0655e-005   1.0170e-004   2.8464e+006   9.7762e+001   7.1192e+005    0.0198   -0.0000    0.0000   -0.0000    0.0119
                3.1202   7.1689e-005  -2.8671e-005   1.0532e-004   2.0073e+006   6.9599e+001   7.3727e+005    0.0139   -0.0000    0.0000   -0.0000    0.0123
                3.4160   4.1361e-005  -1.6542e-005   1.0773e-004   1.1581e+006   4.0528e+001   7.5414e+005    0.0080   -0.0000    0.0000   -0.0000    0.0126
                3.5251   2.9172e-005  -1.1667e-005   1.0830e-004   8.1683e+005   2.9738e+001   7.5811e+005    0.0057   -0.0000    0.0000   -0.0000    0.0126

               lamina:  3     
              matName:  (LEP-core)
                     s           e11           e22           e12           s11           s22           s12   s11_fcT   s11_fcC   s22_fcT   s22_fcC   s12_fcS
                   (m)         (m/m)         (m/m)         (rad)          (Pa)          (Pa)          (Pa)       (-)       (-)       (-)       (-)       (-)
                0.0000   2.7268e-004  -1.0905e-004   1.5489e-005   6.8560e+004  -7.7856e+003   3.0978e+002    0.0000   -0.0000    0.0000    0.0000    0.0000
                0.2676   2.6660e-004  -1.0662e-004   2.6366e-005   6.7032e+004  -7.6120e+003   5.2732e+002    0.0000   -0.0000    0.0000    0.0000    0.0000
                0.5506   2.5731e-004  -1.0291e-004   3.7538e-005   6.4698e+004  -7.3469e+003   7.5076e+002    0.0000   -0.0000    0.0000    0.0000    0.0000
                0.8262   2.4534e-004  -9.8119e-005   4.7977e-005   6.1686e+004  -7.0050e+003   9.5954e+002    0.0000   -0.0000    0.0000    0.0000    0.0000
                1.1058   2.3059e-004  -9.2220e-005   5.8003e-005   5.7978e+004  -6.5838e+003   1.1601e+003    0.0000   -0.0000    0.0000    0.0000    0.0000
                1.3885   2.1326e-004  -8.5288e-005   6.7461e-005   5.3620e+004  -6.0889e+003   1.3492e+003    0.0000   -0.0000    0.0000    0.0000    0.0000
                1.6721   1.9358e-004  -7.7421e-005   7.6157e-005   4.8674e+004  -5.5273e+003   1.5231e+003    0.0000   -0.0000    0.0000    0.0000    0.0000
                1.9581   1.7175e-004  -6.8687e-005   8.4031e-005   4.3183e+004  -4.9037e+003   1.6806e+003    0.0000   -0.0000    0.0000    0.0000    0.0000
                2.2474   1.4798e-004  -5.9184e-005   9.1003e-005   3.7208e+004  -4.2253e+003   1.8201e+003    0.0000   -0.0000    0.0000    0.0000    0.0000
                2.5365   1.2266e-004  -4.9056e-005   9.6901e-005   3.0841e+004  -3.5022e+003   1.9380e+003    0.0000   -0.0000    0.0000    0.0000    0.0000
                2.8278   9.5974e-005  -3.8383e-005   1.0170e-004   2.4131e+004  -2.7403e+003   2.0341e+003    0.0000   -0.0000    0.0000    0.0000    0.0000
                3.1202   6.8302e-005  -2.7316e-005   1.0532e-004   1.7173e+004  -1.9502e+003   2.1065e+003    0.0000   -0.0000    0.0000    0.0000    0.0000
                3.4160   3.9759e-005  -1.5901e-005   1.0773e-004   9.9967e+003  -1.1352e+003   2.1547e+003    0.0000   -0.0000    0.0000    0.0000    0.0000
                3.5251   2.9132e-005  -1.1651e-005   1.0830e-004   7.3247e+003  -8.3178e+002   2.1660e+003    0.0000   -0.0000    0.0000    0.0000    0.0000

               lamina:  4     
              matName:  (blade-root)
                     s           e11           e22           e12           s11           s22           s12   s11_fcT   s11_fcC   s22_fcT   s22_fcC   s12_fcS
                   (m)         (m/m)         (m/m)         (rad)          (Pa)          (Pa)          (Pa)       (-)       (-)       (-)       (-)       (-)
                0.0000   2.7116e-004  -1.0845e-004   1.5489e-005   7.5927e+006   2.7759e+002   1.0842e+005    0.0527   -0.0000    0.0000   -0.0000    0.0018
                0.2676   2.6511e-004  -1.0602e-004   2.6366e-005   7.4231e+006   2.7140e+002   1.8456e+005    0.0515   -0.0000    0.0000   -0.0000    0.0031
                0.5506   2.5588e-004  -1.0234e-004   3.7538e-005   7.1648e+006   2.6195e+002   2.6277e+005    0.0498   -0.0000    0.0000   -0.0000    0.0044
                0.8262   2.4399e-004  -9.7578e-005   4.7977e-005   6.8317e+006   2.4977e+002   3.3584e+005    0.0474   -0.0000    0.0000   -0.0000    0.0056
                1.1058   2.2933e-004  -9.1716e-005   5.8003e-005   6.4213e+006   2.3475e+002   4.0602e+005    0.0446   -0.0000    0.0000   -0.0000    0.0068
                1.3885   2.1211e-004  -8.4828e-005   6.7461e-005   5.9390e+006   2.1712e+002   4.7223e+005    0.0412   -0.0000    0.0000   -0.0000    0.0079
                1.6721   1.9256e-004  -7.7010e-005   7.6157e-005   5.3917e+006   1.9710e+002   5.3310e+005    0.0374   -0.0000    0.0000   -0.0000    0.0089
                1.9581   1.7085e-004  -6.8328e-005   8.4031e-005   4.7838e+006   1.7487e+002   5.8822e+005    0.0332   -0.0000    0.0000   -0.0000    0.0098
                2.2474   1.4723e-004  -5.8883e-005   9.1003e-005   4.1225e+006   1.5069e+002   6.3702e+005    0.0286   -0.0000    0.0000   -0.0000    0.0106
                2.5365   1.2206e-004  -4.8817e-005   9.6901e-005   3.4178e+006   1.2491e+002   6.7831e+005    0.0237   -0.0000    0.0000   -0.0000    0.0113
                2.8278   9.5540e-005  -3.8209e-005   1.0170e-004   2.6752e+006   9.7754e+001   7.1192e+005    0.0186   -0.0000    0.0000   -0.0000    0.0119
                3.1202   6.8043e-005  -2.7213e-005   1.0532e-004   1.9052e+006   6.9594e+001   7.3727e+005    0.0132   -0.0000    0.0000   -0.0000    0.0123
                3.4160   3.9636e-005  -1.5852e-005   1.0773e-004   1.1098e+006   4.0526e+001   7.5414e+005    0.0077   -0.0000    0.0000   -0.0000    0.0126
                3.5251   2.9129e-005  -1.1649e-005   1.0830e-004   8.1561e+005   2.9738e+001   7.5811e+005    0.0057   -0.0000    0.0000   -0.0000    0.0126

               lamina:  5     
              matName:  (blade-shell)
                     s           e11           e22           e12           s11           s22           s12   s11_fcT   s11_fcC   s22_fcT   s22_fcC   s12_fcS
                   (m)         (m/m)         (m/m)         (rad)          (Pa)          (Pa)          (Pa)       (-)       (-)       (-)       (-)       (-)
                0.0000   2.5136e-004  -1.0053e-004   1.5489e-005   7.0383e+006   2.7757e+002   1.0842e+005    0.0489   -0.0000    0.0000   -0.0000    0.0018
                0.2676   2.4560e-004  -9.8223e-005   2.6366e-005   6.8770e+006   2.7137e+002   1.8456e+005    0.0478   -0.0000    0.0000   -0.0000    0.0031
                0.5506   2.3715e-004  -9.4842e-005   3.7538e-005   6.6402e+006   2.6193e+002   2.6277e+005    0.0461   -0.0000    0.0000   -0.0000    0.0044
                0.8262   2.2630e-004  -9.0504e-005   4.7977e-005   6.3365e+006   2.4974e+002   3.3584e+005    0.0440   -0.0000    0.0000   -0.0000    0.0056
                1.1058   2.1286e-004  -8.5127e-005   5.8003e-005   5.9601e+006   2.3474e+002   4.0602e+005    0.0414   -0.0000    0.0000   -0.0000    0.0068
                1.3885   1.9705e-004  -7.8806e-005   6.7461e-005   5.5175e+006   2.1710e+002   4.7223e+005    0.0383   -0.0000    0.0000   -0.0000    0.0079
                1.6721   1.7912e-004  -7.1634e-005   7.6157e-005   5.0153e+006   1.9708e+002   5.3310e+005    0.0348   -0.0000    0.0000   -0.0000    0.0089
                1.9581   1.5911e-004  -6.3632e-005   8.4031e-005   4.4551e+006   1.7486e+002   5.8822e+005    0.0309   -0.0000    0.0000   -0.0000    0.0098
                2.2474   1.3738e-004  -5.4941e-005   9.1003e-005   3.8466e+006   1.5068e+002   6.3702e+005    0.0267   -0.0000    0.0000   -0.0000    0.0106
                2.5365   1.1427e-004  -4.5698e-005   9.6901e-005   3.1995e+006   1.2490e+002   6.7831e+005    0.0222   -0.0000    0.0000   -0.0000    0.0113
                2.8278   8.9859e-005  -3.5937e-005   1.0170e-004   2.5161e+006   9.7748e+001   7.1192e+005    0.0175   -0.0000    0.0000   -0.0000    0.0119
                3.1202   6.4655e-005  -2.5857e-005   1.0532e-004   1.8104e+006   6.9590e+001   7.3727e+005    0.0126   -0.0000    0.0000   -0.0000    0.0123
                3.4160   3.8034e-005  -1.5211e-005   1.0773e-004   1.0650e+006   4.0524e+001   7.5414e+005    0.0074   -0.0000    0.0000   -0.0000    0.0126
                3.5251   2.9088e-005  -1.1633e-005   1.0830e-004   8.1449e+005   2.9738e+001   7.5811e+005    0.0057   -0.0000    0.0000   -0.0000    0.0126

            panel:  2     
           lam_num    nPlies        tPly      fibAng     matID  matName
               (-)       (-)         (m)       (deg)       (-)  (-)
                 1         1    0.005000      0.0000         2  (blade-shell)
                 2         1    0.072601      0.0000         1  (blade-root)
                 3         1    0.006289      0.0000         3  (spar-uni)
                 4         1    0.000000      0.0000         4  (spar-core)
                 5         1    0.006289      0.0000         3  (spar-uni)
                 6         1    0.072601      0.0000         1  (blade-root)
                 7         1    0.005000      0.0000         2  (blade-shell)

               lamina:  1     
              matName:  (blade-shell)
                     s           e11           e22           e12           s11           s22           s12   s11_fcT   s11_fcC   s22_fcT   s22_fcC   s12_fcS
                   (m)         (m/m)         (m/m)         (rad)          (Pa)          (Pa)          (Pa)       (-)       (-)       (-)       (-)       (-)
                0.0000   2.9179e-005  -1.1423e-005   1.0560e-004   8.1854e+005   3.7829e+003   7.3917e+005    0.0057   -0.0000    0.0000   -0.0000    0.0123
                0.1848   9.7159e-006  -3.7905e-006   1.0621e-004   2.7263e+005   1.4580e+003   7.4345e+005    0.0019   -0.0000    0.0000   -0.0000    0.0124
                0.4853  -2.1657e-005   8.5117e-006   1.0605e-004  -6.0733e+005  -2.3022e+003   7.4233e+005    0.0000    0.0029    0.0000    0.0000    0.0124
                0.7884  -5.2734e-005   2.0697e-005   1.0445e-004  -1.4790e+006  -6.0319e+003   7.3118e+005    0.0000    0.0069    0.0000    0.0000    0.0122
                1.0939  -8.3234e-005   3.2656e-005   1.0142e-004  -2.3344e+006  -9.7077e+003   7.0995e+005    0.0000    0.0110    0.0000    0.0000    0.0118
                1.4033  -1.1241e-004   4.4091e-005   9.6931e-005  -3.1529e+006  -1.3305e+004   6.7852e+005    0.0000    0.0148    0.0000    0.0000    0.0113
                1.4690  -1.1964e-004   4.6932e-005   9.5798e-005  -3.3554e+006  -1.4039e+004   6.7059e+005    0.0000    0.0158    0.0000    0.0000    0.0112

               lamina:  2     
              matName:  (blade-root)
                     s           e11           e22           e12           s11           s22           s12   s11_fcT   s11_fcC   s22_fcT   s22_fcC   s12_fcS
                   (m)         (m/m)         (m/m)         (rad)          (Pa)          (Pa)          (Pa)       (-)       (-)       (-)       (-)       (-)
                0.0000   2.9177e-005  -1.1422e-005   1.0560e-004   8.1846e+005   3.7829e+003   7.3917e+005    0.0057   -0.0000    0.0000   -0.0000    0.0123
                0.1848   1.1115e-005  -4.3500e-006   1.0621e-004   3.1179e+005   1.4590e+003   7.4345e+005    0.0022   -0.0000    0.0000   -0.0000    0.0124
                0.4853  -2.1422e-005   8.4175e-006   1.0605e-004  -6.0073e+005  -2.3020e+003   7.4233e+005    0.0000    0.0028    0.0000    0.0000    0.0124
                0.7884  -5.2358e-005   2.0547e-005   1.0445e-004  -1.4684e+006  -6.0316e+003   7.3118e+005    0.0000    0.0069    0.0000    0.0000    0.0122
                1.0939  -8.2726e-005   3.2452e-005   1.0142e-004  -2.3202e+006  -9.7073e+003   7.0995e+005    0.0000    0.0109    0.0000    0.0000    0.0118
                1.4033  -1.1182e-004   4.3852e-005   9.6931e-005  -3.1362e+006  -1.3305e+004   6.7852e+005    0.0000    0.0147    0.0000    0.0000    0.0113
                1.4690  -1.1894e-004   4.6655e-005   9.5798e-005  -3.3361e+006  -1.4039e+004   6.7059e+005    0.0000    0.0157    0.0000    0.0000    0.0112

               lamina:  3     
              matName:  (spar-uni)
                     s           e11           e22           e12           s11           s22           s12   s11_fcT   s11_fcC   s22_fcT   s22_fcC   s12_fcS
                   (m)         (m/m)         (m/m)         (rad)          (Pa)          (Pa)          (Pa)       (-)       (-)       (-)       (-)       (-)
                0.0000   2.9133e-005  -1.1405e-005   1.0560e-004   1.2105e+006  -4.6684e+004   3.1679e+005    0.0012   -0.0000    0.0000    0.0000    0.0106
                0.1848   1.1236e-005  -4.3985e-006   1.0621e-004   4.6686e+005  -1.8004e+004   3.1862e+005    0.0005   -0.0000    0.0000    0.0000    0.0106
                0.4853  -1.8002e-005   7.0496e-006   1.0605e-004  -7.4799e+005   2.8882e+004   3.1814e+005    0.0000    0.0011    0.0000   -0.0000    0.0106
                0.7884  -4.6887e-005   1.8359e-005   1.0445e-004  -1.9482e+006   7.5189e+004   3.1336e+005    0.0000    0.0028    0.0000   -0.0000    0.0104
                1.0939  -7.5345e-005   2.9500e-005   1.0142e-004  -3.1306e+006   1.2081e+005   3.0427e+005    0.0000    0.0045    0.0000   -0.0000    0.0101
                1.4033  -1.0315e-004   4.0386e-005   9.6931e-005  -4.2860e+006   1.6538e+005   2.9079e+005    0.0000    0.0061    0.0000   -0.0000    0.0097
                1.4690  -1.0891e-004   4.2643e-005   9.5798e-005  -4.5254e+006   1.7463e+005   2.8739e+005    0.0000    0.0064    0.0000   -0.0000    0.0096

               lamina:  4     
              matName:  (spar-core)
                     s           e11           e22           e12           s11           s22           s12   s11_fcT   s11_fcC   s22_fcT   s22_fcC   s12_fcS
                   (m)         (m/m)         (m/m)         (rad)          (Pa)          (Pa)          (Pa)       (-)       (-)       (-)       (-)       (-)
                0.0000   2.9129e-005  -1.1403e-005   1.0560e-004   7.3453e+003  -7.6125e+002   2.1119e+003    0.0000   -0.0000    0.0000    0.0000    0.0000
                0.1848   1.1236e-005  -4.3985e-006   1.0621e-004   2.8332e+003  -2.9363e+002   2.1241e+003    0.0000   -0.0000    0.0000    0.0000    0.0000
                0.4853  -1.7706e-005   6.9311e-006   1.0605e-004  -4.4646e+003   4.6270e+002   2.1209e+003    0.0000    0.0000    0.0000   -0.0000    0.0000
                0.7884  -4.6413e-005   1.8169e-005   1.0445e-004  -1.1703e+004   1.2129e+003   2.0891e+003    0.0000    0.0000    0.0000   -0.0000    0.0000
                1.0939  -7.4705e-005   2.9245e-005   1.0142e-004  -1.8838e+004   1.9523e+003   2.0284e+003    0.0000    0.0000    0.0000   -0.0000    0.0000
                1.4033  -1.0240e-004   4.0086e-005   9.6931e-005  -2.5821e+004   2.6760e+003   1.9386e+003    0.0000    0.0000    0.0000   -0.0000    0.0000
                1.4690  -1.0804e-004   4.2295e-005   9.5798e-005  -2.7244e+004   2.8235e+003   1.9160e+003    0.0000    0.0000    0.0000   -0.0000    0.0000

               lamina:  5     
              matName:  (spar-uni)
                     s           e11           e22           e12           s11           s22           s12   s11_fcT   s11_fcC   s22_fcT   s22_fcC   s12_fcS
                   (m)         (m/m)         (m/m)         (rad)          (Pa)          (Pa)          (Pa)       (-)       (-)       (-)       (-)       (-)
                0.0000   2.9129e-005  -1.1403e-005   1.0560e-004   1.2104e+006  -4.6677e+004   3.1679e+005    0.0012   -0.0000    0.0000    0.0000    0.0106
                0.1848   1.1357e-005  -4.4469e-006   1.0621e-004   4.7190e+005  -1.8213e+004   3.1862e+005    0.0005   -0.0000    0.0000    0.0000    0.0106
                0.4853  -1.7706e-005   6.9311e-006   1.0605e-004  -7.3569e+005   2.8371e+004   3.1814e+005    0.0000    0.0010    0.0000   -0.0000    0.0106
                0.7884  -4.6413e-005   1.8169e-005   1.0445e-004  -1.9285e+006   7.4372e+004   3.1336e+005    0.0000    0.0027    0.0000   -0.0000    0.0104
                1.0939  -7.4705e-005   2.9245e-005   1.0142e-004  -3.1041e+006   1.1971e+005   3.0427e+005    0.0000    0.0044    0.0000   -0.0000    0.0101
                1.4033  -1.0240e-004   4.0085e-005   9.6931e-005  -4.2548e+006   1.6408e+005   2.9079e+005    0.0000    0.0061    0.0000   -0.0000    0.0097
                1.4690  -1.0804e-004   4.2295e-005   9.5798e-005  -4.4893e+006   1.7313e+005   2.8739e+005    0.0000    0.0064    0.0000   -0.0000    0.0096

               lamina:  6     
              matName:  (blade-root)
                     s           e11           e22           e12           s11           s22           s12   s11_fcT   s11_fcC   s22_fcT   s22_fcC   s12_fcS
                   (m)         (m/m)         (m/m)         (rad)          (Pa)          (Pa)          (Pa)       (-)       (-)       (-)       (-)       (-)
                0.0000   2.9126e-005  -1.1402e-005   1.0560e-004   8.1703e+005   3.7828e+003   7.3917e+005    0.0057   -0.0000    0.0000   -0.0000    0.0123
                0.1848   1.2756e-005  -5.0064e-006   1.0621e-004   3.5775e+005   1.4602e+003   7.4345e+005    0.0025   -0.0000    0.0000   -0.0000    0.0124
                0.4853  -1.7409e-005   6.8126e-006   1.0605e-004  -4.8838e+005  -2.2991e+003   7.4233e+005    0.0000    0.0023    0.0000    0.0000    0.0124
                0.7884  -4.5939e-005   1.7980e-005   1.0445e-004  -1.2887e+006  -6.0270e+003   7.3118e+005    0.0000    0.0061    0.0000    0.0000    0.0122
                1.0939  -7.4066e-005   2.8989e-005   1.0142e-004  -2.0777e+006  -9.7010e+003   7.0995e+005    0.0000    0.0098    0.0000    0.0000    0.0118
                1.4033  -1.0165e-004   3.9785e-005   9.6931e-005  -2.8515e+006  -1.3297e+004   6.7852e+005    0.0000    0.0134    0.0000    0.0000    0.0113
                1.4690  -1.0717e-004   4.1948e-005   9.5798e-005  -3.0065e+006  -1.4030e+004   6.7059e+005    0.0000    0.0141    0.0000    0.0000    0.0112

               lamina:  7     
              matName:  (blade-shell)
                     s           e11           e22           e12           s11           s22           s12   s11_fcT   s11_fcC   s22_fcT   s22_fcC   s12_fcS
                   (m)         (m/m)         (m/m)         (rad)          (Pa)          (Pa)          (Pa)       (-)       (-)       (-)       (-)       (-)
                0.0000   2.9082e-005  -1.1384e-005   1.0560e-004   8.1582e+005   3.7828e+003   7.3917e+005    0.0057   -0.0000    0.0000   -0.0000    0.0123
                0.1848   1.2852e-005  -5.0449e-006   1.0621e-004   3.6044e+005   1.4603e+003   7.4345e+005    0.0025   -0.0000    0.0000   -0.0000    0.0124
                0.4853  -1.3989e-005   5.4448e-006   1.0605e-004  -3.9262e+005  -2.2966e+003   7.4233e+005    0.0000    0.0018    0.0000    0.0000    0.0124
                0.7884  -4.0468e-005   1.5791e-005   1.0445e-004  -1.1355e+006  -6.0230e+003   7.3118e+005    0.0000    0.0053    0.0000    0.0000    0.0122
                1.0939  -6.6685e-005   2.6037e-005   1.0142e-004  -1.8710e+006  -9.6956e+003   7.0995e+005    0.0000    0.0088    0.0000    0.0000    0.0118
                1.4033  -9.2981e-005   3.6319e-005   9.6931e-005  -2.6088e+006  -1.3291e+004   6.7852e+005    0.0000    0.0122    0.0000    0.0000    0.0113
                1.4690  -9.7142e-005   3.7935e-005   9.5798e-005  -2.7256e+006  -1.4023e+004   6.7059e+005    0.0000    0.0128    0.0000    0.0000    0.0112

            panel:  3     
           lam_num    nPlies        tPly      fibAng     matID  matName
               (-)       (-)         (m)       (deg)       (-)  (-)
                 1         1    0.005000      0.0000         2  (blade-shell)
                 2         1    0.072601      0.0000         1  (blade-root)
                 3         1    0.005549      0.0000         6  (TEP-core)
                 4         1    0.072601      0.0000         1  (blade-root)
                 5         1    0.005000      0.0000         2  (blade-shell)

               lamina:  1     
              matName:  (blade-shell)
                     s           e11           e22           e12           s11           s22           s12   s11_fcT   s11_fcC   s22_fcT   s22_fcC   s12_fcS
                   (m)         (m/m)         (m/m)         (rad)          (Pa)          (Pa)          (Pa)       (-)       (-)       (-)       (-)       (-)
                0.0000  -1.1854e-004   4.7407e-005   9.9115e-005  -3.3190e+006  -1.1047e+002   6.9381e+005    0.0000    0.0156    0.0000    0.0000    0.0116
                0.0089  -1.1930e-004   4.7714e-005   9.8969e-005  -3.3405e+006  -1.1125e+002   6.9278e+005    0.0000    0.0157    0.0000    0.0000    0.0115

               lamina:  2     
              matName:  (blade-root)
                     s           e11           e22           e12           s11           s22           s12   s11_fcT   s11_fcC   s22_fcT   s22_fcC   s12_fcS
                   (m)         (m/m)         (m/m)         (rad)          (Pa)          (Pa)          (Pa)       (-)       (-)       (-)       (-)       (-)
                0.0000  -1.1789e-004   4.7150e-005   9.9115e-005  -3.3010e+006  -1.1047e+002   6.9381e+005    0.0000    0.0155    0.0000    0.0000    0.0116
                0.0089  -1.1866e-004   4.7456e-005   9.8969e-005  -3.3225e+006  -1.1125e+002   6.9278e+005    0.0000    0.0156    0.0000    0.0000    0.0115

               lamina:  3     
              matName:  (TEP-core)
                     s           e11           e22           e12           s11           s22           s12   s11_fcT   s11_fcC   s22_fcT   s22_fcC   s12_fcS
                   (m)         (m/m)         (m/m)         (rad)          (Pa)          (Pa)          (Pa)       (-)       (-)       (-)       (-)       (-)
                0.0000  -1.0856e-004   4.3415e-005   9.9115e-005  -2.7295e+004   3.0995e+003   1.9823e+003    0.0000    0.0000    0.0000   -0.0000    0.0000
                0.0089  -1.0932e-004   4.3722e-005   9.8969e-005  -2.7487e+004   3.1214e+003   1.9794e+003    0.0000    0.0000    0.0000   -0.0000    0.0000

               lamina:  4     
              matName:  (blade-root)
                     s           e11           e22           e12           s11           s22           s12   s11_fcT   s11_fcC   s22_fcT   s22_fcC   s12_fcS
                   (m)         (m/m)         (m/m)         (rad)          (Pa)          (Pa)          (Pa)       (-)       (-)       (-)       (-)       (-)
                0.0000  -1.0784e-004   4.3130e-005   9.9115e-005  -3.0196e+006  -1.1046e+002   6.9381e+005    0.0000    0.0142    0.0000    0.0000    0.0116
                0.0089  -1.0861e-004   4.3436e-005   9.8969e-005  -3.0411e+006  -1.1124e+002   6.9278e+005    0.0000    0.0143    0.0000    0.0000    0.0115

               lamina:  5     
              matName:  (blade-shell)
                     s           e11           e22           e12           s11           s22           s12   s11_fcT   s11_fcC   s22_fcT   s22_fcC   s12_fcS
                   (m)         (m/m)         (m/m)         (rad)          (Pa)          (Pa)          (Pa)       (-)       (-)       (-)       (-)       (-)
                0.0000  -9.8505e-005   3.9395e-005   9.9115e-005  -2.7582e+006  -1.1044e+002   6.9381e+005    0.0000    0.0129    0.0000    0.0000    0.0116
                0.0089  -9.9272e-005   3.9701e-005   9.8969e-005  -2.7796e+006  -1.1123e+002   6.9278e+005    0.0000    0.0130    0.0000    0.0000    0.0115

            panel:  4     
           lam_num    nPlies        tPly      fibAng     matID  matName
               (-)       (-)         (m)       (deg)       (-)  (-)
                 1         1    0.005000      0.0000         2  (blade-shell)
                 2         1    0.072601      0.0000         1  (blade-root)
                 3         1    0.005549      0.0000         6  (TEP-core)
                 4         1    0.072601      0.0000         1  (blade-root)
                 5         1    0.005000      0.0000         2  (blade-shell)

               lamina:  1     
              matName:  (blade-shell)
                     s           e11           e22           e12           s11           s22           s12   s11_fcT   s11_fcC   s22_fcT   s22_fcC   s12_fcS
                   (m)         (m/m)         (m/m)         (rad)          (Pa)          (Pa)          (Pa)       (-)       (-)       (-)       (-)       (-)
                0.0000  -1.1930e-004   4.7714e-005   9.9270e-005  -3.3405e+006  -1.1125e+002   6.9489e+005    0.0000    0.0157    0.0000    0.0000    0.0116
                0.2307  -1.4005e-004   5.6012e-005   9.9124e-005  -3.9215e+006  -1.3153e+002   6.9387e+005    0.0000    0.0184    0.0000    0.0000    0.0116
                0.5373  -1.6675e-004   6.6688e-005   9.9124e-005  -4.6690e+006  -1.5729e+002   6.9387e+005    0.0000    0.0219    0.0000    0.0000    0.0116
                0.8408  -1.9181e-004   7.6711e-005   9.4977e-005  -5.3707e+006  -1.8135e+002   6.6484e+005    0.0000    0.0252    0.0000    0.0000    0.0111
                1.1394  -2.1489e-004   8.5944e-005   8.8422e-005  -6.0171e+006  -2.0354e+002   6.1895e+005    0.0000    0.0282    0.0000    0.0000    0.0103
                1.4303  -2.3589e-004   9.4340e-005   8.0815e-005  -6.6049e+006  -2.2359e+002   5.6570e+005    0.0000    0.0310    0.0000    0.0000    0.0094
                1.7151  -2.5444e-004   1.0176e-004   7.2305e-005  -7.1245e+006  -2.4122e+002   5.0614e+005    0.0000    0.0334    0.0000    0.0000    0.0084
                1.9901  -2.7042e-004   1.0815e-004   6.3107e-005  -7.5718e+006  -2.5633e+002   4.4175e+005    0.0000    0.0355    0.0000    0.0000    0.0074
                2.2562  -2.8363e-004   1.1344e-004   5.3309e-005  -7.9418e+006  -2.6868e+002   3.7317e+005    0.0000    0.0373    0.0000    0.0000    0.0062
                2.5156  -2.9383e-004   1.1751e-004   4.3179e-005  -8.2273e+006  -2.7814e+002   3.0225e+005    0.0000    0.0386    0.0000    0.0000    0.0050
                2.7683  -3.0087e-004   1.2033e-004   3.2838e-005  -8.4245e+006  -2.8463e+002   2.2986e+005    0.0000    0.0396    0.0000    0.0000    0.0038
                3.0131  -3.0469e-004   1.2186e-004   2.2336e-005  -8.5315e+006  -2.8812e+002   1.5635e+005    0.0000    0.0401    0.0000    0.0000    0.0026
                3.2630  -3.0501e-004   1.2198e-004   1.1812e-005  -8.5404e+006  -2.8840e+002   8.2681e+004    0.0000    0.0401    0.0000    0.0000    0.0014
                3.5072  -3.0225e-004   1.2088e-004   1.4317e-006  -8.4631e+006  -2.8570e+002   1.0022e+004    0.0000    0.0397    0.0000    0.0000    0.0002

               lamina:  2     
              matName:  (blade-root)
                     s           e11           e22           e12           s11           s22           s12   s11_fcT   s11_fcC   s22_fcT   s22_fcC   s12_fcS
                   (m)         (m/m)         (m/m)         (rad)          (Pa)          (Pa)          (Pa)       (-)       (-)       (-)       (-)       (-)
                0.0000  -1.1866e-004   4.7456e-005   9.9270e-005  -3.3225e+006  -1.1125e+002   6.9489e+005    0.0000    0.0156    0.0000    0.0000    0.0116
                0.2307  -1.3935e-004   5.5732e-005   9.9124e-005  -3.9019e+006  -1.3153e+002   6.9387e+005    0.0000    0.0183    0.0000    0.0000    0.0116
                0.5373  -1.6596e-004   6.6373e-005   9.9124e-005  -4.6469e+006  -1.5729e+002   6.9387e+005    0.0000    0.0218    0.0000    0.0000    0.0116
                0.8408  -1.9093e-004   7.6358e-005   9.4977e-005  -5.3460e+006  -1.8135e+002   6.6484e+005    0.0000    0.0251    0.0000    0.0000    0.0111
                1.1394  -2.1393e-004   8.5558e-005   8.8422e-005  -5.9901e+006  -2.0354e+002   6.1895e+005    0.0000    0.0281    0.0000    0.0000    0.0103
                1.4303  -2.3484e-004   9.3920e-005   8.0815e-005  -6.5755e+006  -2.2359e+002   5.6570e+005    0.0000    0.0309    0.0000    0.0000    0.0094
                1.7151  -2.5331e-004   1.0131e-004   7.2305e-005  -7.0928e+006  -2.4122e+002   5.0614e+005    0.0000    0.0333    0.0000    0.0000    0.0084
                1.9901  -2.6922e-004   1.0767e-004   6.3107e-005  -7.5381e+006  -2.5633e+002   4.4175e+005    0.0000    0.0354    0.0000    0.0000    0.0074
                2.2562  -2.8236e-004   1.1293e-004   5.3309e-005  -7.9062e+006  -2.6868e+002   3.7317e+005    0.0000    0.0371    0.0000    0.0000    0.0062
                2.5156  -2.9250e-004   1.1698e-004   4.3179e-005  -8.1900e+006  -2.7814e+002   3.0225e+005    0.0000    0.0385    0.0000    0.0000    0.0050
                2.7683  -2.9950e-004   1.1978e-004   3.2838e-005  -8.3860e+006  -2.8463e+002   2.2986e+005    0.0000    0.0394    0.0000    0.0000    0.0038
                3.0131  -3.0329e-004   1.2130e-004   2.2336e-005  -8.4923e+006  -2.8812e+002   1.5635e+005    0.0000    0.0399    0.0000    0.0000    0.0026
                3.2630  -3.0361e-004   1.2142e-004   1.1812e-005  -8.5011e+006  -2.8840e+002   8.2681e+004    0.0000    0.0399    0.0000    0.0000    0.0014
                3.5072  -3.0086e-004   1.2032e-004   1.4317e-006  -8.4241e+006  -2.8570e+002   1.0022e+004    0.0000    0.0395    0.0000    0.0000    0.0002

               lamina:  3     
              matName:  (TEP-core)
                     s           e11           e22           e12           s11           s22           s12   s11_fcT   s11_fcC   s22_fcT   s22_fcC   s12_fcS
                   (m)         (m/m)         (m/m)         (rad)          (Pa)          (Pa)          (Pa)       (-)       (-)       (-)       (-)       (-)
                0.0000  -1.0932e-004   4.3722e-005   9.9270e-005  -2.7487e+004   3.1214e+003   1.9854e+003    0.0000    0.0000    0.0000   -0.0000    0.0000
                0.2307  -1.2921e-004   5.1677e-005   9.9124e-005  -3.2489e+004   3.6894e+003   1.9825e+003    0.0000    0.0000    0.0000   -0.0000    0.0000
                0.5373  -1.5450e-004   6.1791e-005   9.9124e-005  -3.8847e+004   4.4114e+003   1.9825e+003    0.0000    0.0000    0.0000   -0.0000    0.0000
                0.8408  -1.7812e-004   7.1236e-005   9.4977e-005  -4.4785e+004   5.0857e+003   1.8995e+003    0.0000    0.0000    0.0000   -0.0000    0.0000
                1.1394  -1.9990e-004   7.9947e-005   8.8422e-005  -5.0262e+004   5.7077e+003   1.7684e+003    0.0000    0.0000    0.0000   -0.0000    0.0000
                1.4303  -2.1958e-004   8.7818e-005   8.0815e-005  -5.5211e+004   6.2696e+003   1.6163e+003    0.0000    0.0000    0.0000   -0.0000    0.0000
                1.7151  -2.3690e-004   9.4744e-005   7.2305e-005  -5.9565e+004   6.7640e+003   1.4461e+003    0.0000    0.0000    0.0000   -0.0000    0.0000
                1.9901  -2.5174e-004   1.0068e-004   6.3107e-005  -6.3296e+004   7.1878e+003   1.2621e+003    0.0000    0.0000    0.0000   -0.0000    0.0000
                2.2562  -2.6388e-004   1.0553e-004   5.3309e-005  -6.6347e+004   7.5343e+003   1.0662e+003    0.0000    0.0000    0.0000   -0.0000    0.0000
                2.5156  -2.7317e-004   1.0925e-004   4.3179e-005  -6.8684e+004   7.7996e+003   8.6358e+002    0.0000    0.0000    0.0000   -0.0000    0.0000
                2.7683  -2.7955e-004   1.1180e-004   3.2838e-005  -7.0289e+004   7.9819e+003   6.5676e+002    0.0000    0.0000    0.0000   -0.0000    0.0000
                3.0131  -2.8299e-004   1.1318e-004   2.2336e-005  -7.1152e+004   8.0799e+003   4.4672e+002    0.0000    0.0000    0.0000   -0.0000    0.0000
                3.2630  -2.8326e-004   1.1329e-004   1.1812e-005  -7.1222e+004   8.0878e+003   2.3623e+002    0.0000    0.0000    0.0000   -0.0000    0.0000
                3.5072  -2.8061e-004   1.1223e-004   1.4317e-006  -7.0555e+004   8.0121e+003   2.8633e+001    0.0000    0.0000    0.0000   -0.0000    0.0000

               lamina:  4     
              matName:  (blade-root)
                     s           e11           e22           e12           s11           s22           s12   s11_fcT   s11_fcC   s22_fcT   s22_fcC   s12_fcS
                   (m)         (m/m)         (m/m)         (rad)          (Pa)          (Pa)          (Pa)       (-)       (-)       (-)       (-)       (-)
                0.0000  -1.0861e-004   4.3436e-005   9.9270e-005  -3.0411e+006  -1.1124e+002   6.9489e+005    0.0000    0.0143    0.0000    0.0000    0.0116
                0.2307  -1.2844e-004   5.1367e-005   9.9124e-005  -3.5963e+006  -1.3151e+002   6.9387e+005    0.0000    0.0169    0.0000    0.0000    0.0116
                0.5373  -1.5363e-004   6.1441e-005   9.9124e-005  -4.3016e+006  -1.5728e+002   6.9387e+005    0.0000    0.0202    0.0000    0.0000    0.0116
                0.8408  -1.7714e-004   7.0844e-005   9.4977e-005  -4.9600e+006  -1.8133e+002   6.6484e+005    0.0000    0.0233    0.0000    0.0000    0.0111
                1.1394  -1.9883e-004   7.9518e-005   8.8422e-005  -5.5673e+006  -2.0352e+002   6.1895e+005    0.0000    0.0261    0.0000    0.0000    0.0103
                1.4303  -2.1842e-004   8.7352e-005   8.0815e-005  -6.1158e+006  -2.2357e+002   5.6570e+005    0.0000    0.0287    0.0000    0.0000    0.0094
                1.7151  -2.3564e-004   9.4242e-005   7.2305e-005  -6.5981e+006  -2.4120e+002   5.0614e+005    0.0000    0.0310    0.0000    0.0000    0.0084
                1.9901  -2.5040e-004   1.0014e-004   6.3107e-005  -7.0114e+006  -2.5631e+002   4.4175e+005    0.0000    0.0329    0.0000    0.0000    0.0074
                2.2562  -2.6246e-004   1.0497e-004   5.3309e-005  -7.3491e+006  -2.6866e+002   3.7317e+005    0.0000    0.0345    0.0000    0.0000    0.0062
                2.5156  -2.7169e-004   1.0866e-004   4.3179e-005  -7.6075e+006  -2.7811e+002   3.0225e+005    0.0000    0.0357    0.0000    0.0000    0.0050
                2.7683  -2.7803e-004   1.1119e-004   3.2838e-005  -7.7849e+006  -2.8461e+002   2.2986e+005    0.0000    0.0365    0.0000    0.0000    0.0038
                3.0131  -2.8143e-004   1.1255e-004   2.2336e-005  -7.8802e+006  -2.8810e+002   1.5635e+005    0.0000    0.0370    0.0000    0.0000    0.0026
                3.2630  -2.8171e-004   1.1266e-004   1.1812e-005  -7.8879e+006  -2.8838e+002   8.2681e+004    0.0000    0.0370    0.0000    0.0000    0.0014
                3.5072  -2.7906e-004   1.1161e-004   1.4317e-006  -7.8139e+006  -2.8568e+002   1.0022e+004    0.0000    0.0367    0.0000    0.0000    0.0002

               lamina:  5     
              matName:  (blade-shell)
                     s           e11           e22           e12           s11           s22           s12   s11_fcT   s11_fcC   s22_fcT   s22_fcC   s12_fcS
                   (m)         (m/m)         (m/m)         (rad)          (Pa)          (Pa)          (Pa)       (-)       (-)       (-)       (-)       (-)
                0.0000  -9.9272e-005   3.9701e-005   9.9270e-005  -2.7796e+006  -1.1123e+002   6.9489e+005    0.0000    0.0130    0.0000    0.0000    0.0116
                0.2307  -1.1830e-004   4.7311e-005   9.9124e-005  -3.3125e+006  -1.3150e+002   6.9387e+005    0.0000    0.0156    0.0000    0.0000    0.0116
                0.5373  -1.4217e-004   5.6859e-005   9.9124e-005  -3.9809e+006  -1.5727e+002   6.9387e+005    0.0000    0.0187    0.0000    0.0000    0.0116
                0.8408  -1.6433e-004   6.5721e-005   9.4977e-005  -4.6014e+006  -1.8132e+002   6.6484e+005    0.0000    0.0216    0.0000    0.0000    0.0111
                1.1394  -1.8480e-004   7.3908e-005   8.8422e-005  -5.1746e+006  -2.0351e+002   6.1895e+005    0.0000    0.0243    0.0000    0.0000    0.0103
                1.4303  -2.0316e-004   8.1251e-005   8.0815e-005  -5.6887e+006  -2.2355e+002   5.6570e+005    0.0000    0.0267    0.0000    0.0000    0.0094
                1.7151  -2.1923e-004   8.7677e-005   7.2305e-005  -6.1386e+006  -2.4118e+002   5.0614e+005    0.0000    0.0288    0.0000    0.0000    0.0084
                1.9901  -2.3293e-004   9.3155e-005   6.3107e-005  -6.5221e+006  -2.5629e+002   4.4175e+005    0.0000    0.0306    0.0000    0.0000    0.0074
                2.2562  -2.4398e-004   9.7574e-005   5.3309e-005  -6.8315e+006  -2.6864e+002   3.7317e+005    0.0000    0.0321    0.0000    0.0000    0.0062
                2.5156  -2.5236e-004   1.0093e-004   4.3179e-005  -7.0662e+006  -2.7809e+002   3.0225e+005    0.0000    0.0332    0.0000    0.0000    0.0050
                2.7683  -2.5808e-004   1.0321e-004   3.2838e-005  -7.2264e+006  -2.8458e+002   2.2986e+005    0.0000    0.0339    0.0000    0.0000    0.0038
                3.0131  -2.6112e-004   1.0443e-004   2.2336e-005  -7.3116e+006  -2.8807e+002   1.5635e+005    0.0000    0.0343    0.0000    0.0000    0.0026
                3.2630  -2.6136e-004   1.0453e-004   1.1812e-005  -7.3182e+006  -2.8835e+002   8.2681e+004    0.0000    0.0344    0.0000    0.0000    0.0014
                3.5072  -2.5882e-004   1.0351e-004   1.4317e-006  -7.2471e+006  -2.8565e+002   1.0022e+004    0.0000    0.0340    0.0000    0.0000    0.0002

     Web:  panel  nNode   nLam     xc_St    xc_End         b         t         E_eff         G_eff      nu_eff     density  buckleCrit
            (-)    (-)    (-)       (-)       (-)       (m)       (m)          (Pa)          (Pa)         (-)    (kg/m^3)         (-)
              1     10      3    0.3646    0.3646    4.7798    0.0830   7.6445e+008   4.5301e+008      0.4420    257.1084      0.0000
              2     10      3    0.6169    0.6169    4.6691    0.0830   7.6445e+008   4.5301e+008      0.4420    257.1084      0.0003

            panel:  1     
           lam_num    nPlies        tPly      fibAng     matID  matName
               (-)       (-)         (m)       (deg)       (-)  (-)
                 1         1    0.001500      0.0000         7  (web-shell)
                 2         1    0.080000      0.0000         8  (web-core)
                 3         1    0.001500      0.0000         7  (web-shell)

               lamina:  1     
              matName:  (web-shell)
                     s           e11           e22           e12           s11           s22           s12   s11_fcT   s11_fcC   s22_fcT   s22_fcC   s12_fcS
                   (m)         (m/m)         (m/m)         (rad)          (Pa)          (Pa)          (Pa)       (-)       (-)       (-)       (-)       (-)
                0.0000   1.0517e-004  -4.6310e-005   6.2347e-006   1.5310e+006   1.1714e+005   7.4816e+004    0.0106   -0.0000    0.0000   -0.0000    0.0008
                0.5311   9.6151e-005  -4.2323e-005   9.8158e-006   1.3998e+006   1.0738e+005   1.1779e+005    0.0097   -0.0000    0.0000   -0.0000    0.0013
                1.0622   8.7131e-005  -3.8336e-005   1.3092e-005   1.2686e+006   9.7616e+004   1.5710e+005    0.0088   -0.0000    0.0000   -0.0000    0.0017
                1.5933   7.8110e-005  -3.4349e-005   1.6062e-005   1.1375e+006   8.7855e+004   1.9274e+005    0.0079   -0.0000    0.0000   -0.0000    0.0021
                2.1244   6.9090e-005  -3.0361e-005   1.8727e-005   1.0063e+006   7.8094e+004   2.2472e+005    0.0070   -0.0000    0.0000   -0.0000    0.0025
                2.6554   6.0070e-005  -2.6374e-005   2.1087e-005   8.7514e+005   6.8333e+004   2.5304e+005    0.0061   -0.0000    0.0000   -0.0000    0.0028
                3.1865   5.1049e-005  -2.2387e-005   2.3141e-005   7.4397e+005   5.8571e+004   2.7769e+005    0.0052   -0.0000    0.0000   -0.0000    0.0031
                3.7176   4.2029e-005  -1.8400e-005   2.4889e-005   6.1281e+005   4.8810e+004   2.9867e+005    0.0043   -0.0000    0.0000   -0.0000    0.0033
                4.2487   3.3008e-005  -1.4412e-005   2.6333e-005   4.8164e+005   3.9049e+004   3.1599e+005    0.0033   -0.0000    0.0000   -0.0000    0.0035
                4.7798   2.3988e-005  -1.0425e-005   2.7471e-005   3.5047e+005   2.9288e+004   3.2965e+005    0.0024   -0.0000    0.0000   -0.0000    0.0037

               lamina:  2     
              matName:  (web-core)
                     s           e11           e22           e12           s11           s22           s12   s11_fcT   s11_fcC   s22_fcT   s22_fcC   s12_fcS
                   (m)         (m/m)         (m/m)         (rad)          (Pa)          (Pa)          (Pa)       (-)       (-)       (-)       (-)       (-)
                0.0000   1.1543e-004  -5.1200e-005   6.2347e-006   2.8590e+004  -4.7349e+003   1.2469e+002    0.0000   -0.0000    0.0000    0.0000    0.0000
                0.5311   1.0640e-004  -4.7212e-005   9.8158e-006   2.6355e+004  -4.3688e+003   1.9632e+002    0.0000   -0.0000    0.0000    0.0000    0.0000
                1.0622   9.7384e-005  -4.3225e-005   1.3092e-005   2.4119e+004  -4.0028e+003   2.6183e+002    0.0000   -0.0000    0.0000    0.0000    0.0000
                1.5933   8.8364e-005  -3.9238e-005   1.6062e-005   2.1884e+004  -3.6368e+003   3.2124e+002    0.0000   -0.0000    0.0000    0.0000    0.0000
                2.1244   7.9344e-005  -3.5251e-005   1.8727e-005   1.9648e+004  -3.2707e+003   3.7454e+002    0.0000   -0.0000    0.0000    0.0000    0.0000
                2.6554   7.0323e-005  -3.1263e-005   2.1087e-005   1.7413e+004  -2.9047e+003   4.2173e+002    0.0000   -0.0000    0.0000    0.0000    0.0000
                3.1865   6.1303e-005  -2.7276e-005   2.3141e-005   1.5177e+004  -2.5386e+003   4.6281e+002    0.0000   -0.0000    0.0000    0.0000    0.0000
                3.7176   5.2282e-005  -2.3289e-005   2.4889e-005   1.2942e+004  -2.1726e+003   4.9779e+002    0.0000   -0.0000    0.0000    0.0000    0.0000
                4.2487   4.3262e-005  -1.9301e-005   2.6333e-005   1.0706e+004  -1.8065e+003   5.2666e+002    0.0000   -0.0000    0.0000    0.0000    0.0000
                4.7798   3.4242e-005  -1.5314e-005   2.7471e-005   8.4707e+003  -1.4405e+003   5.4942e+002    0.0000   -0.0000    0.0000    0.0000    0.0000

               lamina:  3     
              matName:  (web-shell)
                     s           e11           e22           e12           s11           s22           s12   s11_fcT   s11_fcC   s22_fcT   s22_fcC   s12_fcS
                   (m)         (m/m)         (m/m)         (rad)          (Pa)          (Pa)          (Pa)       (-)       (-)       (-)       (-)       (-)
                0.0000   1.1562e-004  -5.1291e-005   6.2347e-006   1.6795e+006   1.2166e+005   7.4816e+004    0.0117   -0.0000    0.0000   -0.0000    0.0008
                0.5311   1.0660e-004  -4.7304e-005   9.8158e-006   1.5483e+006   1.1190e+005   1.1779e+005    0.0108   -0.0000    0.0000   -0.0000    0.0013
                1.0622   9.7577e-005  -4.3317e-005   1.3092e-005   1.4171e+006   1.0214e+005   1.5710e+005    0.0098   -0.0000    0.0000   -0.0000    0.0017
                1.5933   8.8556e-005  -3.9330e-005   1.6062e-005   1.2860e+006   9.2374e+004   1.9274e+005    0.0089   -0.0000    0.0000   -0.0000    0.0021
                2.1244   7.9536e-005  -3.5342e-005   1.8727e-005   1.1548e+006   8.2613e+004   2.2472e+005    0.0080   -0.0000    0.0000   -0.0000    0.0025
                2.6554   7.0515e-005  -3.1355e-005   2.1087e-005   1.0236e+006   7.2852e+004   2.5304e+005    0.0071   -0.0000    0.0000   -0.0000    0.0028
                3.1865   6.1495e-005  -2.7368e-005   2.3141e-005   8.9248e+005   6.3091e+004   2.7769e+005    0.0062   -0.0000    0.0000   -0.0000    0.0031
                3.7176   5.2475e-005  -2.3380e-005   2.4889e-005   7.6131e+005   5.3330e+004   2.9867e+005    0.0053   -0.0000    0.0000   -0.0000    0.0033
                4.2487   4.3454e-005  -1.9393e-005   2.6333e-005   6.3014e+005   4.3568e+004   3.1599e+005    0.0044   -0.0000    0.0000   -0.0000    0.0035
                4.7798   3.4434e-005  -1.5406e-005   2.7471e-005   4.9898e+005   3.3807e+004   3.2965e+005    0.0035   -0.0000    0.0000   -0.0000    0.0037

            panel:  2     
           lam_num    nPlies        tPly      fibAng     matID  matName
               (-)       (-)         (m)       (deg)       (-)  (-)
                 1         1    0.001500      0.0000         7  (web-shell)
                 2         1    0.080000      0.0000         8  (web-core)
                 3         1    0.001500      0.0000         7  (web-shell)

               lamina:  1     
              matName:  (web-shell)
                     s           e11           e22           e12           s11           s22           s12   s11_fcT   s11_fcC   s22_fcT   s22_fcC   s12_fcS
                   (m)         (m/m)         (m/m)         (rad)          (Pa)          (Pa)          (Pa)       (-)       (-)       (-)       (-)       (-)
                0.0000  -3.1555e-005   1.4133e-005   2.8293e-005  -4.5711e+005  -3.0691e+004   3.3951e+005    0.0000    0.0021    0.0000    0.0000    0.0038
                0.5188  -4.0351e-005   1.8021e-005   2.7279e-005  -5.8501e+005  -4.0210e+004   3.2735e+005    0.0000    0.0027    0.0000    0.0000    0.0036
                1.0376  -4.9146e-005   2.1909e-005   2.5975e-005  -7.1291e+005  -4.9728e+004   3.1170e+005    0.0000    0.0033    0.0000    0.0000    0.0035
                1.5564  -5.7942e-005   2.5797e-005   2.4380e-005  -8.4081e+005  -5.9246e+004   2.9256e+005    0.0000    0.0039    0.0000    0.0000    0.0033
                2.0751  -6.6738e-005   2.9685e-005   2.2493e-005  -9.6872e+005  -6.8764e+004   2.6992e+005    0.0000    0.0045    0.0000    0.0000    0.0030
                2.5939  -7.5534e-005   3.3573e-005   2.0316e-005  -1.0966e+006  -7.8282e+004   2.4380e+005    0.0000    0.0051    0.0000    0.0000    0.0027
                3.1127  -8.4330e-005   3.7461e-005   1.7848e-005  -1.2245e+006  -8.7801e+004   2.1418e+005    0.0000    0.0057    0.0000    0.0000    0.0024
                3.6315  -9.3126e-005   4.1349e-005   1.5089e-005  -1.3524e+006  -9.7319e+004   1.8107e+005    0.0000    0.0063    0.0000    0.0000    0.0020
                4.1503  -1.0192e-004   4.5237e-005   1.2039e-005  -1.4803e+006  -1.0684e+005   1.4447e+005    0.0000    0.0069    0.0000    0.0000    0.0016
                4.6691  -1.1072e-004   4.9125e-005   8.6988e-006  -1.6082e+006  -1.1636e+005   1.0439e+005    0.0000    0.0076    0.0000    0.0000    0.0012

               lamina:  2     
              matName:  (web-core)
                     s           e11           e22           e12           s11           s22           s12   s11_fcT   s11_fcC   s22_fcT   s22_fcC   s12_fcS
                   (m)         (m/m)         (m/m)         (rad)          (Pa)          (Pa)          (Pa)       (-)       (-)       (-)       (-)       (-)
                0.0000  -3.1363e-005   1.4042e-005   2.8293e-005  -7.7572e+003   1.3237e+003   5.6586e+002    0.0000    0.0000    0.0000   -0.0000    0.0000
                0.5188  -4.0158e-005   1.7930e-005   2.7279e-005  -9.9370e+003   1.6806e+003   5.4559e+002    0.0000    0.0000    0.0000   -0.0000    0.0000
                1.0376  -4.8954e-005   2.1818e-005   2.5975e-005  -1.2117e+004   2.0375e+003   5.1950e+002    0.0000    0.0000    0.0000   -0.0000    0.0000
                1.5564  -5.7750e-005   2.5706e-005   2.4380e-005  -1.4297e+004   2.3944e+003   4.8759e+002    0.0000    0.0000    0.0000   -0.0000    0.0000
                2.0751  -6.6546e-005   2.9594e-005   2.2493e-005  -1.6477e+004   2.7514e+003   4.4987e+002    0.0000    0.0000    0.0000   -0.0000    0.0000
                2.5939  -7.5342e-005   3.3482e-005   2.0316e-005  -1.8656e+004   3.1083e+003   4.0633e+002    0.0000    0.0000    0.0000   -0.0000    0.0000
                3.1127  -8.4138e-005   3.7370e-005   1.7848e-005  -2.0836e+004   3.4652e+003   3.5696e+002    0.0000    0.0000    0.0000   -0.0000    0.0000
                3.6315  -9.2933e-005   4.1258e-005   1.5089e-005  -2.3016e+004   3.8222e+003   3.0179e+002    0.0000    0.0000    0.0000   -0.0000    0.0000
                4.1503  -1.0173e-004   4.5146e-005   1.2039e-005  -2.5196e+004   4.1791e+003   2.4079e+002    0.0000    0.0000    0.0000   -0.0000    0.0000
                4.6691  -1.1053e-004   4.9034e-005   8.6988e-006  -2.7376e+004   4.5360e+003   1.7398e+002    0.0000    0.0000    0.0000   -0.0000    0.0000

               lamina:  3     
              matName:  (web-shell)
                     s           e11           e22           e12           s11           s22           s12   s11_fcT   s11_fcC   s22_fcT   s22_fcC   s12_fcS
                   (m)         (m/m)         (m/m)         (rad)          (Pa)          (Pa)          (Pa)       (-)       (-)       (-)       (-)       (-)
                0.0000  -2.1108e-005   9.1521e-006   2.8293e-005  -3.0860e+005  -2.6172e+004   3.3951e+005    0.0000    0.0014    0.0000    0.0000    0.0038
                0.5188  -2.9904e-005   1.3040e-005   2.7279e-005  -4.3650e+005  -3.5690e+004   3.2735e+005    0.0000    0.0020    0.0000    0.0000    0.0036
                1.0376  -3.8700e-005   1.6928e-005   2.5975e-005  -5.6440e+005  -4.5208e+004   3.1170e+005    0.0000    0.0026    0.0000    0.0000    0.0035
                1.5564  -4.7496e-005   2.0816e-005   2.4380e-005  -6.9230e+005  -5.4726e+004   2.9256e+005    0.0000    0.0033    0.0000    0.0000    0.0033
                2.0751  -5.6292e-005   2.4704e-005   2.2493e-005  -8.2020e+005  -6.4245e+004   2.6992e+005    0.0000    0.0039    0.0000    0.0000    0.0030
                2.5939  -6.5087e-005   2.8592e-005   2.0316e-005  -9.4810e+005  -7.3763e+004   2.4380e+005    0.0000    0.0045    0.0000    0.0000    0.0027
                3.1127  -7.3883e-005   3.2480e-005   1.7848e-005  -1.0760e+006  -8.3281e+004   2.1418e+005    0.0000    0.0051    0.0000    0.0000    0.0024
                3.6315  -8.2679e-005   3.6368e-005   1.5089e-005  -1.2039e+006  -9.2799e+004   1.8107e+005    0.0000    0.0057    0.0000    0.0000    0.0020
                4.1503  -9.1475e-005   4.0256e-005   1.2039e-005  -1.3318e+006  -1.0232e+005   1.4447e+005    0.0000    0.0063    0.0000    0.0000    0.0016
                4.6691  -1.0027e-004   4.4144e-005   8.6988e-006  -1.4597e+006  -1.1184e+005   1.0439e+005    0.0000    0.0069    0.0000    0.0000    0.0012

================================================================================
sec        =  6      
zSec       =  5.7000  (m)
nPanelsTop =  4      
nPanelsBot =  4      
nWebs      =  2      

    Top:  panel  nNode   nLam     xc_St    xc_End         b         t         E_eff         G_eff      nu_eff     density  buckleCrit
            (-)    (-)    (-)       (-)       (-)       (m)       (m)          (Pa)          (Pa)         (-)    (kg/m^3)         (-)
              1     14      5    0.0000    0.3553    3.4371    0.1498   2.5752e+010   6.4343e+009      0.3998   1716.2678      0.0000
              2      6      7    0.3553    0.5967    1.4717    0.1651   3.0361e+010   6.3336e+009      0.3809   1861.6586      0.0000
              3      2      5    0.5967    0.5981    0.0085    0.1498   2.5752e+010   6.4343e+009      0.3998   1716.2678      0.0000
              4     15      5    0.5981    1.0000    3.5780    0.1498   2.5752e+010   6.4343e+009      0.3998   1716.2678      0.0049

            panel:  1     
           lam_num    nPlies        tPly      fibAng     matID  matName
               (-)       (-)         (m)       (deg)       (-)  (-)
                 1         1    0.005000      0.0000         2  (blade-shell)
                 2         1    0.063815      0.0000         1  (blade-root)
                 3         1    0.012139      0.0000         5  (LEP-core)
                 4         1    0.063815      0.0000         1  (blade-root)
                 5         1    0.005000      0.0000         2  (blade-shell)

               lamina:  1     
              matName:  (blade-shell)
                     s           e11           e22           e12           s11           s22           s12   s11_fcT   s11_fcC   s22_fcT   s22_fcC   s12_fcS
                   (m)         (m/m)         (m/m)         (rad)          (Pa)          (Pa)          (Pa)       (-)       (-)       (-)       (-)       (-)
                0.0000   2.9979e-004  -1.1987e-004   1.7237e-005   8.3943e+006   7.0433e+002   1.2066e+005    0.0583   -0.0000    0.0000   -0.0000    0.0020
                0.2610   3.0333e-004  -1.2129e-004   6.3168e-006   8.4936e+006   7.1293e+002   4.4217e+004    0.0590   -0.0000    0.0000   -0.0000    0.0007
                0.5251   3.0366e-004  -1.2142e-004   4.8010e-006   8.5027e+006   7.1366e+002   3.3607e+004    0.0590   -0.0000    0.0000   -0.0000    0.0006
                0.8080   3.0088e-004  -1.2031e-004   1.6669e-005   8.4249e+006   7.0729e+002   1.1668e+005    0.0585   -0.0000    0.0000   -0.0000    0.0019
                1.0734   2.9424e-004  -1.1765e-004   2.7628e-005   8.2390e+006   6.9202e+002   1.9340e+005    0.0572   -0.0000    0.0000   -0.0000    0.0032
                1.3501   2.8444e-004  -1.1373e-004   3.8747e-005   7.9645e+006   6.6929e+002   2.7123e+005    0.0553   -0.0000    0.0000   -0.0000    0.0045
                1.6271   2.7128e-004  -1.0847e-004   4.9446e-005   7.5962e+006   6.3889e+002   3.4613e+005    0.0528   -0.0000    0.0000   -0.0000    0.0058
                1.9082   2.5505e-004  -1.0198e-004   5.9733e-005   7.1415e+006   6.0111e+002   4.1813e+005    0.0496   -0.0000    0.0000   -0.0000    0.0070
                2.1947   2.3590e-004  -9.4323e-005   6.9522e-005   6.6054e+006   5.5658e+002   4.8666e+005    0.0459   -0.0000    0.0000   -0.0000    0.0081
                2.4832   2.1393e-004  -8.5541e-005   7.8567e-005   5.9904e+006   5.0546e+002   5.4997e+005    0.0416   -0.0000    0.0000   -0.0000    0.0092
                2.7772   1.8957e-004  -7.5800e-005   8.6846e-005   5.3083e+006   4.4836e+002   6.0792e+005    0.0369   -0.0000    0.0000   -0.0000    0.0101
                3.0761   1.6298e-004  -6.5169e-005   9.4206e-005   4.5637e+006   3.8604e+002   6.5944e+005    0.0317   -0.0000    0.0000   -0.0000    0.0110
                3.3815   1.3484e-004  -5.3917e-005   1.0056e-004   3.7758e+006   3.1840e+002   7.0390e+005    0.0262   -0.0000    0.0000   -0.0000    0.0117
                3.4371   1.2836e-004  -5.1323e-005   1.0158e-004   3.5942e+006   3.0558e+002   7.1107e+005    0.0250   -0.0000    0.0000   -0.0000    0.0119

               lamina:  2     
              matName:  (blade-root)
                     s           e11           e22           e12           s11           s22           s12   s11_fcT   s11_fcC   s22_fcT   s22_fcC   s12_fcS
                   (m)         (m/m)         (m/m)         (rad)          (Pa)          (Pa)          (Pa)       (-)       (-)       (-)       (-)       (-)
                0.0000   2.9845e-004  -1.1934e-004   1.7237e-005   8.3570e+006   7.0431e+002   1.2066e+005    0.0580   -0.0000    0.0000   -0.0000    0.0020
                0.2610   3.0199e-004  -1.2075e-004   6.3168e-006   8.4560e+006   7.1290e+002   4.4217e+004    0.0587   -0.0000    0.0000   -0.0000    0.0007
                0.5251   3.0232e-004  -1.2088e-004   4.8010e-006   8.4651e+006   7.1364e+002   3.3607e+004    0.0588   -0.0000    0.0000   -0.0000    0.0006
                0.8080   2.9955e-004  -1.1977e-004   1.6669e-005   8.3878e+006   7.0727e+002   1.1668e+005    0.0582   -0.0000    0.0000   -0.0000    0.0019
                1.0734   2.9295e-004  -1.1713e-004   2.7628e-005   8.2029e+006   6.9200e+002   1.9340e+005    0.0570   -0.0000    0.0000   -0.0000    0.0032
                1.3501   2.8320e-004  -1.1324e-004   3.8747e-005   7.9299e+006   6.6927e+002   2.7123e+005    0.0551   -0.0000    0.0000   -0.0000    0.0045
                1.6271   2.7012e-004  -1.0801e-004   4.9446e-005   7.5636e+006   6.3887e+002   3.4613e+005    0.0525   -0.0000    0.0000   -0.0000    0.0058
                1.9082   2.5396e-004  -1.0155e-004   5.9733e-005   7.1112e+006   6.0110e+002   4.1813e+005    0.0494   -0.0000    0.0000   -0.0000    0.0070
                2.1947   2.3491e-004  -9.3929e-005   6.9522e-005   6.5778e+006   5.5657e+002   4.8666e+005    0.0457   -0.0000    0.0000   -0.0000    0.0081
                2.4832   2.1306e-004  -8.5191e-005   7.8567e-005   5.9659e+006   5.0545e+002   5.4997e+005    0.0414   -0.0000    0.0000   -0.0000    0.0092
                2.7772   1.8881e-004  -7.5495e-005   8.6846e-005   5.2869e+006   4.4834e+002   6.0792e+005    0.0367   -0.0000    0.0000   -0.0000    0.0101
                3.0761   1.6234e-004  -6.4912e-005   9.4206e-005   4.5458e+006   3.8603e+002   6.5944e+005    0.0316   -0.0000    0.0000   -0.0000    0.0110
                3.3815   1.3429e-004  -5.3694e-005   1.0056e-004   3.7602e+006   3.1839e+002   7.0390e+005    0.0261   -0.0000    0.0000   -0.0000    0.0117
                3.4371   1.2790e-004  -5.1138e-005   1.0158e-004   3.5812e+006   3.0557e+002   7.1107e+005    0.0249   -0.0000    0.0000   -0.0000    0.0119

               lamina:  3     
              matName:  (LEP-core)
                     s           e11           e22           e12           s11           s22           s12   s11_fcT   s11_fcC   s22_fcT   s22_fcC   s12_fcS
                   (m)         (m/m)         (m/m)         (rad)          (Pa)          (Pa)          (Pa)       (-)       (-)       (-)       (-)       (-)
                0.0000   2.8146e-004  -1.1254e-004   1.7237e-005   7.0771e+004  -8.0285e+003   3.4475e+002    0.0000   -0.0000    0.0000    0.0000    0.0000
                0.2610   2.8489e-004  -1.1391e-004   6.3168e-006   7.1633e+004  -8.1262e+003   1.2634e+002    0.0000   -0.0000    0.0000    0.0000    0.0000
                0.5251   2.8518e-004  -1.1403e-004   4.8010e-006   7.1707e+004  -8.1347e+003   9.6020e+001    0.0000   -0.0000    0.0000    0.0000    0.0000
                0.8080   2.8263e-004  -1.1301e-004   1.6669e-005   7.1065e+004  -8.0618e+003   3.3339e+002    0.0000   -0.0000    0.0000    0.0000    0.0000
                1.0734   2.7652e-004  -1.1056e-004   2.7628e-005   6.9529e+004  -7.8876e+003   5.5257e+002    0.0000   -0.0000    0.0000    0.0000    0.0000
                1.3501   2.6743e-004  -1.0693e-004   3.8747e-005   6.7242e+004  -7.6282e+003   7.7495e+002    0.0000   -0.0000    0.0000    0.0000    0.0000
                1.6271   2.5526e-004  -1.0206e-004   4.9446e-005   6.4183e+004  -7.2811e+003   9.8893e+002    0.0000   -0.0000    0.0000    0.0000    0.0000
                1.9082   2.4015e-004  -9.6022e-005   5.9733e-005   6.0385e+004  -6.8502e+003   1.1947e+003    0.0000   -0.0000    0.0000    0.0000    0.0000
                2.1947   2.2234e-004  -8.8901e-005   6.9522e-005   5.5906e+004  -6.3422e+003   1.3904e+003    0.0000   -0.0000    0.0000    0.0000    0.0000
                2.4832   2.0190e-004  -8.0726e-005   7.8567e-005   5.0766e+004  -5.7590e+003   1.5713e+003    0.0000   -0.0000    0.0000    0.0000    0.0000
                2.7772   1.7907e-004  -7.1600e-005   8.6846e-005   4.5027e+004  -5.1080e+003   1.7369e+003    0.0000   -0.0000    0.0000    0.0000    0.0000
                3.0761   1.5417e-004  -6.1642e-005   9.4206e-005   3.8765e+004  -4.3976e+003   1.8841e+003    0.0000   -0.0000    0.0000    0.0000    0.0000
                3.3815   1.2719e-004  -5.0853e-005   1.0056e-004   3.1980e+004  -3.6279e+003   2.0111e+003    0.0000   -0.0000    0.0000    0.0000    0.0000
                3.4371   1.2198e-004  -4.8774e-005   1.0158e-004   3.0672e+004  -3.4795e+003   2.0316e+003    0.0000   -0.0000    0.0000    0.0000    0.0000

               lamina:  4     
              matName:  (blade-root)
                     s           e11           e22           e12           s11           s22           s12   s11_fcT   s11_fcC   s22_fcT   s22_fcC   s12_fcS
                   (m)         (m/m)         (m/m)         (rad)          (Pa)          (Pa)          (Pa)       (-)       (-)       (-)       (-)       (-)
                0.0000   2.7823e-004  -1.1124e-004   1.7237e-005   7.7906e+006   7.0400e+002   1.2066e+005    0.0541   -0.0000    0.0000   -0.0000    0.0020
                0.2610   2.8163e-004  -1.1261e-004   6.3168e-006   7.8860e+006   7.1259e+002   4.4217e+004    0.0548   -0.0000    0.0000   -0.0000    0.0007
                0.5251   2.8192e-004  -1.1272e-004   4.8010e-006   7.8941e+006   7.1333e+002   3.3607e+004    0.0548   -0.0000    0.0000   -0.0000    0.0006
                0.8080   2.7941e-004  -1.1172e-004   1.6669e-005   7.8238e+006   7.0696e+002   1.1668e+005    0.0543   -0.0000    0.0000   -0.0000    0.0019
                1.0734   2.7339e-004  -1.0931e-004   2.7628e-005   7.6553e+006   6.9171e+002   1.9340e+005    0.0532   -0.0000    0.0000   -0.0000    0.0032
                1.3501   2.6443e-004  -1.0573e-004   3.8747e-005   7.4042e+006   6.6899e+002   2.7123e+005    0.0514   -0.0000    0.0000   -0.0000    0.0045
                1.6271   2.5243e-004  -1.0093e-004   4.9446e-005   7.0684e+006   6.3860e+002   3.4613e+005    0.0491   -0.0000    0.0000   -0.0000    0.0058
                1.9082   2.3753e-004  -9.4971e-005   5.9733e-005   6.6510e+006   6.0085e+002   4.1813e+005    0.0462   -0.0000    0.0000   -0.0000    0.0070
                2.1947   2.1995e-004  -8.7944e-005   6.9522e-005   6.1589e+006   5.5634e+002   4.8666e+005    0.0428   -0.0000    0.0000   -0.0000    0.0081
                2.4832   1.9978e-004  -7.9877e-005   7.8567e-005   5.5939e+006   5.0525e+002   5.4997e+005    0.0388   -0.0000    0.0000   -0.0000    0.0092
                2.7772   1.7722e-004  -7.0859e-005   8.6846e-005   4.9624e+006   4.4817e+002   6.0792e+005    0.0345   -0.0000    0.0000   -0.0000    0.0101
                3.0761   1.5261e-004  -6.1020e-005   9.4206e-005   4.2733e+006   3.8589e+002   6.5944e+005    0.0297   -0.0000    0.0000   -0.0000    0.0110
                3.3815   1.2583e-004  -5.0313e-005   1.0056e-004   3.5235e+006   3.1826e+002   7.0390e+005    0.0245   -0.0000    0.0000   -0.0000    0.0117
                3.4371   1.2086e-004  -4.8324e-005   1.0158e-004   3.3842e+006   3.0546e+002   7.1107e+005    0.0235   -0.0000    0.0000   -0.0000    0.0119

               lamina:  5     
              matName:  (blade-shell)
                     s           e11           e22           e12           s11           s22           s12   s11_fcT   s11_fcC   s22_fcT   s22_fcC   s12_fcS
                   (m)         (m/m)         (m/m)         (rad)          (Pa)          (Pa)          (Pa)       (-)       (-)       (-)       (-)       (-)
                0.0000   2.6123e-004  -1.0445e-004   1.7237e-005   7.3148e+006   7.0374e+002   1.2066e+005    0.0508   -0.0000    0.0000   -0.0000    0.0020
                0.2610   2.6453e-004  -1.0576e-004   6.3168e-006   7.4071e+006   7.1233e+002   4.4217e+004    0.0514   -0.0000    0.0000   -0.0000    0.0007
                0.5251   2.6479e-004  -1.0587e-004   4.8010e-006   7.4144e+006   7.1307e+002   3.3607e+004    0.0515   -0.0000    0.0000   -0.0000    0.0006
                0.8080   2.6249e-004  -1.0495e-004   1.6669e-005   7.3499e+006   7.0670e+002   1.1668e+005    0.0510   -0.0000    0.0000   -0.0000    0.0019
                1.0734   2.5696e-004  -1.0274e-004   2.7628e-005   7.1952e+006   6.9146e+002   1.9340e+005    0.0500   -0.0000    0.0000   -0.0000    0.0032
                1.3501   2.4865e-004  -9.9417e-005   3.8747e-005   6.9625e+006   6.6875e+002   2.7123e+005    0.0484   -0.0000    0.0000   -0.0000    0.0045
                1.6271   2.3757e-004  -9.4988e-005   4.9446e-005   6.6523e+006   6.3837e+002   3.4613e+005    0.0462   -0.0000    0.0000   -0.0000    0.0058
                1.9082   2.2371e-004  -8.9446e-005   5.9733e-005   6.2642e+006   6.0064e+002   4.1813e+005    0.0435   -0.0000    0.0000   -0.0000    0.0070
                2.1947   2.0738e-004  -8.2916e-005   6.9522e-005   5.8069e+006   5.5615e+002   4.8666e+005    0.0403   -0.0000    0.0000   -0.0000    0.0081
                2.4832   1.8861e-004  -7.5412e-005   7.8567e-005   5.2814e+006   5.0508e+002   5.4997e+005    0.0367   -0.0000    0.0000   -0.0000    0.0092
                2.7772   1.6749e-004  -6.6965e-005   8.6846e-005   4.6898e+006   4.4802e+002   6.0792e+005    0.0326   -0.0000    0.0000   -0.0000    0.0101
                3.0761   1.4444e-004  -5.7750e-005   9.4206e-005   4.0444e+006   3.8576e+002   6.5944e+005    0.0281   -0.0000    0.0000   -0.0000    0.0110
                3.3815   1.1873e-004  -4.7471e-005   1.0056e-004   3.3246e+006   3.1815e+002   7.0390e+005    0.0231   -0.0000    0.0000   -0.0000    0.0117
                3.4371   1.1495e-004  -4.5959e-005   1.0158e-004   3.2187e+006   3.0537e+002   7.1107e+005    0.0224   -0.0000    0.0000   -0.0000    0.0119

            panel:  2     
           lam_num    nPlies        tPly      fibAng     matID  matName
               (-)       (-)         (m)       (deg)       (-)  (-)
                 1         1    0.005000      0.0000         2  (blade-shell)
                 2         1    0.063815      0.0000         1  (blade-root)
                 3         1    0.013757      0.0000         3  (spar-uni)
                 4         1    0.000000      0.0000         4  (spar-core)
                 5         1    0.013757      0.0000         3  (spar-uni)
                 6         1    0.063815      0.0000         1  (blade-root)
                 7         1    0.005000      0.0000         2  (blade-shell)

               lamina:  1     
              matName:  (blade-shell)
                     s           e11           e22           e12           s11           s22           s12   s11_fcT   s11_fcC   s22_fcT   s22_fcC   s12_fcS
                   (m)         (m/m)         (m/m)         (rad)          (Pa)          (Pa)          (Pa)       (-)       (-)       (-)       (-)       (-)
                0.0000   1.3016e-004  -4.9748e-005   9.3267e-005   3.6584e+006   3.5220e+004   6.5287e+005    0.0254   -0.0000    0.0000   -0.0000    0.0109
                0.2502   1.0602e-004  -4.0532e-005   9.8153e-005   2.9801e+006   2.8579e+004   6.8707e+005    0.0207   -0.0000    0.0000   -0.0000    0.0115
                0.5625   7.4435e-005  -2.8457e-005   1.0280e-004   2.0922e+006   2.0037e+004   7.1960e+005    0.0145   -0.0000    0.0000   -0.0000    0.0120
                0.8780   4.1941e-005  -1.6038e-005   1.0582e-004   1.1788e+006   1.1233e+004   7.4073e+005    0.0082   -0.0000    0.0000   -0.0000    0.0123
                1.1960   9.0581e-006  -3.4739e-006   1.0713e-004   2.5454e+005   2.2728e+003   7.4992e+005    0.0018   -0.0000    0.0000   -0.0000    0.0125
                1.4717  -1.8974e-005   7.2267e-006   1.0686e-004  -5.3348e+005  -5.5234e+003   7.4799e+005    0.0000    0.0025    0.0000    0.0000    0.0125

               lamina:  2     
              matName:  (blade-root)
                     s           e11           e22           e12           s11           s22           s12   s11_fcT   s11_fcC   s22_fcT   s22_fcC   s12_fcS
                   (m)         (m/m)         (m/m)         (rad)          (Pa)          (Pa)          (Pa)       (-)       (-)       (-)       (-)       (-)
                0.0000   1.2961e-004  -4.9530e-005   9.3267e-005   3.6432e+006   3.5215e+004   6.5287e+005    0.0253   -0.0000    0.0000   -0.0000    0.0109
                0.2502   1.0556e-004  -4.0345e-005   9.8153e-005   2.9670e+006   2.8575e+004   6.8707e+005    0.0206   -0.0000    0.0000   -0.0000    0.0115
                0.5625   7.4101e-005  -2.8324e-005   1.0280e-004   2.0829e+006   2.0034e+004   7.1960e+005    0.0145   -0.0000    0.0000   -0.0000    0.0120
                0.8780   4.1741e-005  -1.5958e-005   1.0582e-004   1.1732e+006   1.1231e+004   7.4073e+005    0.0081   -0.0000    0.0000   -0.0000    0.0123
                1.1960   8.9819e-006  -3.4434e-006   1.0713e-004   2.5240e+005   2.2722e+003   7.4992e+005    0.0018   -0.0000    0.0000   -0.0000    0.0125
                1.4717  -1.9030e-005   7.2491e-006   1.0686e-004  -5.3505e+005  -5.5238e+003   7.4799e+005    0.0000    0.0025    0.0000    0.0000    0.0125

               lamina:  3     
              matName:  (spar-uni)
                     s           e11           e22           e12           s11           s22           s12   s11_fcT   s11_fcC   s22_fcT   s22_fcC   s12_fcS
                   (m)         (m/m)         (m/m)         (rad)          (Pa)          (Pa)          (Pa)       (-)       (-)       (-)       (-)       (-)
                0.0000   1.2266e-004  -4.6754e-005   9.3267e-005   5.1019e+006  -1.7839e+005   2.7980e+005    0.0052   -0.0000    0.0000    0.0000    0.0093
                0.2502   9.9593e-005  -3.7962e-005   9.8153e-005   4.1423e+006  -1.4486e+005   2.9446e+005    0.0043   -0.0000    0.0000    0.0000    0.0098
                0.5625   6.9838e-005  -2.6621e-005   1.0280e-004   2.9048e+006  -1.0158e+005   3.0840e+005    0.0030   -0.0000    0.0000    0.0000    0.0103
                0.8780   3.9183e-005  -1.4936e-005   1.0582e-004   1.6297e+006  -5.7003e+004   3.1746e+005    0.0017   -0.0000    0.0000    0.0000    0.0106
                1.1960   8.0099e-006  -3.0552e-006   1.0713e-004   3.3315e+005  -1.1679e+004   3.2140e+005    0.0003   -0.0000    0.0000    0.0000    0.0107
                1.4717  -1.9042e-005   7.2539e-006   1.0686e-004  -7.9204e+005   2.7631e+004   3.2057e+005    0.0000    0.0011    0.0000   -0.0000    0.0107

               lamina:  4     
              matName:  (spar-core)
                     s           e11           e22           e12           s11           s22           s12   s11_fcT   s11_fcC   s22_fcT   s22_fcC   s12_fcS
                   (m)         (m/m)         (m/m)         (rad)          (Pa)          (Pa)          (Pa)       (-)       (-)       (-)       (-)       (-)
                0.0000   1.2116e-004  -4.6156e-005   9.3267e-005   3.0662e+004  -2.8019e+003   1.8653e+003    0.0000   -0.0000    0.0000    0.0000    0.0000
                0.2502   9.8307e-005  -3.7449e-005   9.8153e-005   2.4878e+004  -2.2733e+003   1.9631e+003    0.0000   -0.0000    0.0000    0.0000    0.0000
                0.5625   6.8919e-005  -2.6254e-005   1.0280e-004   1.7441e+004  -1.5938e+003   2.0560e+003    0.0000   -0.0000    0.0000    0.0000    0.0000
                0.8780   3.8632e-005  -1.4716e-005   1.0582e-004   9.7762e+003  -8.9335e+002   2.1164e+003    0.0000   -0.0000    0.0000    0.0000    0.0000
                1.1960   7.8004e-006  -2.9715e-006   1.0713e-004   1.9740e+003  -1.8038e+002   2.1426e+003    0.0000   -0.0000    0.0000    0.0000    0.0000
                1.4717  -1.9042e-005   7.2539e-006   1.0686e-004  -4.8189e+003   4.4035e+002   2.1371e+003    0.0000    0.0000    0.0000   -0.0000    0.0000

               lamina:  5     
              matName:  (spar-uni)
                     s           e11           e22           e12           s11           s22           s12   s11_fcT   s11_fcC   s22_fcT   s22_fcC   s12_fcS
                   (m)         (m/m)         (m/m)         (rad)          (Pa)          (Pa)          (Pa)       (-)       (-)       (-)       (-)       (-)
                0.0000   1.2116e-004  -4.6156e-005   9.3267e-005   5.0397e+006  -1.7581e+005   2.7980e+005    0.0052   -0.0000    0.0000    0.0000    0.0093
                0.2502   9.8307e-005  -3.7449e-005   9.8153e-005   4.0890e+006  -1.4265e+005   2.9446e+005    0.0042   -0.0000    0.0000    0.0000    0.0098
                0.5625   6.8919e-005  -2.6254e-005   1.0280e-004   2.8666e+006  -1.0000e+005   3.0840e+005    0.0029   -0.0000    0.0000    0.0000    0.0103
                0.8780   3.8632e-005  -1.4716e-005   1.0582e-004   1.6068e+006  -5.6056e+004   3.1746e+005    0.0017   -0.0000    0.0000    0.0000    0.0106
                1.1960   7.8004e-006  -2.9715e-006   1.0713e-004   3.2445e+005  -1.1319e+004   3.2140e+005    0.0003   -0.0000    0.0000    0.0000    0.0107
                1.4717  -1.9054e-005   7.2587e-006   1.0686e-004  -7.9254e+005   2.7652e+004   3.2057e+005    0.0000    0.0011    0.0000   -0.0000    0.0107

               lamina:  6     
              matName:  (blade-root)
                     s           e11           e22           e12           s11           s22           s12   s11_fcT   s11_fcC   s22_fcT   s22_fcC   s12_fcS
                   (m)         (m/m)         (m/m)         (rad)          (Pa)          (Pa)          (Pa)       (-)       (-)       (-)       (-)       (-)
                0.0000   1.1967e-004  -4.5557e-005   9.3267e-005   3.3647e+006   3.5136e+004   6.5287e+005    0.0234   -0.0000    0.0000   -0.0000    0.0109
                0.2502   9.7021e-005  -3.6935e-005   9.8153e-005   2.7280e+006   2.8507e+004   6.8707e+005    0.0189   -0.0000    0.0000   -0.0000    0.0115
                0.5625   6.8000e-005  -2.5887e-005   1.0280e-004   1.9120e+006   1.9985e+004   7.1960e+005    0.0133   -0.0000    0.0000   -0.0000    0.0120
                0.8780   3.8080e-005  -1.4496e-005   1.0582e-004   1.0707e+006   1.1202e+004   7.4073e+005    0.0074   -0.0000    0.0000   -0.0000    0.0123
                1.1960   7.5909e-006  -2.8878e-006   1.0713e-004   2.1345e+005   2.2611e+003   7.4992e+005    0.0015   -0.0000    0.0000   -0.0000    0.0125
                1.4717  -1.9110e-005   7.2811e-006   1.0686e-004  -5.3730e+005  -5.5244e+003   7.4799e+005    0.0000    0.0025    0.0000    0.0000    0.0125

               lamina:  7     
              matName:  (blade-shell)
                     s           e11           e22           e12           s11           s22           s12   s11_fcT   s11_fcC   s22_fcT   s22_fcC   s12_fcS
                   (m)         (m/m)         (m/m)         (rad)          (Pa)          (Pa)          (Pa)       (-)       (-)       (-)       (-)       (-)
                0.0000   1.1272e-004  -4.2781e-005   9.3267e-005   3.1701e+006   3.5081e+004   6.5287e+005    0.0220   -0.0000    0.0000   -0.0000    0.0109
                0.2502   9.1057e-005  -3.4552e-005   9.8153e-005   2.5610e+006   2.8460e+004   6.8707e+005    0.0178   -0.0000    0.0000   -0.0000    0.0115
                0.5625   6.3737e-005  -2.4184e-005   1.0280e-004   1.7926e+006   1.9951e+004   7.1960e+005    0.0124   -0.0000    0.0000   -0.0000    0.0120
                0.8780   3.5522e-005  -1.3474e-005   1.0582e-004   9.9910e+005   1.1182e+004   7.4073e+005    0.0069   -0.0000    0.0000   -0.0000    0.0123
                1.1960   6.6189e-006  -2.4995e-006   1.0713e-004   1.8623e+005   2.2534e+003   7.4992e+005    0.0013   -0.0000    0.0000   -0.0000    0.0125
                1.4717  -1.9115e-005   7.2829e-006   1.0686e-004  -5.3742e+005  -5.5245e+003   7.4799e+005    0.0000    0.0025    0.0000    0.0000    0.0125

            panel:  3     
           lam_num    nPlies        tPly      fibAng     matID  matName
               (-)       (-)         (m)       (deg)       (-)  (-)
                 1         1    0.005000      0.0000         2  (blade-shell)
                 2         1    0.063815      0.0000         1  (blade-root)
                 3         1    0.012139      0.0000         6  (TEP-core)
                 4         1    0.063815      0.0000         1  (blade-root)
                 5         1    0.005000      0.0000         2  (blade-shell)

               lamina:  1     
              matName:  (blade-shell)
                     s           e11           e22           e12           s11           s22           s12   s11_fcT   s11_fcC   s22_fcT   s22_fcC   s12_fcS
                   (m)         (m/m)         (m/m)         (rad)          (Pa)          (Pa)          (Pa)       (-)       (-)       (-)       (-)       (-)
                0.0000  -1.8988e-005   7.5920e-006   1.1598e-004  -5.3168e+005  -4.7900e+001   8.1187e+005    0.0000    0.0025    0.0000    0.0000    0.0135
                0.0085  -1.9815e-005   7.9226e-006   1.1596e-004  -5.5483e+005  -4.9980e+001   8.1170e+005    0.0000    0.0026    0.0000    0.0000    0.0135

               lamina:  2     
              matName:  (blade-root)
                     s           e11           e22           e12           s11           s22           s12   s11_fcT   s11_fcC   s22_fcT   s22_fcC   s12_fcS
                   (m)         (m/m)         (m/m)         (rad)          (Pa)          (Pa)          (Pa)       (-)       (-)       (-)       (-)       (-)
                0.0000  -1.9036e-005   7.6111e-006   1.1598e-004  -5.3302e+005  -4.7901e+001   8.1187e+005    0.0000    0.0025    0.0000    0.0000    0.0135
                0.0085  -1.9862e-005   7.9417e-006   1.1596e-004  -5.5617e+005  -4.9981e+001   8.1170e+005    0.0000    0.0026    0.0000    0.0000    0.0135

               lamina:  3     
              matName:  (TEP-core)
                     s           e11           e22           e12           s11           s22           s12   s11_fcT   s11_fcC   s22_fcT   s22_fcC   s12_fcS
                   (m)         (m/m)         (m/m)         (rad)          (Pa)          (Pa)          (Pa)       (-)       (-)       (-)       (-)       (-)
                0.0000  -1.9045e-005   7.6147e-006   1.1598e-004  -4.7886e+003   5.4323e+002   2.3196e+003    0.0000    0.0000    0.0000   -0.0000    0.0000
                0.0085  -1.9871e-005   7.9453e-006   1.1596e-004  -4.9965e+003   5.6682e+002   2.3191e+003    0.0000    0.0000    0.0000   -0.0000    0.0000

               lamina:  4     
              matName:  (blade-root)
                     s           e11           e22           e12           s11           s22           s12   s11_fcT   s11_fcC   s22_fcT   s22_fcC   s12_fcS
                   (m)         (m/m)         (m/m)         (rad)          (Pa)          (Pa)          (Pa)       (-)       (-)       (-)       (-)       (-)
                0.0000  -1.9092e-005   7.6338e-006   1.1598e-004  -5.3461e+005  -4.7902e+001   8.1187e+005    0.0000    0.0025    0.0000    0.0000    0.0135
                0.0085  -1.9919e-005   7.9644e-006   1.1596e-004  -5.5776e+005  -4.9982e+001   8.1170e+005    0.0000    0.0026    0.0000    0.0000    0.0135

               lamina:  5     
              matName:  (blade-shell)
                     s           e11           e22           e12           s11           s22           s12   s11_fcT   s11_fcC   s22_fcT   s22_fcC   s12_fcS
                   (m)         (m/m)         (m/m)         (rad)          (Pa)          (Pa)          (Pa)       (-)       (-)       (-)       (-)       (-)
                0.0000  -1.9096e-005   7.6353e-006   1.1598e-004  -5.3471e+005  -4.7902e+001   8.1187e+005    0.0000    0.0025    0.0000    0.0000    0.0135
                0.0085  -1.9923e-005   7.9659e-006   1.1596e-004  -5.5786e+005  -4.9982e+001   8.1170e+005    0.0000    0.0026    0.0000    0.0000    0.0135

            panel:  4     
           lam_num    nPlies        tPly      fibAng     matID  matName
               (-)       (-)         (m)       (deg)       (-)  (-)
                 1         1    0.005000      0.0000         2  (blade-shell)
                 2         1    0.063815      0.0000         1  (blade-root)
                 3         1    0.012139      0.0000         6  (TEP-core)
                 4         1    0.063815      0.0000         1  (blade-root)
                 5         1    0.005000      0.0000         2  (blade-shell)

               lamina:  1     
              matName:  (blade-shell)
                     s           e11           e22           e12           s11           s22           s12   s11_fcT   s11_fcC   s22_fcT   s22_fcC   s12_fcS
                   (m)         (m/m)         (m/m)         (rad)          (Pa)          (Pa)          (Pa)       (-)       (-)       (-)       (-)       (-)
                0.0000  -1.9815e-005   7.9226e-006   1.1477e-004  -5.5483e+005  -4.9980e+001   8.0342e+005    0.0000    0.0026    0.0000    0.0000    0.0134
                0.0317  -2.4353e-005   9.7372e-006   1.1475e-004  -6.8190e+005  -5.7766e+001   8.0325e+005    0.0000    0.0032    0.0000    0.0000    0.0134
                0.3525  -5.6380e-005   2.2543e-005   1.1475e-004  -1.5787e+006  -1.3612e+002   8.0325e+005    0.0000    0.0074    0.0000    0.0000    0.0134
                0.6675  -8.8231e-005   3.5278e-005   1.1465e-004  -2.4705e+006  -2.1240e+002   8.0254e+005    0.0000    0.0116    0.0000    0.0000    0.0134
                0.9782  -1.1922e-004   4.7667e-005   1.1281e-004  -3.3382e+006  -2.8646e+002   7.8969e+005    0.0000    0.0157    0.0000    0.0000    0.0132
                1.2823  -1.4889e-004   5.9534e-005   1.0957e-004  -4.1692e+006  -3.5741e+002   7.6700e+005    0.0000    0.0196    0.0000    0.0000    0.0128
                1.5770  -1.7705e-004   7.0793e-005   1.0499e-004  -4.9577e+006  -4.2426e+002   7.3496e+005    0.0000    0.0233    0.0000    0.0000    0.0122
                1.8639  -2.0340e-004   8.1327e-005   9.9213e-005  -5.6953e+006  -4.8653e+002   6.9449e+005    0.0000    0.0267    0.0000    0.0000    0.0116
                2.1388  -2.2753e-004   9.0978e-005   9.2410e-005  -6.3712e+006  -5.4333e+002   6.4687e+005    0.0000    0.0299    0.0000    0.0000    0.0108
                2.4020  -2.4934e-004   9.9695e-005   8.4697e-005  -6.9816e+006  -5.9400e+002   5.9288e+005    0.0000    0.0328    0.0000    0.0000    0.0099
                2.6563  -2.6847e-004   1.0735e-004   7.6337e-005  -7.5174e+006  -6.3830e+002   5.3436e+005    0.0000    0.0353    0.0000    0.0000    0.0089
                2.8921  -2.8474e-004   1.1385e-004   6.7500e-005  -7.9729e+006  -6.7503e+002   4.7250e+005    0.0000    0.0374    0.0000    0.0000    0.0079
                3.1384  -2.9819e-004   1.1923e-004   5.8250e-005  -8.3495e+006  -7.0555e+002   4.0775e+005    0.0000    0.0392    0.0000    0.0000    0.0068
                3.3544  -3.0791e-004   1.2312e-004   4.9105e-005  -8.6218e+006  -7.2732e+002   3.4374e+005    0.0000    0.0405    0.0000    0.0000    0.0057
                3.5780  -3.1420e-004   1.2563e-004   3.9070e-005  -8.7978e+006  -7.4197e+002   2.7349e+005    0.0000    0.0413    0.0000    0.0000    0.0046

               lamina:  2     
              matName:  (blade-root)
                     s           e11           e22           e12           s11           s22           s12   s11_fcT   s11_fcC   s22_fcT   s22_fcC   s12_fcS
                   (m)         (m/m)         (m/m)         (rad)          (Pa)          (Pa)          (Pa)       (-)       (-)       (-)       (-)       (-)
                0.0000  -1.9862e-005   7.9417e-006   1.1477e-004  -5.5617e+005  -4.9981e+001   8.0342e+005    0.0000    0.0026    0.0000    0.0000    0.0134
                0.0317  -2.4259e-005   9.6999e-006   1.1475e-004  -6.7928e+005  -5.7764e+001   8.0325e+005    0.0000    0.0032    0.0000    0.0000    0.0134
                0.3525  -5.6227e-005   2.2482e-005   1.1475e-004  -1.5744e+006  -1.3611e+002   8.0325e+005    0.0000    0.0074    0.0000    0.0000    0.0134
                0.6675  -8.7975e-005   3.5176e-005   1.1465e-004  -2.4634e+006  -2.1239e+002   8.0254e+005    0.0000    0.0116    0.0000    0.0000    0.0134
                0.9782  -1.1886e-004   4.7524e-005   1.1281e-004  -3.3281e+006  -2.8645e+002   7.8969e+005    0.0000    0.0156    0.0000    0.0000    0.0132
                1.2823  -1.4844e-004   5.9351e-005   1.0957e-004  -4.1564e+006  -3.5740e+002   7.6700e+005    0.0000    0.0195    0.0000    0.0000    0.0128
                1.5770  -1.7649e-004   7.0567e-005   1.0499e-004  -4.9418e+006  -4.2425e+002   7.3496e+005    0.0000    0.0232    0.0000    0.0000    0.0122
                1.8639  -2.0273e-004   8.1058e-005   9.9213e-005  -5.6765e+006  -4.8652e+002   6.9449e+005    0.0000    0.0267    0.0000    0.0000    0.0116
                2.1388  -2.2676e-004   9.0667e-005   9.2410e-005  -6.3494e+006  -5.4332e+002   6.4687e+005    0.0000    0.0298    0.0000    0.0000    0.0108
                2.4020  -2.4845e-004   9.9340e-005   8.4697e-005  -6.9568e+006  -5.9399e+002   5.9288e+005    0.0000    0.0327    0.0000    0.0000    0.0099
                2.6563  -2.6748e-004   1.0695e-004   7.6337e-005  -7.4897e+006  -6.3828e+002   5.3436e+005    0.0000    0.0352    0.0000    0.0000    0.0089
                2.8921  -2.8363e-004   1.1341e-004   6.7500e-005  -7.9420e+006  -6.7501e+002   4.7250e+005    0.0000    0.0373    0.0000    0.0000    0.0079
                3.1384  -2.9700e-004   1.1875e-004   5.8250e-005  -8.3161e+006  -7.0553e+002   4.0775e+005    0.0000    0.0390    0.0000    0.0000    0.0068
                3.3544  -3.0665e-004   1.2261e-004   4.9105e-005  -8.5865e+006  -7.2730e+002   3.4374e+005    0.0000    0.0403    0.0000    0.0000    0.0057
                3.5780  -3.1290e-004   1.2511e-004   3.9070e-005  -8.7615e+006  -7.4195e+002   2.7349e+005    0.0000    0.0411    0.0000    0.0000    0.0046

               lamina:  3     
              matName:  (TEP-core)
                     s           e11           e22           e12           s11           s22           s12   s11_fcT   s11_fcC   s22_fcT   s22_fcC   s12_fcS
                   (m)         (m/m)         (m/m)         (rad)          (Pa)          (Pa)          (Pa)       (-)       (-)       (-)       (-)       (-)
                0.0000  -1.9871e-005   7.9453e-006   1.1477e-004  -4.9965e+003   5.6682e+002   2.2955e+003    0.0000    0.0000    0.0000   -0.0000    0.0000
                0.0317  -2.3066e-005   9.2227e-006   1.1475e-004  -5.7998e+003   6.5795e+002   2.2950e+003    0.0000    0.0000    0.0000   -0.0000    0.0000
                0.3525  -5.4276e-005   2.1702e-005   1.1475e-004  -1.3647e+004   1.5482e+003   2.2950e+003    0.0000    0.0000    0.0000   -0.0000    0.0000
                0.6675  -8.4713e-005   3.3871e-005   1.1465e-004  -2.1300e+004   2.4164e+003   2.2930e+003    0.0000    0.0000    0.0000   -0.0000    0.0000
                0.9782  -1.1427e-004   4.5688e-005   1.1281e-004  -2.8732e+004   3.2594e+003   2.2562e+003    0.0000    0.0000    0.0000   -0.0000    0.0000
                1.2823  -1.4258e-004   5.7009e-005   1.0957e-004  -3.5851e+004   4.0671e+003   2.1914e+003    0.0000    0.0000    0.0000   -0.0000    0.0000
                1.5770  -1.6927e-004   6.7682e-005   1.0499e-004  -4.2563e+004   4.8284e+003   2.0999e+003    0.0000    0.0000    0.0000   -0.0000    0.0000
                1.8639  -1.9415e-004   7.7627e-005   9.9213e-005  -4.8817e+004   5.5379e+003   1.9843e+003    0.0000    0.0000    0.0000   -0.0000    0.0000
                2.1388  -2.1684e-004   8.6701e-005   9.2410e-005  -5.4523e+004   6.1853e+003   1.8482e+003    0.0000    0.0000    0.0000   -0.0000    0.0000
                2.4020  -2.3711e-004   9.4804e-005   8.4697e-005  -5.9619e+004   6.7634e+003   1.6939e+003    0.0000    0.0000    0.0000   -0.0000    0.0000
                2.6563  -2.5483e-004   1.0189e-004   7.6337e-005  -6.4075e+004   7.2689e+003   1.5267e+003    0.0000    0.0000    0.0000   -0.0000    0.0000
                2.8921  -2.6956e-004   1.0778e-004   6.7500e-005  -6.7778e+004   7.6889e+003   1.3500e+003    0.0000    0.0000    0.0000   -0.0000    0.0000
                3.1384  -2.8179e-004   1.1267e-004   5.8250e-005  -7.0853e+004   8.0378e+003   1.1650e+003    0.0000    0.0000    0.0000   -0.0000    0.0000
                3.3544  -2.9052e-004   1.1616e-004   4.9105e-005  -7.3050e+004   8.2870e+003   9.8211e+002    0.0000    0.0000    0.0000   -0.0000    0.0000
                3.5780  -2.9638e-004   1.1850e-004   3.9070e-005  -7.4523e+004   8.4541e+003   7.8139e+002    0.0000    0.0000    0.0000   -0.0000    0.0000

               lamina:  4     
              matName:  (blade-root)
                     s           e11           e22           e12           s11           s22           s12   s11_fcT   s11_fcC   s22_fcT   s22_fcC   s12_fcS
                   (m)         (m/m)         (m/m)         (rad)          (Pa)          (Pa)          (Pa)       (-)       (-)       (-)       (-)       (-)
                0.0000  -1.9919e-005   7.9644e-006   1.1477e-004  -5.5776e+005  -4.9982e+001   8.0342e+005    0.0000    0.0026    0.0000    0.0000    0.0134
                0.0317  -2.2839e-005   9.1320e-006   1.1475e-004  -6.3953e+005  -5.7743e+001   8.0325e+005    0.0000    0.0030    0.0000    0.0000    0.0134
                0.3525  -5.3905e-005   2.1553e-005   1.1475e-004  -1.5094e+006  -1.3608e+002   8.0325e+005    0.0000    0.0071    0.0000    0.0000    0.0134
                0.6675  -8.4093e-005   3.3623e-005   1.1465e-004  -2.3547e+006  -2.1233e+002   8.0254e+005    0.0000    0.0111    0.0000    0.0000    0.0134
                0.9782  -1.1339e-004   4.5339e-005   1.1281e-004  -3.1752e+006  -2.8637e+002   7.8969e+005    0.0000    0.0149    0.0000    0.0000    0.0132
                1.2823  -1.4147e-004   5.6564e-005   1.0957e-004  -3.9613e+006  -3.5730e+002   7.6700e+005    0.0000    0.0186    0.0000    0.0000    0.0128
                1.5770  -1.6790e-004   6.7133e-005   1.0499e-004  -4.7014e+006  -4.2412e+002   7.3496e+005    0.0000    0.0221    0.0000    0.0000    0.0122
                1.8639  -1.9252e-004   7.6975e-005   9.9213e-005  -5.3906e+006  -4.8637e+002   6.9449e+005    0.0000    0.0253    0.0000    0.0000    0.0116
                2.1388  -2.1496e-004   8.5947e-005   9.2410e-005  -6.0190e+006  -5.4314e+002   6.4687e+005    0.0000    0.0283    0.0000    0.0000    0.0108
                2.4020  -2.3495e-004   9.3941e-005   8.4697e-005  -6.5789e+006  -5.9378e+002   5.9288e+005    0.0000    0.0309    0.0000    0.0000    0.0099
                2.6563  -2.5242e-004   1.0093e-004   7.6337e-005  -7.0681e+006  -6.3805e+002   5.3436e+005    0.0000    0.0332    0.0000    0.0000    0.0089
                2.8921  -2.6688e-004   1.0671e-004   6.7500e-005  -7.4729e+006  -6.7476e+002   4.7250e+005    0.0000    0.0351    0.0000    0.0000    0.0079
                3.1384  -2.7889e-004   1.1151e-004   5.8250e-005  -7.8093e+006  -7.0525e+002   4.0775e+005    0.0000    0.0367    0.0000    0.0000    0.0068
                3.3544  -2.8745e-004   1.1493e-004   4.9105e-005  -8.0490e+006  -7.2701e+002   3.4374e+005    0.0000    0.0378    0.0000    0.0000    0.0057
                3.5780  -2.9324e-004   1.1725e-004   3.9070e-005  -8.2110e+006  -7.4165e+002   2.7349e+005    0.0000    0.0385    0.0000    0.0000    0.0046

               lamina:  5     
              matName:  (blade-shell)
                     s           e11           e22           e12           s11           s22           s12   s11_fcT   s11_fcC   s22_fcT   s22_fcC   s12_fcS
                   (m)         (m/m)         (m/m)         (rad)          (Pa)          (Pa)          (Pa)       (-)       (-)       (-)       (-)       (-)
                0.0000  -1.9923e-005   7.9659e-006   1.1477e-004  -5.5786e+005  -4.9982e+001   8.0342e+005    0.0000    0.0026    0.0000    0.0000    0.0134
                0.0317  -2.1647e-005   8.6548e-006   1.1475e-004  -6.0613e+005  -5.7724e+001   8.0325e+005    0.0000    0.0028    0.0000    0.0000    0.0134
                0.3525  -5.1955e-005   2.0773e-005   1.1475e-004  -1.4548e+006  -1.3605e+002   8.0325e+005    0.0000    0.0068    0.0000    0.0000    0.0134
                0.6675  -8.0831e-005   3.2318e-005   1.1465e-004  -2.2633e+006  -2.1228e+002   8.0254e+005    0.0000    0.0106    0.0000    0.0000    0.0134
                0.9782  -1.0881e-004   4.3503e-005   1.1281e-004  -3.0467e+006  -2.8630e+002   7.8969e+005    0.0000    0.0143    0.0000    0.0000    0.0132
                1.2823  -1.3561e-004   5.4222e-005   1.0957e-004  -3.7973e+006  -3.5721e+002   7.6700e+005    0.0000    0.0178    0.0000    0.0000    0.0128
                1.5770  -1.6069e-004   6.4247e-005   1.0499e-004  -4.4994e+006  -4.2401e+002   7.3496e+005    0.0000    0.0211    0.0000    0.0000    0.0122
                1.8639  -1.8394e-004   7.3543e-005   9.9213e-005  -5.1505e+006  -4.8624e+002   6.9449e+005    0.0000    0.0242    0.0000    0.0000    0.0116
                2.1388  -2.0504e-004   8.1981e-005   9.2410e-005  -5.7414e+006  -5.4299e+002   6.4687e+005    0.0000    0.0270    0.0000    0.0000    0.0108
                2.4020  -2.2361e-004   8.9406e-005   8.4697e-005  -6.2614e+006  -5.9361e+002   5.9288e+005    0.0000    0.0294    0.0000    0.0000    0.0099
                2.6563  -2.3977e-004   9.5868e-005   7.6337e-005  -6.7139e+006  -6.3786e+002   5.3436e+005    0.0000    0.0315    0.0000    0.0000    0.0089
                2.8921  -2.5280e-004   1.0108e-004   6.7500e-005  -7.0787e+006  -6.7454e+002   4.7250e+005    0.0000    0.0332    0.0000    0.0000    0.0079
                3.1384  -2.6369e-004   1.0543e-004   5.8250e-005  -7.3835e+006  -7.0502e+002   4.0775e+005    0.0000    0.0347    0.0000    0.0000    0.0068
                3.3544  -2.7133e-004   1.0848e-004   4.9105e-005  -7.5975e+006  -7.2676e+002   3.4374e+005    0.0000    0.0357    0.0000    0.0000    0.0057
                3.5780  -2.7672e-004   1.1064e-004   3.9070e-005  -7.7484e+006  -7.4140e+002   2.7349e+005    0.0000    0.0364    0.0000    0.0000    0.0046

  Bottom:  panel  nNode   nLam     xc_St    xc_End         b         t         E_eff         G_eff      nu_eff     density  buckleCrit
            (-)    (-)    (-)       (-)       (-)       (m)       (m)          (Pa)          (Pa)         (-)    (kg/m^3)         (-)
              1     14      5    0.0000    0.3553    3.4654    0.1498   2.5752e+010   6.4343e+009      0.3998   1716.2678      0.0000
              2      6      7    0.3553    0.5967    1.4750    0.1651   3.0361e+010   6.3336e+009      0.3809   1861.6586      0.0006
              3      2      5    0.5967    0.5981    0.0086    0.1498   2.5752e+010   6.4343e+009      0.3998   1716.2678      0.0000
              4     15      5    0.5981    1.0000    3.5339    0.1498   2.5752e+010   6.4343e+009      0.3998   1716.2678      0.0065

            panel:  1     
           lam_num    nPlies        tPly      fibAng     matID  matName
               (-)       (-)         (m)       (deg)       (-)  (-)
                 1         1    0.005000      0.0000         2  (blade-shell)
                 2         1    0.063815      0.0000         1  (blade-root)
                 3         1    0.012139      0.0000         5  (LEP-core)
                 4         1    0.063815      0.0000         1  (blade-root)
                 5         1    0.005000      0.0000         2  (blade-shell)

               lamina:  1     
              matName:  (blade-shell)
                     s           e11           e22           e12           s11           s22           s12   s11_fcT   s11_fcC   s22_fcT   s22_fcC   s12_fcS
                   (m)         (m/m)         (m/m)         (rad)          (Pa)          (Pa)          (Pa)       (-)       (-)       (-)       (-)       (-)
                0.0000   2.9946e-004  -1.1974e-004   1.7237e-005   8.3853e+006   7.0478e+002   1.2066e+005    0.0582   -0.0000    0.0000   -0.0000    0.0020
                0.2589   2.9260e-004  -1.1700e-004   2.7883e-005   8.1931e+006   6.8838e+002   1.9518e+005    0.0569   -0.0000    0.0000   -0.0000    0.0033
                0.5348   2.8186e-004  -1.1270e-004   3.8895e-005   7.8923e+006   6.6354e+002   2.7227e+005    0.0548   -0.0000    0.0000   -0.0000    0.0045
                0.8042   2.6805e-004  -1.0718e-004   4.9194e-005   7.5055e+006   6.3173e+002   3.4435e+005    0.0521   -0.0000    0.0000   -0.0000    0.0057
                1.0793   2.5120e-004  -1.0044e-004   5.9138e-005   7.0338e+006   5.9266e+002   4.1397e+005    0.0488   -0.0000    0.0000   -0.0000    0.0069
                1.3598   2.3146e-004  -9.2550e-005   6.8571e-005   6.4812e+006   5.4684e+002   4.8000e+005    0.0450   -0.0000    0.0000   -0.0000    0.0080
                1.6425   2.0914e-004  -8.3624e-005   7.7264e-005   5.8561e+006   4.9497e+002   5.4085e+005    0.0407   -0.0000    0.0000   -0.0000    0.0090
                1.9293   1.8451e-004  -7.3775e-005   8.5160e-005   5.1665e+006   4.3748e+002   5.9612e+005    0.0359   -0.0000    0.0000   -0.0000    0.0099
                2.2207   1.5775e-004  -6.3074e-005   9.2149e-005   4.4170e+006   3.7506e+002   6.4504e+005    0.0307   -0.0000    0.0000   -0.0000    0.0108
                2.5136   1.2923e-004  -5.1673e-005   9.8059e-005   3.6186e+006   3.0868e+002   6.8642e+005    0.0251   -0.0000    0.0000   -0.0000    0.0114
                2.8095   9.9297e-005  -3.9703e-005   1.0284e-004   2.7804e+006   2.3894e+002   7.1990e+005    0.0193   -0.0000    0.0000   -0.0000    0.0120
                3.1074   6.8236e-005  -2.7283e-005   1.0641e-004   1.9107e+006   1.6686e+002   7.4488e+005    0.0133   -0.0000    0.0000   -0.0000    0.0124
                3.4111   3.7079e-005  -1.4825e-005   1.0874e-004   1.0382e+006   9.2509e+001   7.6116e+005    0.0072   -0.0000    0.0000   -0.0000    0.0127
                3.4654   3.0119e-005  -1.2042e-005   1.0901e-004   8.4336e+005   7.9222e+001   7.6308e+005    0.0059   -0.0000    0.0000   -0.0000    0.0127

               lamina:  2     
              matName:  (blade-root)
                     s           e11           e22           e12           s11           s22           s12   s11_fcT   s11_fcC   s22_fcT   s22_fcC   s12_fcS
                   (m)         (m/m)         (m/m)         (rad)          (Pa)          (Pa)          (Pa)       (-)       (-)       (-)       (-)       (-)
                0.0000   2.9817e-004  -1.1922e-004   1.7237e-005   8.3489e+006   7.0476e+002   1.2066e+005    0.0580   -0.0000    0.0000   -0.0000    0.0020
                0.2589   2.9133e-004  -1.1649e-004   2.7883e-005   8.1574e+006   6.8836e+002   1.9518e+005    0.0566   -0.0000    0.0000   -0.0000    0.0033
                0.5348   2.8064e-004  -1.1221e-004   3.8895e-005   7.8582e+006   6.6352e+002   2.7227e+005    0.0546   -0.0000    0.0000   -0.0000    0.0045
                0.8042   2.6691e-004  -1.0672e-004   4.9194e-005   7.4737e+006   6.3172e+002   3.4435e+005    0.0519   -0.0000    0.0000   -0.0000    0.0057
                1.0793   2.5015e-004  -1.0002e-004   5.9138e-005   7.0044e+006   5.9265e+002   4.1397e+005    0.0486   -0.0000    0.0000   -0.0000    0.0069
                1.3598   2.3052e-004  -9.2171e-005   6.8571e-005   6.4547e+006   5.4682e+002   4.8000e+005    0.0448   -0.0000    0.0000   -0.0000    0.0080
                1.6425   2.0831e-004  -8.3291e-005   7.7264e-005   5.8328e+006   4.9496e+002   5.4085e+005    0.0405   -0.0000    0.0000   -0.0000    0.0090
                1.9293   1.8380e-004  -7.3490e-005   8.5160e-005   5.1465e+006   4.3747e+002   5.9612e+005    0.0357   -0.0000    0.0000   -0.0000    0.0099
                2.2207   1.5716e-004  -6.2841e-005   9.2149e-005   4.4007e+006   3.7505e+002   6.4504e+005    0.0306   -0.0000    0.0000   -0.0000    0.0108
                2.5136   1.2879e-004  -5.1497e-005   9.8059e-005   3.6063e+006   3.0867e+002   6.8642e+005    0.0250   -0.0000    0.0000   -0.0000    0.0114
                2.8095   9.9007e-005  -3.9587e-005   1.0284e-004   2.7723e+006   2.3894e+002   7.1990e+005    0.0193   -0.0000    0.0000   -0.0000    0.0120
                3.1074   6.8107e-005  -2.7232e-005   1.0641e-004   1.9071e+006   1.6686e+002   7.4488e+005    0.0132   -0.0000    0.0000   -0.0000    0.0124
                3.4111   3.7058e-005  -1.4817e-005   1.0874e-004   1.0377e+006   9.2509e+001   7.6116e+005    0.0072   -0.0000    0.0000   -0.0000    0.0127
                3.4654   3.1378e-005  -1.2546e-005   1.0901e-004   8.7863e+005   7.9241e+001   7.6308e+005    0.0061   -0.0000    0.0000   -0.0000    0.0127

               lamina:  3     
              matName:  (LEP-core)
                     s           e11           e22           e12           s11           s22           s12   s11_fcT   s11_fcC   s22_fcT   s22_fcC   s12_fcS
                   (m)         (m/m)         (m/m)         (rad)          (Pa)          (Pa)          (Pa)       (-)       (-)       (-)       (-)       (-)
                0.0000   2.8160e-004  -1.1259e-004   1.7237e-005   7.0807e+004  -8.0326e+003   3.4475e+002    0.0000   -0.0000    0.0000    0.0000    0.0000
                0.2589   2.7506e-004  -1.0998e-004   2.7883e-005   6.9161e+004  -7.8458e+003   5.5766e+002    0.0000   -0.0000    0.0000    0.0000    0.0000
                0.5348   2.6512e-004  -1.0600e-004   3.8895e-005   6.6662e+004  -7.5623e+003   7.7790e+002    0.0000   -0.0000    0.0000    0.0000    0.0000
                0.8042   2.5239e-004  -1.0091e-004   4.9194e-005   6.3461e+004  -7.1992e+003   9.8387e+002    0.0000   -0.0000    0.0000    0.0000    0.0000
                1.0793   2.3676e-004  -9.4664e-005   5.9138e-005   5.9531e+004  -6.7533e+003   1.1828e+003    0.0000   -0.0000    0.0000    0.0000    0.0000
                1.3598   2.1843e-004  -8.7335e-005   6.8571e-005   5.4922e+004  -6.2305e+003   1.3714e+003    0.0000   -0.0000    0.0000    0.0000    0.0000
                1.6425   1.9768e-004  -7.9040e-005   7.7264e-005   4.9705e+004  -5.6387e+003   1.5453e+003    0.0000   -0.0000    0.0000    0.0000    0.0000
                1.9293   1.7470e-004  -6.9849e-005   8.5160e-005   4.3926e+004  -4.9831e+003   1.7032e+003    0.0000   -0.0000    0.0000    0.0000    0.0000
                2.2207   1.4974e-004  -5.9870e-005   9.2149e-005   3.7650e+004  -4.2712e+003   1.8430e+003    0.0000   -0.0000    0.0000    0.0000    0.0000
                2.5136   1.2319e-004  -4.9256e-005   9.8059e-005   3.0975e+004  -3.5139e+003   1.9612e+003    0.0000   -0.0000    0.0000    0.0000    0.0000
                2.8095   9.5303e-005  -3.8105e-005   1.0284e-004   2.3963e+004  -2.7184e+003   2.0569e+003    0.0000   -0.0000    0.0000    0.0000    0.0000
                3.1074   6.6471e-005  -2.6577e-005   1.0641e-004   1.6714e+004  -1.8960e+003   2.1282e+003    0.0000   -0.0000    0.0000    0.0000    0.0000
                3.4111   3.6795e-005  -1.4712e-005   1.0874e-004   9.2517e+003  -1.0495e+003   2.1747e+003    0.0000   -0.0000    0.0000    0.0000    0.0000
                3.4654   3.1618e-005  -1.2642e-005   1.0901e-004   7.9501e+003  -9.0188e+002   2.1802e+003    0.0000   -0.0000    0.0000    0.0000    0.0000

               lamina:  4     
              matName:  (blade-root)
                     s           e11           e22           e12           s11           s22           s12   s11_fcT   s11_fcC   s22_fcT   s22_fcC   s12_fcS
                   (m)         (m/m)         (m/m)         (rad)          (Pa)          (Pa)          (Pa)       (-)       (-)       (-)       (-)       (-)
                0.0000   2.7845e-004  -1.1133e-004   1.7237e-005   7.7969e+006   7.0446e+002   1.2066e+005    0.0541   -0.0000    0.0000   -0.0000    0.0020
                0.2589   2.7196e-004  -1.0874e-004   2.7883e-005   7.6152e+006   6.8807e+002   1.9518e+005    0.0529   -0.0000    0.0000   -0.0000    0.0033
                0.5348   2.6216e-004  -1.0482e-004   3.8895e-005   7.3409e+006   6.6324e+002   2.7227e+005    0.0510   -0.0000    0.0000   -0.0000    0.0045
                0.8042   2.4962e-004  -9.9808e-005   4.9194e-005   6.9897e+006   6.3145e+002   3.4435e+005    0.0485   -0.0000    0.0000   -0.0000    0.0057
                1.0793   2.3421e-004  -9.3645e-005   5.9138e-005   6.5581e+006   5.9240e+002   4.1397e+005    0.0455   -0.0000    0.0000   -0.0000    0.0069
                1.3598   2.1613e-004  -8.6415e-005   6.8571e-005   6.0518e+006   5.4661e+002   4.8000e+005    0.0420   -0.0000    0.0000   -0.0000    0.0080
                1.6425   1.9566e-004  -7.8231e-005   7.7264e-005   5.4787e+006   4.9476e+002   5.4085e+005    0.0380   -0.0000    0.0000   -0.0000    0.0090
                1.9293   1.7296e-004  -6.9157e-005   8.5160e-005   4.8432e+006   4.3730e+002   5.9612e+005    0.0336   -0.0000    0.0000   -0.0000    0.0099
                2.2207   1.4832e-004  -5.9305e-005   9.2149e-005   4.1532e+006   3.7492e+002   6.4504e+005    0.0288   -0.0000    0.0000   -0.0000    0.0108
                2.5136   1.2212e-004  -4.8829e-005   9.8059e-005   3.4196e+006   3.0857e+002   6.8642e+005    0.0237   -0.0000    0.0000   -0.0000    0.0114
                2.8095   9.4598e-005  -3.7824e-005   1.0284e-004   2.6488e+006   2.3887e+002   7.1990e+005    0.0184   -0.0000    0.0000   -0.0000    0.0120
                3.1074   6.6159e-005  -2.6453e-005   1.0641e-004   1.8525e+006   1.6683e+002   7.4488e+005    0.0129   -0.0000    0.0000   -0.0000    0.0124
                3.4111   3.6745e-005  -1.4692e-005   1.0874e-004   1.0289e+006   9.2504e+001   7.6116e+005    0.0071   -0.0000    0.0000   -0.0000    0.0127
                3.4654   3.2877e-005  -1.3146e-005   1.0901e-004   9.2060e+005   7.9264e+001   7.6308e+005    0.0064   -0.0000    0.0000   -0.0000    0.0127

               lamina:  5     
              matName:  (blade-shell)
                     s           e11           e22           e12           s11           s22           s12   s11_fcT   s11_fcC   s22_fcT   s22_fcC   s12_fcS
                   (m)         (m/m)         (m/m)         (rad)          (Pa)          (Pa)          (Pa)       (-)       (-)       (-)       (-)       (-)
                0.0000   2.6189e-004  -1.0471e-004   1.7237e-005   7.3332e+006   7.0421e+002   1.2066e+005    0.0509   -0.0000    0.0000   -0.0000    0.0020
                0.2589   2.5569e-004  -1.0223e-004   2.7883e-005   7.1596e+006   6.8782e+002   1.9518e+005    0.0497   -0.0000    0.0000   -0.0000    0.0033
                0.5348   2.4664e-004  -9.8612e-005   3.8895e-005   6.9062e+006   6.6300e+002   2.7227e+005    0.0480   -0.0000    0.0000   -0.0000    0.0045
                0.8042   2.3510e-004  -9.4000e-005   4.9194e-005   6.5831e+006   6.3123e+002   3.4435e+005    0.0457   -0.0000    0.0000   -0.0000    0.0057
                1.0793   2.2082e-004  -8.8287e-005   5.9138e-005   6.1831e+006   5.9220e+002   4.1397e+005    0.0429   -0.0000    0.0000   -0.0000    0.0069
                1.3598   2.0404e-004  -8.1579e-005   6.8571e-005   5.7133e+006   5.4642e+002   4.8000e+005    0.0397   -0.0000    0.0000   -0.0000    0.0080
                1.6425   1.8503e-004  -7.3980e-005   7.7264e-005   5.1811e+006   4.9460e+002   5.4085e+005    0.0360   -0.0000    0.0000   -0.0000    0.0090
                1.9293   1.6386e-004  -6.5516e-005   8.5160e-005   4.5883e+006   4.3717e+002   5.9612e+005    0.0319   -0.0000    0.0000   -0.0000    0.0099
                2.2207   1.4090e-004  -5.6334e-005   9.2149e-005   3.9453e+006   3.7480e+002   6.4504e+005    0.0274   -0.0000    0.0000   -0.0000    0.0108
                2.5136   1.1652e-004  -4.6588e-005   9.8059e-005   3.2627e+006   3.0848e+002   6.8642e+005    0.0227   -0.0000    0.0000   -0.0000    0.0114
                2.8095   9.0894e-005  -3.6342e-005   1.0284e-004   2.5451e+006   2.3881e+002   7.1990e+005    0.0177   -0.0000    0.0000   -0.0000    0.0120
                3.1074   6.4523e-005  -2.5798e-005   1.0641e-004   1.8067e+006   1.6681e+002   7.4488e+005    0.0125   -0.0000    0.0000   -0.0000    0.0124
                3.4111   3.6481e-005  -1.4586e-005   1.0874e-004   1.0215e+006   9.2500e+001   7.6116e+005    0.0071   -0.0000    0.0000   -0.0000    0.0127
                3.4654   3.2976e-005  -1.3185e-005   1.0901e-004   9.2336e+005   7.9265e+001   7.6308e+005    0.0064   -0.0000    0.0000   -0.0000    0.0127

            panel:  2     
           lam_num    nPlies        tPly      fibAng     matID  matName
               (-)       (-)         (m)       (deg)       (-)  (-)
                 1         1    0.005000      0.0000         2  (blade-shell)
                 2         1    0.063815      0.0000         1  (blade-root)
                 3         1    0.013757      0.0000         3  (spar-uni)
                 4         1    0.000000      0.0000         4  (spar-core)
                 5         1    0.013757      0.0000         3  (spar-uni)
                 6         1    0.063815      0.0000         1  (blade-root)
                 7         1    0.005000      0.0000         2  (blade-shell)

               lamina:  1     
              matName:  (blade-shell)
                     s           e11           e22           e12           s11           s22           s12   s11_fcT   s11_fcC   s22_fcT   s22_fcC   s12_fcS
                   (m)         (m/m)         (m/m)         (rad)          (Pa)          (Pa)          (Pa)       (-)       (-)       (-)       (-)       (-)
                0.0000   2.9753e-005  -1.1301e-005   1.0153e-004   8.3675e+005   9.1388e+003   7.1071e+005    0.0058   -0.0000    0.0000   -0.0000    0.0118
                0.2484   4.1748e-006  -1.5299e-006   1.0239e-004   1.1775e+005   2.1303e+003   7.1674e+005    0.0008   -0.0000    0.0000   -0.0000    0.0119
                0.5594  -2.8310e-005   1.0895e-005   1.0198e-004  -7.9529e+005  -6.5286e+003   7.1385e+005    0.0000    0.0037    0.0000    0.0000    0.0119
                0.8754  -6.0164e-005   2.3072e-005   9.9889e-005  -1.6906e+006  -1.5123e+004   6.9923e+005    0.0000    0.0079    0.0000    0.0000    0.0117
                1.1957  -9.1265e-005   3.4956e-005   9.6099e-005  -2.5649e+006  -2.3593e+004   6.7269e+005    0.0000    0.0120    0.0000    0.0000    0.0112
                1.4750  -1.1684e-004   4.4716e-005   9.1461e-005  -3.2837e+006  -3.0710e+004   6.4023e+005    0.0000    0.0154    0.0000    0.0000    0.0107

               lamina:  2     
              matName:  (blade-root)
                     s           e11           e22           e12           s11           s22           s12   s11_fcT   s11_fcC   s22_fcT   s22_fcC   s12_fcS
                   (m)         (m/m)         (m/m)         (rad)          (Pa)          (Pa)          (Pa)       (-)       (-)       (-)       (-)       (-)
                0.0000   3.1234e-005  -1.1892e-005   1.0153e-004   8.7821e+005   9.1506e+003   7.1071e+005    0.0061   -0.0000    0.0000   -0.0000    0.0118
                0.2484   6.8554e-006  -2.6008e-006   1.0239e-004   1.9281e+005   2.1517e+003   7.1674e+005    0.0013   -0.0000    0.0000   -0.0000    0.0119
                0.5594  -2.7949e-005   1.0751e-005   1.0198e-004  -7.8517e+005  -6.5257e+003   7.1385e+005    0.0000    0.0037    0.0000    0.0000    0.0119
                0.8754  -5.9664e-005   2.2872e-005   9.9889e-005  -1.6766e+006  -1.5119e+004   6.9923e+005    0.0000    0.0079    0.0000    0.0000    0.0117
                1.1957  -9.0646e-005   3.4708e-005   9.6099e-005  -2.5475e+006  -2.3588e+004   6.7269e+005    0.0000    0.0120    0.0000    0.0000    0.0112
                1.4750  -1.1615e-004   4.4443e-005   9.1461e-005  -3.2645e+006  -3.0705e+004   6.4023e+005    0.0000    0.0153    0.0000    0.0000    0.0107

               lamina:  3     
              matName:  (spar-uni)
                     s           e11           e22           e12           s11           s22           s12   s11_fcT   s11_fcC   s22_fcT   s22_fcC   s12_fcS
                   (m)         (m/m)         (m/m)         (rad)          (Pa)          (Pa)          (Pa)       (-)       (-)       (-)       (-)       (-)
                0.0000   3.1553e-005  -1.2020e-005   1.0153e-004   1.3124e+006  -4.5785e+004   3.0459e+005    0.0014   -0.0000    0.0000    0.0000    0.0102
                0.2484   7.4333e-006  -2.8316e-006   1.0239e-004   3.0918e+005  -1.0786e+004   3.0717e+005    0.0003   -0.0000    0.0000    0.0000    0.0102
                0.5594  -2.3336e-005   8.9080e-006   1.0198e-004  -9.7056e+005   3.4126e+004   3.0593e+005    0.0000    0.0014    0.0000   -0.0000    0.0102
                0.8754  -5.3282e-005   2.0323e-005   9.9889e-005  -2.2161e+006   7.7681e+004   2.9967e+005    0.0000    0.0032    0.0000   -0.0000    0.0100
                1.1957  -8.2751e-005   3.1554e-005   9.6099e-005  -3.4418e+006   1.2053e+005   2.8830e+005    0.0000    0.0049    0.0000   -0.0000    0.0096
                1.4750  -1.0744e-004   4.0961e-005   9.1461e-005  -4.4685e+006   1.5639e+005   2.7438e+005    0.0000    0.0064    0.0000   -0.0000    0.0091

               lamina:  4     
              matName:  (spar-core)
                     s           e11           e22           e12           s11           s22           s12   s11_fcT   s11_fcC   s22_fcT   s22_fcC   s12_fcS
                   (m)         (m/m)         (m/m)         (rad)          (Pa)          (Pa)          (Pa)       (-)       (-)       (-)       (-)       (-)
                0.0000   3.1553e-005  -1.2020e-005   1.0153e-004   7.9849e+003  -7.2966e+002   2.0306e+003    0.0000   -0.0000    0.0000    0.0000    0.0000
                0.2484   7.4333e-006  -2.8316e-006   1.0239e-004   1.8811e+003  -1.7189e+002   2.0478e+003    0.0000   -0.0000    0.0000    0.0000    0.0000
                0.5594  -2.2342e-005   8.5108e-006   1.0198e-004  -5.6538e+003   5.1665e+002   2.0396e+003    0.0000    0.0000    0.0000   -0.0000    0.0000
                0.8754  -5.1906e-005   1.9773e-005   9.9889e-005  -1.3136e+004   1.2003e+003   1.9978e+003    0.0000    0.0000    0.0000   -0.0000    0.0000
                1.1957  -8.1049e-005   3.0875e-005   9.6099e-005  -2.0510e+004   1.8742e+003   1.9220e+003    0.0000    0.0000    0.0000   -0.0000    0.0000
                1.4750  -1.0556e-004   4.0210e-005   9.1461e-005  -2.6712e+004   2.4410e+003   1.8292e+003    0.0000    0.0000    0.0000   -0.0000    0.0000

               lamina:  5     
              matName:  (spar-uni)
                     s           e11           e22           e12           s11           s22           s12   s11_fcT   s11_fcC   s22_fcT   s22_fcC   s12_fcS
                   (m)         (m/m)         (m/m)         (rad)          (Pa)          (Pa)          (Pa)       (-)       (-)       (-)       (-)       (-)
                0.0000   3.1872e-005  -1.2147e-005   1.0153e-004   1.3257e+006  -4.6333e+004   3.0459e+005    0.0014   -0.0000    0.0000    0.0000    0.0102
                0.2484   8.0112e-006  -3.0625e-006   1.0239e-004   3.3317e+005  -1.1779e+004   3.0717e+005    0.0003   -0.0000    0.0000    0.0000    0.0102
                0.5594  -2.2342e-005   8.5107e-006   1.0198e-004  -9.2927e+005   3.2419e+004   3.0593e+005    0.0000    0.0013    0.0000   -0.0000    0.0102
                0.8754  -5.1906e-005   1.9773e-005   9.9889e-005  -2.1590e+006   7.5318e+004   2.9967e+005    0.0000    0.0031    0.0000   -0.0000    0.0100
                1.1957  -8.1049e-005   3.0875e-005   9.6099e-005  -3.3711e+006   1.1761e+005   2.8830e+005    0.0000    0.0048    0.0000   -0.0000    0.0096
                1.4750  -1.0556e-004   4.0210e-005   9.1461e-005  -4.3905e+006   1.5317e+005   2.7438e+005    0.0000    0.0063    0.0000   -0.0000    0.0091

               lamina:  6     
              matName:  (blade-root)
                     s           e11           e22           e12           s11           s22           s12   s11_fcT   s11_fcC   s22_fcT   s22_fcC   s12_fcS
                   (m)         (m/m)         (m/m)         (rad)          (Pa)          (Pa)          (Pa)       (-)       (-)       (-)       (-)       (-)
                0.0000   3.3353e-005  -1.2739e-005   1.0153e-004   9.3755e+005   9.1675e+003   7.1071e+005    0.0065   -0.0000    0.0000   -0.0000    0.0118
                0.2484   1.0692e-005  -4.1333e-006   1.0239e-004   3.0024e+005   2.1823e+003   7.1674e+005    0.0021   -0.0000    0.0000   -0.0000    0.0119
                0.5594  -2.1347e-005   8.1135e-006   1.0198e-004  -6.0031e+005  -6.4731e+003   7.1385e+005    0.0000    0.0028    0.0000    0.0000    0.0119
                0.8754  -5.0531e-005   1.9223e-005   9.9889e-005  -1.4209e+006  -1.5046e+004   6.9923e+005    0.0000    0.0067    0.0000    0.0000    0.0117
                1.1957  -7.9347e-005   3.0195e-005   9.6099e-005  -2.2311e+006  -2.3498e+004   6.7269e+005    0.0000    0.0105    0.0000    0.0000    0.0112
                1.4750  -1.0368e-004   3.9459e-005   9.1461e-005  -2.9152e+006  -3.0605e+004   6.4023e+005    0.0000    0.0137    0.0000    0.0000    0.0107

               lamina:  7     
              matName:  (blade-shell)
                     s           e11           e22           e12           s11           s22           s12   s11_fcT   s11_fcC   s22_fcT   s22_fcC   s12_fcS
                   (m)         (m/m)         (m/m)         (rad)          (Pa)          (Pa)          (Pa)       (-)       (-)       (-)       (-)       (-)
                0.0000   3.3469e-005  -1.2785e-005   1.0153e-004   9.4080e+005   9.1684e+003   7.1071e+005    0.0065   -0.0000    0.0000   -0.0000    0.0118
                0.2484   1.0902e-005  -4.2172e-006   1.0239e-004   3.0612e+005   2.1840e+003   7.1674e+005    0.0021   -0.0000    0.0000   -0.0000    0.0119
                0.5594  -1.6735e-005   6.2709e-006   1.0198e-004  -4.7114e+005  -6.4362e+003   7.1385e+005    0.0000    0.0022    0.0000    0.0000    0.0119
                0.8754  -4.4149e-005   1.6674e-005   9.9889e-005  -1.2422e+006  -1.4995e+004   6.9923e+005    0.0000    0.0058    0.0000    0.0000    0.0117
                1.1957  -7.1452e-005   2.7041e-005   9.6099e-005  -2.0100e+006  -2.3435e+004   6.7269e+005    0.0000    0.0094    0.0000    0.0000    0.0112
                1.4750  -9.4959e-005   3.5977e-005   9.1461e-005  -2.6711e+006  -3.0536e+004   6.4023e+005    0.0000    0.0125    0.0000    0.0000    0.0107

            panel:  3     
           lam_num    nPlies        tPly      fibAng     matID  matName
               (-)       (-)         (m)       (deg)       (-)  (-)
                 1         1    0.005000      0.0000         2  (blade-shell)
                 2         1    0.063815      0.0000         1  (blade-root)
                 3         1    0.012139      0.0000         6  (TEP-core)
                 4         1    0.063815      0.0000         1  (blade-root)
                 5         1    0.005000      0.0000         2  (blade-shell)

               lamina:  1     
              matName:  (blade-shell)
                     s           e11           e22           e12           s11           s22           s12   s11_fcT   s11_fcC   s22_fcT   s22_fcC   s12_fcS
                   (m)         (m/m)         (m/m)         (rad)          (Pa)          (Pa)          (Pa)       (-)       (-)       (-)       (-)       (-)
                0.0000  -1.1458e-004   4.5815e-005   9.9273e-005  -3.2084e+006  -2.6650e+002   6.9491e+005    0.0000    0.0151    0.0000    0.0000    0.0116
                0.0086  -1.1534e-004   4.6117e-005   9.9137e-005  -3.2295e+006  -2.6840e+002   6.9396e+005    0.0000    0.0152    0.0000    0.0000    0.0116

               lamina:  2     
              matName:  (blade-root)
                     s           e11           e22           e12           s11           s22           s12   s11_fcT   s11_fcC   s22_fcT   s22_fcC   s12_fcS
                   (m)         (m/m)         (m/m)         (rad)          (Pa)          (Pa)          (Pa)       (-)       (-)       (-)       (-)       (-)
                0.0000  -1.1400e-004   4.5582e-005   9.9273e-005  -3.1921e+006  -2.6649e+002   6.9491e+005    0.0000    0.0150    0.0000    0.0000    0.0116
                0.0086  -1.1475e-004   4.5884e-005   9.9137e-005  -3.2132e+006  -2.6839e+002   6.9396e+005    0.0000    0.0151    0.0000    0.0000    0.0116

               lamina:  3     
              matName:  (TEP-core)
                     s           e11           e22           e12           s11           s22           s12   s11_fcT   s11_fcC   s22_fcT   s22_fcC   s12_fcS
                   (m)         (m/m)         (m/m)         (rad)          (Pa)          (Pa)          (Pa)       (-)       (-)       (-)       (-)       (-)
                0.0000  -1.0658e-004   4.2616e-005   9.9273e-005  -2.6800e+004   3.0403e+003   1.9855e+003    0.0000    0.0000    0.0000   -0.0000    0.0000
                0.0086  -1.0734e-004   4.2918e-005   9.9137e-005  -2.6990e+004   3.0618e+003   1.9827e+003    0.0000    0.0000    0.0000   -0.0000    0.0000

               lamina:  4     
              matName:  (blade-root)
                     s           e11           e22           e12           s11           s22           s12   s11_fcT   s11_fcC   s22_fcT   s22_fcC   s12_fcS
                   (m)         (m/m)         (m/m)         (rad)          (Pa)          (Pa)          (Pa)       (-)       (-)       (-)       (-)       (-)
                0.0000  -1.0517e-004   4.2052e-005   9.9273e-005  -2.9450e+006  -2.6636e+002   6.9491e+005    0.0000    0.0138    0.0000    0.0000    0.0116
                0.0086  -1.0593e-004   4.2354e-005   9.9137e-005  -2.9661e+006  -2.6826e+002   6.9396e+005    0.0000    0.0139    0.0000    0.0000    0.0116

               lamina:  5     
              matName:  (blade-shell)
                     s           e11           e22           e12           s11           s22           s12   s11_fcT   s11_fcC   s22_fcT   s22_fcC   s12_fcS
                   (m)         (m/m)         (m/m)         (rad)          (Pa)          (Pa)          (Pa)       (-)       (-)       (-)       (-)       (-)
                0.0000  -9.7759e-005   3.9086e-005   9.9273e-005  -2.7374e+006  -2.6625e+002   6.9491e+005    0.0000    0.0129    0.0000    0.0000    0.0116
                0.0086  -9.8514e-005   3.9388e-005   9.9137e-005  -2.7585e+006  -2.6814e+002   6.9396e+005    0.0000    0.0130    0.0000    0.0000    0.0116

            panel:  4     
           lam_num    nPlies        tPly      fibAng     matID  matName
               (-)       (-)         (m)       (deg)       (-)  (-)
                 1         1    0.005000      0.0000         2  (blade-shell)
                 2         1    0.063815      0.0000         1  (blade-root)
                 3         1    0.012139      0.0000         6  (TEP-core)
                 4         1    0.063815      0.0000         1  (blade-root)
                 5         1    0.005000      0.0000         2  (blade-shell)

               lamina:  1     
              matName:  (blade-shell)
                     s           e11           e22           e12           s11           s22           s12   s11_fcT   s11_fcC   s22_fcT   s22_fcC   s12_fcS
                   (m)         (m/m)         (m/m)         (rad)          (Pa)          (Pa)          (Pa)       (-)       (-)       (-)       (-)       (-)
                0.0000  -1.1534e-004   4.6117e-005   9.9654e-005  -3.2295e+006  -2.6840e+002   6.9758e+005    0.0000    0.0152    0.0000    0.0000    0.0116
                0.0326  -1.1939e-004   4.7737e-005   9.9518e-005  -3.3430e+006  -2.7564e+002   6.9663e+005    0.0000    0.0157    0.0000    0.0000    0.0116
                0.3586  -1.4759e-004   5.9014e-005   9.9518e-005  -4.1327e+006  -3.4490e+002   6.9663e+005    0.0000    0.0194    0.0000    0.0000    0.0116
                0.6791  -1.7473e-004   6.9863e-005   9.8995e-005  -4.8925e+006  -4.1038e+002   6.9296e+005    0.0000    0.0230    0.0000    0.0000    0.0115
                0.9945  -2.0017e-004   8.0038e-005   9.3023e-005  -5.6050e+006  -4.7171e+002   6.5116e+005    0.0000    0.0263    0.0000    0.0000    0.0109
                1.3019  -2.2367e-004   8.9435e-005   8.5877e-005  -6.2631e+006  -5.2836e+002   6.0114e+005    0.0000    0.0294    0.0000    0.0000    0.0100
                1.5980  -2.4508e-004   9.7992e-005   7.7663e-005  -6.8624e+006  -5.7968e+002   5.4364e+005    0.0000    0.0322    0.0000    0.0000    0.0091
                1.8821  -2.6410e-004   1.0560e-004   6.8587e-005  -7.3949e+006  -6.2501e+002   4.8011e+005    0.0000    0.0347    0.0000    0.0000    0.0080
                2.1512  -2.8058e-004   1.1219e-004   5.8903e-005  -7.8564e+006  -6.6394e+002   4.1232e+005    0.0000    0.0369    0.0000    0.0000    0.0069
                2.4056  -2.9431e-004   1.1768e-004   4.8799e-005  -8.2410e+006  -6.9587e+002   3.4159e+005    0.0000    0.0387    0.0000    0.0000    0.0057
                2.6478  -3.0502e-004   1.2196e-004   3.8558e-005  -8.5408e+006  -7.2042e+002   2.6990e+005    0.0000    0.0401    0.0000    0.0000    0.0045
                2.8775  -3.1254e-004   1.2497e-004   2.8346e-005  -8.7515e+006  -7.3745e+002   1.9842e+005    0.0000    0.0411    0.0000    0.0000    0.0033
                3.0953  -3.1676e-004   1.2666e-004   1.8219e-005  -8.8696e+006  -7.4683e+002   1.2753e+005    0.0000    0.0416    0.0000    0.0000    0.0021
                3.3157  -3.1731e-004   1.2687e-004   8.3329e-006  -8.8849e+006  -7.4802e+002   5.8331e+004    0.0000    0.0417    0.0000    0.0000    0.0010
                3.5339  -3.1457e-004   1.2578e-004   1.2112e-006  -8.8083e+006  -7.4145e+002   8.4785e+003    0.0000    0.0414    0.0000    0.0000    0.0001

               lamina:  2     
              matName:  (blade-root)
                     s           e11           e22           e12           s11           s22           s12   s11_fcT   s11_fcC   s22_fcT   s22_fcC   s12_fcS
                   (m)         (m/m)         (m/m)         (rad)          (Pa)          (Pa)          (Pa)       (-)       (-)       (-)       (-)       (-)
                0.0000  -1.1475e-004   4.5884e-005   9.9654e-005  -3.2132e+006  -2.6839e+002   6.9758e+005    0.0000    0.0151    0.0000    0.0000    0.0116
                0.0326  -1.1873e-004   4.7473e-005   9.9518e-005  -3.3245e+006  -2.7563e+002   6.9663e+005    0.0000    0.0156    0.0000    0.0000    0.0116
                0.3586  -1.4689e-004   5.8732e-005   9.9518e-005  -4.1129e+006  -3.4489e+002   6.9663e+005    0.0000    0.0193    0.0000    0.0000    0.0116
                0.6791  -1.7395e-004   6.9551e-005   9.8995e-005  -4.8706e+006  -4.1037e+002   6.9296e+005    0.0000    0.0229    0.0000    0.0000    0.0115
                0.9945  -1.9932e-004   7.9698e-005   9.3023e-005  -5.5812e+006  -4.7170e+002   6.5116e+005    0.0000    0.0262    0.0000    0.0000    0.0109
                1.3019  -2.2276e-004   8.9068e-005   8.5877e-005  -6.2374e+006  -5.2835e+002   6.0114e+005    0.0000    0.0293    0.0000    0.0000    0.0100
                1.5980  -2.4409e-004   9.7599e-005   7.7663e-005  -6.8348e+006  -5.7967e+002   5.4364e+005    0.0000    0.0321    0.0000    0.0000    0.0091
                1.8821  -2.6304e-004   1.0518e-004   6.8587e-005  -7.3655e+006  -6.2499e+002   4.8011e+005    0.0000    0.0346    0.0000    0.0000    0.0080
                2.1512  -2.7946e-004   1.1174e-004   5.8903e-005  -7.8250e+006  -6.6392e+002   4.1232e+005    0.0000    0.0367    0.0000    0.0000    0.0069
                2.4056  -2.9312e-004   1.1720e-004   4.8799e-005  -8.2077e+006  -6.9585e+002   3.4159e+005    0.0000    0.0385    0.0000    0.0000    0.0057
                2.6478  -3.0377e-004   1.2146e-004   3.8558e-005  -8.5057e+006  -7.2040e+002   2.6990e+005    0.0000    0.0399    0.0000    0.0000    0.0045
                2.8775  -3.1124e-004   1.2445e-004   2.8346e-005  -8.7150e+006  -7.3743e+002   1.9842e+005    0.0000    0.0409    0.0000    0.0000    0.0033
                3.0953  -3.1542e-004   1.2612e-004   1.8219e-005  -8.8322e+006  -7.4681e+002   1.2753e+005    0.0000    0.0415    0.0000    0.0000    0.0021
                3.3157  -3.1597e-004   1.2634e-004   8.3329e-006  -8.8473e+006  -7.4800e+002   5.8331e+004    0.0000    0.0415    0.0000    0.0000    0.0010
                3.5339  -3.1324e-004   1.2525e-004   1.2112e-006  -8.7709e+006  -7.4142e+002   8.4785e+003    0.0000    0.0412    0.0000    0.0000    0.0001

               lamina:  3     
              matName:  (TEP-core)
                     s           e11           e22           e12           s11           s22           s12   s11_fcT   s11_fcC   s22_fcT   s22_fcC   s12_fcS
                   (m)         (m/m)         (m/m)         (rad)          (Pa)          (Pa)          (Pa)       (-)       (-)       (-)       (-)       (-)
                0.0000  -1.0734e-004   4.2918e-005   9.9654e-005  -2.6990e+004   3.0618e+003   1.9931e+003    0.0000    0.0000    0.0000   -0.0000    0.0000
                0.0326  -1.1030e-004   4.4104e-005   9.9518e-005  -2.7735e+004   3.1464e+003   1.9904e+003    0.0000    0.0000    0.0000   -0.0000    0.0000
                0.3586  -1.3789e-004   5.5131e-005   9.9518e-005  -3.4670e+004   3.9331e+003   1.9904e+003    0.0000    0.0000    0.0000   -0.0000    0.0000
                0.6791  -1.6400e-004   6.5573e-005   9.8995e-005  -4.1236e+004   4.6780e+003   1.9799e+003    0.0000    0.0000    0.0000   -0.0000    0.0000
                0.9945  -1.8846e-004   7.5352e-005   9.3023e-005  -4.7386e+004   5.3756e+003   1.8605e+003    0.0000    0.0000    0.0000   -0.0000    0.0000
                1.3019  -2.1105e-004   8.4385e-005   8.5877e-005  -5.3067e+004   6.0201e+003   1.7175e+003    0.0000    0.0000    0.0000   -0.0000    0.0000
                1.5980  -2.3153e-004   9.2572e-005   7.7663e-005  -5.8215e+004   6.6041e+003   1.5533e+003    0.0000    0.0000    0.0000   -0.0000    0.0000
                1.8821  -2.4962e-004   9.9805e-005   6.8587e-005  -6.2764e+004   7.1202e+003   1.3717e+003    0.0000    0.0000    0.0000   -0.0000    0.0000
                2.1512  -2.6517e-004   1.0602e-004   5.8903e-005  -6.6674e+004   7.5637e+003   1.1781e+003    0.0000    0.0000    0.0000   -0.0000    0.0000
                2.4056  -2.7794e-004   1.1113e-004   4.8799e-005  -6.9885e+004   7.9280e+003   9.7598e+002    0.0000    0.0000    0.0000   -0.0000    0.0000
                2.6478  -2.8777e-004   1.1506e-004   3.8558e-005  -7.2357e+004   8.2084e+003   7.7116e+002    0.0000    0.0000    0.0000   -0.0000    0.0000
                2.8775  -2.9459e-004   1.1779e-004   2.8346e-005  -7.4074e+004   8.4031e+003   5.6692e+002    0.0000    0.0000    0.0000   -0.0000    0.0000
                3.0953  -2.9836e-004   1.1929e-004   1.8219e-005  -7.5020e+004   8.5105e+003   3.6438e+002    0.0000    0.0000    0.0000   -0.0000    0.0000
                3.3157  -2.9884e-004   1.1949e-004   8.3329e-006  -7.5140e+004   8.5242e+003   1.6666e+002    0.0000    0.0000    0.0000   -0.0000    0.0000
                3.5339  -2.9622e-004   1.1844e-004   1.2112e-006  -7.4481e+004   8.4494e+003   2.4224e+001    0.0000    0.0000    0.0000   -0.0000    0.0000

               lamina:  4     
              matName:  (blade-root)
                     s           e11           e22           e12           s11           s22           s12   s11_fcT   s11_fcC   s22_fcT   s22_fcC   s12_fcS
                   (m)         (m/m)         (m/m)         (rad)          (Pa)          (Pa)          (Pa)       (-)       (-)       (-)       (-)       (-)
                0.0000  -1.0593e-004   4.2354e-005   9.9654e-005  -2.9661e+006  -2.6826e+002   6.9758e+005    0.0000    0.0139    0.0000    0.0000    0.0116
                0.0326  -1.0870e-004   4.3463e-005   9.9518e-005  -3.0438e+006  -2.7547e+002   6.9663e+005    0.0000    0.0143    0.0000    0.0000    0.0116
                0.3586  -1.3617e-004   5.4447e-005   9.9518e-005  -3.8130e+006  -3.4472e+002   6.9663e+005    0.0000    0.0179    0.0000    0.0000    0.0116
                0.6791  -1.6211e-004   6.4816e-005   9.8995e-005  -4.5392e+006  -4.1019e+002   6.9296e+005    0.0000    0.0213    0.0000    0.0000    0.0115
                0.9945  -1.8639e-004   7.4525e-005   9.3023e-005  -5.2191e+006  -4.7150e+002   6.5116e+005    0.0000    0.0245    0.0000    0.0000    0.0109
                1.3019  -2.0882e-004   8.3495e-005   8.5877e-005  -5.8473e+006  -5.2814e+002   6.0114e+005    0.0000    0.0275    0.0000    0.0000    0.0100
                1.5980  -2.2913e-004   9.1616e-005   7.7663e-005  -6.4160e+006  -5.7944e+002   5.4364e+005    0.0000    0.0301    0.0000    0.0000    0.0091
                1.8821  -2.4706e-004   9.8784e-005   6.8587e-005  -6.9180e+006  -6.2475e+002   4.8011e+005    0.0000    0.0325    0.0000    0.0000    0.0080
                2.1512  -2.6245e-004   1.0494e-004   5.8903e-005  -7.3488e+006  -6.6366e+002   4.1232e+005    0.0000    0.0345    0.0000    0.0000    0.0069
                2.4056  -2.7505e-004   1.0997e-004   4.8799e-005  -7.7017e+006  -6.9558e+002   3.4159e+005    0.0000    0.0362    0.0000    0.0000    0.0057
                2.6478  -2.8472e-004   1.1384e-004   3.8558e-005  -7.9725e+006  -7.2011e+002   2.6990e+005    0.0000    0.0374    0.0000    0.0000    0.0045
                2.8775  -2.9143e-004   1.1652e-004   2.8346e-005  -8.1603e+006  -7.3713e+002   1.9842e+005    0.0000    0.0383    0.0000    0.0000    0.0033
                3.0953  -2.9511e-004   1.1800e-004   1.8219e-005  -8.2635e+006  -7.4650e+002   1.2753e+005    0.0000    0.0388    0.0000    0.0000    0.0021
                3.3157  -2.9558e-004   1.1818e-004   8.3329e-006  -8.2765e+006  -7.4769e+002   5.8331e+004    0.0000    0.0389    0.0000    0.0000    0.0010
                3.5339  -2.9298e-004   1.1714e-004   1.2112e-006  -8.2037e+006  -7.4112e+002   8.4785e+003    0.0000    0.0385    0.0000    0.0000    0.0001

               lamina:  5     
              matName:  (blade-shell)
                     s           e11           e22           e12           s11           s22           s12   s11_fcT   s11_fcC   s22_fcT   s22_fcC   s12_fcS
                   (m)         (m/m)         (m/m)         (rad)          (Pa)          (Pa)          (Pa)       (-)       (-)       (-)       (-)       (-)
                0.0000  -9.8514e-005   3.9388e-005   9.9654e-005  -2.7585e+006  -2.6814e+002   6.9758e+005    0.0000    0.0130    0.0000    0.0000    0.0116
                0.0326  -1.0028e-004   4.0093e-005   9.9518e-005  -2.8079e+006  -2.7535e+002   6.9663e+005    0.0000    0.0132    0.0000    0.0000    0.0116
                0.3586  -1.2717e-004   5.0846e-005   9.9518e-005  -3.5610e+006  -3.4459e+002   6.9663e+005    0.0000    0.0167    0.0000    0.0000    0.0116
                0.6791  -1.5216e-004   6.0837e-005   9.8995e-005  -4.2606e+006  -4.1004e+002   6.9296e+005    0.0000    0.0200    0.0000    0.0000    0.0115
                0.9945  -1.7553e-004   7.0179e-005   9.3023e-005  -4.9149e+006  -4.7134e+002   6.5116e+005    0.0000    0.0231    0.0000    0.0000    0.0109
                1.3019  -1.9712e-004   7.8812e-005   8.5877e-005  -5.5195e+006  -5.2796e+002   6.0114e+005    0.0000    0.0259    0.0000    0.0000    0.0100
                1.5980  -2.1657e-004   8.6589e-005   7.7663e-005  -6.0641e+006  -5.7925e+002   5.4364e+005    0.0000    0.0285    0.0000    0.0000    0.0091
                1.8821  -2.3363e-004   9.3412e-005   6.8587e-005  -6.5420e+006  -6.2454e+002   4.8011e+005    0.0000    0.0307    0.0000    0.0000    0.0080
                2.1512  -2.4816e-004   9.9220e-005   5.8903e-005  -6.9487e+006  -6.6344e+002   4.1232e+005    0.0000    0.0326    0.0000    0.0000    0.0069
                2.4056  -2.5986e-004   1.0390e-004   4.8799e-005  -7.2765e+006  -6.9535e+002   3.4159e+005    0.0000    0.0342    0.0000    0.0000    0.0057
                2.6478  -2.6872e-004   1.0744e-004   3.8558e-005  -7.5245e+006  -7.1986e+002   2.6990e+005    0.0000    0.0353    0.0000    0.0000    0.0045
                2.8775  -2.7478e-004   1.0987e-004   2.8346e-005  -7.6943e+006  -7.3688e+002   1.9842e+005    0.0000    0.0361    0.0000    0.0000    0.0033
                3.0953  -2.7805e-004   1.1117e-004   1.8219e-005  -7.7856e+006  -7.4624e+002   1.2753e+005    0.0000    0.0366    0.0000    0.0000    0.0021
                3.3157  -2.7845e-004   1.1133e-004   8.3329e-006  -7.7969e+006  -7.4743e+002   5.8331e+004    0.0000    0.0366    0.0000    0.0000    0.0010
                3.5339  -2.7596e-004   1.1033e-004   1.2112e-006  -7.7271e+006  -7.4086e+002   8.4785e+003    0.0000    0.0363    0.0000    0.0000    0.0001

     Web:  panel  nNode   nLam     xc_St    xc_End         b         t         E_eff         G_eff      nu_eff     density  buckleCrit
            (-)    (-)    (-)       (-)       (-)       (m)       (m)          (Pa)          (Pa)         (-)    (kg/m^3)         (-)
              1     10      3    0.3553    0.3553    4.5606    0.0830   7.6445e+008   4.5301e+008      0.4420    257.1084      0.0000
              2     10      3    0.5981    0.5981    4.4067    0.0830   7.6445e+008   4.5301e+008      0.4420    257.1084      0.0002

            panel:  1     
           lam_num    nPlies        tPly      fibAng     matID  matName
               (-)       (-)         (m)       (deg)       (-)  (-)
                 1         1    0.001500      0.0000         7  (web-shell)
                 2         1    0.080000      0.0000         8  (web-core)
                 3         1    0.001500      0.0000         7  (web-shell)

               lamina:  1     
              matName:  (web-shell)
                     s           e11           e22           e12           s11           s22           s12   s11_fcT   s11_fcC   s22_fcT   s22_fcC   s12_fcS
                   (m)         (m/m)         (m/m)         (rad)          (Pa)          (Pa)          (Pa)       (-)       (-)       (-)       (-)       (-)
                0.0000   1.1378e-004  -5.0113e-005   8.9265e-006   1.6561e+006   1.2645e+005   1.0712e+005    0.0115   -0.0000    0.0000   -0.0000    0.0012
                0.5067   1.0412e-004  -4.5847e-005   1.2548e-005   1.5157e+006   1.1601e+005   1.5057e+005    0.0105   -0.0000    0.0000   -0.0000    0.0017
                1.0135   9.4470e-005  -4.1580e-005   1.5863e-005   1.3754e+006   1.0556e+005   1.9035e+005    0.0096   -0.0000    0.0000   -0.0000    0.0021
                1.5202   8.4817e-005  -3.7313e-005   1.8871e-005   1.2350e+006   9.5117e+004   2.2645e+005    0.0086   -0.0000    0.0000   -0.0000    0.0025
                2.0269   7.5164e-005  -3.3046e-005   2.1573e-005   1.0946e+006   8.4671e+004   2.5888e+005    0.0076   -0.0000    0.0000   -0.0000    0.0029
                2.5337   6.5511e-005  -2.8779e-005   2.3969e-005   9.5427e+005   7.4226e+004   2.8762e+005    0.0066   -0.0000    0.0000   -0.0000    0.0032
                3.0404   5.5858e-005  -2.4512e-005   2.6058e-005   8.1390e+005   6.3780e+004   3.1269e+005    0.0057   -0.0000    0.0000   -0.0000    0.0035
                3.5471   4.6205e-005  -2.0245e-005   2.7840e-005   6.7354e+005   5.3334e+004   3.3408e+005    0.0047   -0.0000    0.0000   -0.0000    0.0037
                4.0539   3.6552e-005  -1.5979e-005   2.9316e-005   5.3318e+005   4.2889e+004   3.5180e+005    0.0037   -0.0000    0.0000   -0.0000    0.0039
                4.5606   2.6899e-005  -1.1712e-005   3.0486e-005   3.9281e+005   3.2443e+004   3.6583e+005    0.0027   -0.0000    0.0000   -0.0000    0.0041

               lamina:  2     
              matName:  (web-core)
                     s           e11           e22           e12           s11           s22           s12   s11_fcT   s11_fcC   s22_fcT   s22_fcC   s12_fcS
                   (m)         (m/m)         (m/m)         (rad)          (Pa)          (Pa)          (Pa)       (-)       (-)       (-)       (-)       (-)
                0.0000   1.2404e-004  -5.5009e-005   8.9265e-006   3.0726e+004  -5.0847e+003   1.7853e+002    0.0000   -0.0000    0.0000    0.0000    0.0000
                0.5067   1.1439e-004  -5.0743e-005   1.2548e-005   2.8334e+004  -4.6930e+003   2.5096e+002    0.0000   -0.0000    0.0000    0.0000    0.0000
                1.0135   1.0474e-004  -4.6476e-005   1.5863e-005   2.5941e+004  -4.3013e+003   3.1725e+002    0.0000   -0.0000    0.0000    0.0000    0.0000
                1.5202   9.5085e-005  -4.2209e-005   1.8871e-005   2.3549e+004  -3.9096e+003   3.7742e+002    0.0000   -0.0000    0.0000    0.0000    0.0000
                2.0269   8.5432e-005  -3.7942e-005   2.1573e-005   2.1157e+004  -3.5178e+003   4.3146e+002    0.0000   -0.0000    0.0000    0.0000    0.0000
                2.5337   7.5779e-005  -3.3675e-005   2.3969e-005   1.8765e+004  -3.1261e+003   4.7937e+002    0.0000   -0.0000    0.0000    0.0000    0.0000
                3.0404   6.6126e-005  -2.9408e-005   2.6058e-005   1.6372e+004  -2.7344e+003   5.2115e+002    0.0000   -0.0000    0.0000    0.0000    0.0000
                3.5471   5.6473e-005  -2.5141e-005   2.7840e-005   1.3980e+004  -2.3427e+003   5.5681e+002    0.0000   -0.0000    0.0000    0.0000    0.0000
                4.0539   4.6820e-005  -2.0875e-005   2.9316e-005   1.1588e+004  -1.9510e+003   5.8633e+002    0.0000   -0.0000    0.0000    0.0000    0.0000
                4.5606   3.7168e-005  -1.6608e-005   3.0486e-005   9.1958e+003  -1.5593e+003   6.0972e+002    0.0000   -0.0000    0.0000    0.0000    0.0000

               lamina:  3     
              matName:  (web-shell)
                     s           e11           e22           e12           s11           s22           s12   s11_fcT   s11_fcC   s22_fcT   s22_fcC   s12_fcS
                   (m)         (m/m)         (m/m)         (rad)          (Pa)          (Pa)          (Pa)       (-)       (-)       (-)       (-)       (-)
                0.0000   1.2424e-004  -5.5101e-005   8.9265e-006   1.8048e+006   1.3098e+005   1.0712e+005    0.0125   -0.0000    0.0000   -0.0000    0.0012
                0.5067   1.1458e-004  -5.0834e-005   1.2548e-005   1.6644e+006   1.2053e+005   1.5057e+005    0.0116   -0.0000    0.0000   -0.0000    0.0017
                1.0135   1.0493e-004  -4.6568e-005   1.5863e-005   1.5241e+006   1.1009e+005   1.9035e+005    0.0106   -0.0000    0.0000   -0.0000    0.0021
                1.5202   9.5277e-005  -4.2301e-005   1.8871e-005   1.3837e+006   9.9643e+004   2.2645e+005    0.0096   -0.0000    0.0000   -0.0000    0.0025
                2.0269   8.5624e-005  -3.8034e-005   2.1573e-005   1.2433e+006   8.9197e+004   2.5888e+005    0.0086   -0.0000    0.0000   -0.0000    0.0029
                2.5337   7.5972e-005  -3.3767e-005   2.3969e-005   1.1030e+006   7.8751e+004   2.8762e+005    0.0077   -0.0000    0.0000   -0.0000    0.0032
                3.0404   6.6319e-005  -2.9500e-005   2.6058e-005   9.6262e+005   6.8306e+004   3.1269e+005    0.0067   -0.0000    0.0000   -0.0000    0.0035
                3.5471   5.6666e-005  -2.5233e-005   2.7840e-005   8.2225e+005   5.7860e+004   3.3408e+005    0.0057   -0.0000    0.0000   -0.0000    0.0037
                4.0539   4.7013e-005  -2.0966e-005   2.9316e-005   6.8189e+005   4.7414e+004   3.5180e+005    0.0047   -0.0000    0.0000   -0.0000    0.0039
                4.5606   3.7360e-005  -1.6700e-005   3.0486e-005   5.4153e+005   3.6969e+004   3.6583e+005    0.0038   -0.0000    0.0000   -0.0000    0.0041

            panel:  2     
           lam_num    nPlies        tPly      fibAng     matID  matName
               (-)       (-)         (m)       (deg)       (-)  (-)
                 1         1    0.001500      0.0000         7  (web-shell)
                 2         1    0.080000      0.0000         8  (web-core)
                 3         1    0.001500      0.0000         7  (web-shell)

               lamina:  1     
              matName:  (web-shell)
                     s           e11           e22           e12           s11           s22           s12   s11_fcT   s11_fcC   s22_fcT   s22_fcC   s12_fcS
                   (m)         (m/m)         (m/m)         (rad)          (Pa)          (Pa)          (Pa)       (-)       (-)       (-)       (-)       (-)
                0.0000  -2.5215e-005   1.1331e-005   3.0291e-005  -3.6492e+005  -2.3825e+004   3.6349e+005    0.0000    0.0017    0.0000    0.0000    0.0040
                0.4896  -3.4503e-005   1.5437e-005   2.9538e-005  -4.9998e+005  -3.3877e+004   3.5446e+005    0.0000    0.0023    0.0000    0.0000    0.0039
                0.9793  -4.3791e-005   1.9542e-005   2.8500e-005  -6.3504e+005  -4.3928e+004   3.4200e+005    0.0000    0.0030    0.0000    0.0000    0.0038
                1.4689  -5.3080e-005   2.3648e-005   2.7177e-005  -7.7010e+005  -5.3979e+004   3.2613e+005    0.0000    0.0036    0.0000    0.0000    0.0036
                1.9585  -6.2368e-005   2.7754e-005   2.5570e-005  -9.0517e+005  -6.4030e+004   3.0684e+005    0.0000    0.0042    0.0000    0.0000    0.0034
                2.4482  -7.1656e-005   3.1860e-005   2.3677e-005  -1.0402e+006  -7.4081e+004   2.8413e+005    0.0000    0.0049    0.0000    0.0000    0.0032
                2.9378  -8.0945e-005   3.5965e-005   2.1500e-005  -1.1753e+006  -8.4132e+004   2.5800e+005    0.0000    0.0055    0.0000    0.0000    0.0029
                3.4274  -9.0233e-005   4.0071e-005   1.9037e-005  -1.3104e+006  -9.4183e+004   2.2845e+005    0.0000    0.0062    0.0000    0.0000    0.0025
                3.9171  -9.9521e-005   4.4177e-005   1.6290e-005  -1.4454e+006  -1.0423e+005   1.9548e+005    0.0000    0.0068    0.0000    0.0000    0.0022
                4.4067  -1.0881e-004   4.8282e-005   1.3257e-005  -1.5805e+006  -1.1429e+005   1.5909e+005    0.0000    0.0074    0.0000    0.0000    0.0018

               lamina:  2     
              matName:  (web-core)
                     s           e11           e22           e12           s11           s22           s12   s11_fcT   s11_fcC   s22_fcT   s22_fcC   s12_fcS
                   (m)         (m/m)         (m/m)         (rad)          (Pa)          (Pa)          (Pa)       (-)       (-)       (-)       (-)       (-)
                0.0000  -2.5022e-005   1.1239e-005   3.0291e-005  -6.1858e+003   1.0664e+003   6.0582e+002    0.0000    0.0000    0.0000   -0.0000    0.0000
                0.4896  -3.4310e-005   1.5345e-005   2.9538e-005  -8.4877e+003   1.4434e+003   5.9076e+002    0.0000    0.0000    0.0000   -0.0000    0.0000
                0.9793  -4.3599e-005   1.9451e-005   2.8500e-005  -1.0790e+004   1.8203e+003   5.7000e+002    0.0000    0.0000    0.0000   -0.0000    0.0000
                1.4689  -5.2887e-005   2.3556e-005   2.7177e-005  -1.3091e+004   2.1972e+003   5.4355e+002    0.0000    0.0000    0.0000   -0.0000    0.0000
                1.9585  -6.2175e-005   2.7662e-005   2.5570e-005  -1.5393e+004   2.5741e+003   5.1139e+002    0.0000    0.0000    0.0000   -0.0000    0.0000
                2.4482  -7.1464e-005   3.1768e-005   2.3677e-005  -1.7695e+004   2.9510e+003   4.7354e+002    0.0000    0.0000    0.0000   -0.0000    0.0000
                2.9378  -8.0752e-005   3.5873e-005   2.1500e-005  -1.9997e+004   3.3279e+003   4.2999e+002    0.0000    0.0000    0.0000   -0.0000    0.0000
                3.4274  -9.0040e-005   3.9979e-005   1.9037e-005  -2.2299e+004   3.7049e+003   3.8074e+002    0.0000    0.0000    0.0000   -0.0000    0.0000
                3.9171  -9.9329e-005   4.4085e-005   1.6290e-005  -2.4601e+004   4.0818e+003   3.2579e+002    0.0000    0.0000    0.0000   -0.0000    0.0000
                4.4067  -1.0862e-004   4.8191e-005   1.3257e-005  -2.6903e+004   4.4587e+003   2.6515e+002    0.0000    0.0000    0.0000   -0.0000    0.0000

               lamina:  3     
              matName:  (web-shell)
                     s           e11           e22           e12           s11           s22           s12   s11_fcT   s11_fcC   s22_fcT   s22_fcC   s12_fcS
                   (m)         (m/m)         (m/m)         (rad)          (Pa)          (Pa)          (Pa)       (-)       (-)       (-)       (-)       (-)
                0.0000  -1.4752e-005   6.3423e-006   3.0291e-005  -2.1618e+005  -1.9299e+004   3.6349e+005    0.0000    0.0010    0.0000    0.0000    0.0040
                0.4896  -2.4041e-005   1.0448e-005   2.9538e-005  -3.5124e+005  -2.9350e+004   3.5446e+005    0.0000    0.0016    0.0000    0.0000    0.0039
                0.9793  -3.3329e-005   1.4554e-005   2.8500e-005  -4.8631e+005  -3.9401e+004   3.4200e+005    0.0000    0.0023    0.0000    0.0000    0.0038
                1.4689  -4.2617e-005   1.8659e-005   2.7177e-005  -6.2137e+005  -4.9452e+004   3.2613e+005    0.0000    0.0029    0.0000    0.0000    0.0036
                1.9585  -5.1906e-005   2.2765e-005   2.5570e-005  -7.5643e+005  -5.9503e+004   3.0684e+005    0.0000    0.0036    0.0000    0.0000    0.0034
                2.4482  -6.1194e-005   2.6871e-005   2.3677e-005  -8.9149e+005  -6.9555e+004   2.8413e+005    0.0000    0.0042    0.0000    0.0000    0.0032
                2.9378  -7.0482e-005   3.0977e-005   2.1500e-005  -1.0266e+006  -7.9606e+004   2.5800e+005    0.0000    0.0048    0.0000    0.0000    0.0029
                3.4274  -7.9771e-005   3.5082e-005   1.9037e-005  -1.1616e+006  -8.9657e+004   2.2845e+005    0.0000    0.0055    0.0000    0.0000    0.0025
                3.9171  -8.9059e-005   3.9188e-005   1.6290e-005  -1.2967e+006  -9.9708e+004   1.9548e+005    0.0000    0.0061    0.0000    0.0000    0.0022
                4.4067  -9.8347e-005   4.3294e-005   1.3257e-005  -1.4317e+006  -1.0976e+005   1.5909e+005    0.0000    0.0067    0.0000    0.0000    0.0018

================================================================================
sec        =  7      
zSec       =  7.8000  (m)
nPanelsTop =  4      
nPanelsBot =  4      
nWebs      =  2      

    Top:  panel  nNode   nLam     xc_St    xc_End         b         t         E_eff         G_eff      nu_eff     density  buckleCrit
            (-)    (-)    (-)       (-)       (-)       (m)       (m)          (Pa)          (Pa)         (-)    (kg/m^3)         (-)
              1     13      5    0.0000    0.3452    3.3604    0.1376   2.4086e+010   6.0150e+009      0.3997   1617.1566      0.0000
              2      7      7    0.3452    0.5768    1.4729    0.1622   3.1840e+010   5.9145e+009      0.3688   1868.9885      0.0000
              3      2      5    0.5768    0.5781    0.0083    0.1376   2.4086e+010   6.0150e+009      0.3997   1617.1566      0.0000
              4     15      5    0.5781    1.0000    3.6325    0.1376   2.4086e+010   6.0150e+009      0.3997   1617.1566      0.0063

            panel:  1     
           lam_num    nPlies        tPly      fibAng     matID  matName
               (-)       (-)         (m)       (deg)       (-)  (-)
                 1         1    0.005000      0.0000         2  (blade-shell)
                 2         1    0.054104      0.0000         1  (blade-root)
                 3         1    0.019422      0.0000         5  (LEP-core)
                 4         1    0.054104      0.0000         1  (blade-root)
                 5         1    0.005000      0.0000         2  (blade-shell)

               lamina:  1     
              matName:  (blade-shell)
                     s           e11           e22           e12           s11           s22           s12   s11_fcT   s11_fcC   s22_fcT   s22_fcC   s12_fcS
                   (m)         (m/m)         (m/m)         (rad)          (Pa)          (Pa)          (Pa)       (-)       (-)       (-)       (-)       (-)
                0.0000   3.1361e-004  -1.2535e-004   1.9998e-005   8.7815e+006   1.3862e+003   1.3999e+005    0.0610   -0.0000    0.0000   -0.0000    0.0023
                0.2494   3.1763e-004  -1.2696e-004   9.1654e-006   8.8942e+006   1.4044e+003   6.4158e+004    0.0618   -0.0000    0.0000   -0.0000    0.0011
                0.5072   3.1834e-004  -1.2724e-004   2.1138e-006   8.9142e+006   1.4074e+003   1.4796e+004    0.0619   -0.0000    0.0000   -0.0000    0.0002
                0.7798   3.1566e-004  -1.2617e-004   1.4008e-005   8.8389e+006   1.3959e+003   9.8054e+004    0.0614   -0.0000    0.0000   -0.0000    0.0016
                1.0387   3.0886e-004  -1.2345e-004   2.5140e-005   8.6486e+006   1.3667e+003   1.7598e+005    0.0601   -0.0000    0.0000   -0.0000    0.0029
                1.3099   2.9867e-004  -1.1938e-004   3.6488e-005   8.3632e+006   1.3224e+003   2.5542e+005    0.0581   -0.0000    0.0000   -0.0000    0.0043
                1.5835   2.8488e-004  -1.1387e-004   4.7493e-005   7.9772e+006   1.2626e+003   3.3245e+005    0.0554   -0.0000    0.0000   -0.0000    0.0055
                1.8632   2.6778e-004  -1.0703e-004   5.8161e-005   7.4984e+006   1.1880e+003   4.0712e+005    0.0521   -0.0000    0.0000   -0.0000    0.0068
                2.1501   2.4754e-004  -9.8945e-005   6.8376e-005   6.9316e+006   1.0995e+003   4.7863e+005    0.0481   -0.0000    0.0000   -0.0000    0.0080
                2.4415   2.2426e-004  -8.9640e-005   7.7888e-005   6.2798e+006   9.9762e+002   5.4522e+005    0.0436   -0.0000    0.0000   -0.0000    0.0091
                2.7406   1.9837e-004  -7.9288e-005   8.6645e-005   5.5546e+006   8.8353e+002   6.0652e+005    0.0386   -0.0000    0.0000   -0.0000    0.0101
                3.0464   1.7004e-004  -6.7966e-005   9.4461e-005   4.7614e+006   7.5855e+002   6.6122e+005    0.0331   -0.0000    0.0000   -0.0000    0.0110
                3.3604   1.4027e-004  -5.6066e-005   1.0121e-004   3.9278e+006   6.2316e+002   7.0849e+005    0.0273   -0.0000    0.0000   -0.0000    0.0118

               lamina:  2     
              matName:  (blade-root)
                     s           e11           e22           e12           s11           s22           s12   s11_fcT   s11_fcC   s22_fcT   s22_fcC   s12_fcS
                   (m)         (m/m)         (m/m)         (rad)          (Pa)          (Pa)          (Pa)       (-)       (-)       (-)       (-)       (-)
                0.0000   3.1232e-004  -1.2484e-004   1.9998e-005   8.7455e+006   1.3861e+003   1.3999e+005    0.0607   -0.0000    0.0000   -0.0000    0.0023
                0.2494   3.1633e-004  -1.2644e-004   9.1654e-006   8.8579e+006   1.4043e+003   6.4158e+004    0.0615   -0.0000    0.0000   -0.0000    0.0011
                0.5072   3.1704e-004  -1.2672e-004   2.1138e-006   8.8777e+006   1.4073e+003   1.4796e+004    0.0617   -0.0000    0.0000   -0.0000    0.0002
                0.7798   3.1437e-004  -1.2566e-004   1.4008e-005   8.8029e+006   1.3958e+003   9.8054e+004    0.0611   -0.0000    0.0000   -0.0000    0.0016
                1.0387   3.0761e-004  -1.2296e-004   2.5140e-005   8.6138e+006   1.3666e+003   1.7598e+005    0.0598   -0.0000    0.0000   -0.0000    0.0029
                1.3099   2.9748e-004  -1.1890e-004   3.6488e-005   8.3299e+006   1.3223e+003   2.5542e+005    0.0578   -0.0000    0.0000   -0.0000    0.0043
                1.5835   2.8377e-004  -1.1342e-004   4.7493e-005   7.9460e+006   1.2625e+003   3.3245e+005    0.0552   -0.0000    0.0000   -0.0000    0.0055
                1.8632   2.6675e-004  -1.0662e-004   5.8161e-005   7.4695e+006   1.1879e+003   4.0712e+005    0.0519   -0.0000    0.0000   -0.0000    0.0068
                2.1501   2.4661e-004  -9.8572e-005   6.8376e-005   6.9055e+006   1.0995e+003   4.7863e+005    0.0480   -0.0000    0.0000   -0.0000    0.0080
                2.4415   2.2344e-004  -8.9312e-005   7.7888e-005   6.2568e+006   9.9756e+002   5.4522e+005    0.0435   -0.0000    0.0000   -0.0000    0.0091
                2.7406   1.9766e-004  -7.9005e-005   8.6645e-005   5.5348e+006   8.8348e+002   6.0652e+005    0.0384   -0.0000    0.0000   -0.0000    0.0101
                3.0464   1.6945e-004  -6.7731e-005   9.4461e-005   4.7450e+006   7.5851e+002   6.6122e+005    0.0330   -0.0000    0.0000   -0.0000    0.0110
                3.3604   1.3974e-004  -5.5856e-005   1.0121e-004   3.9130e+006   6.2312e+002   7.0849e+005    0.0272   -0.0000    0.0000   -0.0000    0.0118

               lamina:  3     
              matName:  (LEP-core)
                     s           e11           e22           e12           s11           s22           s12   s11_fcT   s11_fcC   s22_fcT   s22_fcC   s12_fcS
                   (m)         (m/m)         (m/m)         (rad)          (Pa)          (Pa)          (Pa)       (-)       (-)       (-)       (-)       (-)
                0.0000   2.9840e-004  -1.1927e-004   1.9998e-005   7.5033e+004  -8.4996e+003   3.9997e+002    0.0000   -0.0000    0.0000    0.0000    0.0000
                0.2494   3.0230e-004  -1.2083e-004   9.1654e-006   7.6014e+004  -8.6107e+003   1.8331e+002    0.0000   -0.0000    0.0000    0.0000    0.0000
                0.5072   3.0296e-004  -1.2109e-004   2.1138e-006   7.6180e+004  -8.6295e+003   4.2275e+001    0.0000   -0.0000    0.0000    0.0000    0.0000
                0.7798   3.0047e-004  -1.2010e-004   1.4008e-005   7.5554e+004  -8.5586e+003   2.8015e+002    0.0000   -0.0000    0.0000    0.0000    0.0000
                1.0387   2.9415e-004  -1.1757e-004   2.5140e-005   7.3965e+004  -8.3786e+003   5.0280e+002    0.0000   -0.0000    0.0000    0.0000    0.0000
                1.3099   2.8460e-004  -1.1375e-004   3.6488e-005   7.1563e+004  -8.1066e+003   7.2977e+002    0.0000   -0.0000    0.0000    0.0000    0.0000
                1.5835   2.7170e-004  -1.0860e-004   4.7493e-005   6.8319e+004  -7.7391e+003   9.4987e+002    0.0000   -0.0000    0.0000    0.0000    0.0000
                1.8632   2.5560e-004  -1.0216e-004   5.8161e-005   6.4271e+004  -7.2805e+003   1.1632e+003    0.0000   -0.0000    0.0000    0.0000    0.0000
                2.1501   2.3654e-004  -9.4542e-005   6.8376e-005   5.9478e+004  -6.7375e+003   1.3675e+003    0.0000   -0.0000    0.0000    0.0000    0.0000
                2.4415   2.1457e-004  -8.5762e-005   7.7888e-005   5.3954e+004  -6.1118e+003   1.5578e+003    0.0000   -0.0000    0.0000    0.0000    0.0000
                2.7406   1.9000e-004  -7.5941e-005   8.6645e-005   4.7776e+004  -5.4120e+003   1.7329e+003    0.0000   -0.0000    0.0000    0.0000    0.0000
                3.0464   1.6309e-004  -6.5186e-005   9.4461e-005   4.1010e+004  -4.6455e+003   1.8892e+003    0.0000   -0.0000    0.0000    0.0000    0.0000
                3.3604   1.3405e-004  -5.3580e-005   1.0121e-004   3.3708e+004  -3.8184e+003   2.0243e+003    0.0000   -0.0000    0.0000    0.0000    0.0000

               lamina:  4     
              matName:  (blade-root)
                     s           e11           e22           e12           s11           s22           s12   s11_fcT   s11_fcC   s22_fcT   s22_fcC   s12_fcS
                   (m)         (m/m)         (m/m)         (rad)          (Pa)          (Pa)          (Pa)       (-)       (-)       (-)       (-)       (-)
                0.0000   2.9340e-004  -1.1727e-004   1.9998e-005   8.2157e+006   1.3846e+003   1.3999e+005    0.0571   -0.0000    0.0000   -0.0000    0.0023
                0.2494   2.9726e-004  -1.1881e-004   9.1654e-006   8.3238e+006   1.4027e+003   6.4158e+004    0.0578   -0.0000    0.0000   -0.0000    0.0011
                0.5072   2.9790e-004  -1.1907e-004   2.1138e-006   8.3418e+006   1.4058e+003   1.4796e+004    0.0579   -0.0000    0.0000   -0.0000    0.0002
                0.7798   2.9548e-004  -1.1810e-004   1.4008e-005   8.2739e+006   1.3943e+003   9.8054e+004    0.0575   -0.0000    0.0000   -0.0000    0.0016
                1.0387   2.8931e-004  -1.1564e-004   2.5140e-005   8.1013e+006   1.3651e+003   1.7598e+005    0.0563   -0.0000    0.0000   -0.0000    0.0029
                1.3099   2.7997e-004  -1.1190e-004   3.6488e-005   7.8398e+006   1.3209e+003   2.5542e+005    0.0544   -0.0000    0.0000   -0.0000    0.0043
                1.5835   2.6736e-004  -1.0686e-004   4.7493e-005   7.4867e+006   1.2612e+003   3.3245e+005    0.0520   -0.0000    0.0000   -0.0000    0.0055
                1.8632   2.5159e-004  -1.0056e-004   5.8161e-005   7.0451e+006   1.1867e+003   4.0712e+005    0.0489   -0.0000    0.0000   -0.0000    0.0068
                2.1501   2.3292e-004  -9.3096e-005   6.8376e-005   6.5222e+006   1.0984e+003   4.7863e+005    0.0453   -0.0000    0.0000   -0.0000    0.0080
                2.4415   2.1138e-004  -8.4488e-005   7.7888e-005   5.9191e+006   9.9659e+002   5.4522e+005    0.0411   -0.0000    0.0000   -0.0000    0.0091
                2.7406   1.8725e-004  -7.4842e-005   8.6645e-005   5.2433e+006   8.8264e+002   6.0652e+005    0.0364   -0.0000    0.0000   -0.0000    0.0101
                3.0464   1.6081e-004  -6.4272e-005   9.4461e-005   4.5028e+006   7.5781e+002   6.6122e+005    0.0313   -0.0000    0.0000   -0.0000    0.0110
                3.3604   1.3201e-004  -5.2763e-005   1.0121e-004   3.6965e+006   6.2250e+002   7.0849e+005    0.0257   -0.0000    0.0000   -0.0000    0.0118

               lamina:  5     
              matName:  (blade-shell)
                     s           e11           e22           e12           s11           s22           s12   s11_fcT   s11_fcC   s22_fcT   s22_fcC   s12_fcS
                   (m)         (m/m)         (m/m)         (rad)          (Pa)          (Pa)          (Pa)       (-)       (-)       (-)       (-)       (-)
                0.0000   2.7947e-004  -1.1170e-004   1.9998e-005   7.8258e+006   1.3835e+003   1.3999e+005    0.0543   -0.0000    0.0000   -0.0000    0.0023
                0.2494   2.8322e-004  -1.1320e-004   9.1654e-006   7.9308e+006   1.4016e+003   6.4158e+004    0.0551   -0.0000    0.0000   -0.0000    0.0011
                0.5072   2.8382e-004  -1.1344e-004   2.1138e-006   7.9475e+006   1.4047e+003   1.4796e+004    0.0552   -0.0000    0.0000   -0.0000    0.0002
                0.7798   2.8157e-004  -1.1254e-004   1.4008e-005   7.8846e+006   1.3932e+003   9.8054e+004    0.0548   -0.0000    0.0000   -0.0000    0.0016
                1.0387   2.7584e-004  -1.1025e-004   2.5140e-005   7.7242e+006   1.3640e+003   1.7598e+005    0.0536   -0.0000    0.0000   -0.0000    0.0029
                1.3099   2.6710e-004  -1.0675e-004   3.6488e-005   7.4792e+006   1.3199e+003   2.5542e+005    0.0519   -0.0000    0.0000   -0.0000    0.0043
                1.5835   2.5529e-004  -1.0203e-004   4.7493e-005   7.1487e+006   1.2602e+003   3.3245e+005    0.0496   -0.0000    0.0000   -0.0000    0.0055
                1.8632   2.4044e-004  -9.6099e-005   5.8161e-005   6.7328e+006   1.1858e+003   4.0712e+005    0.0468   -0.0000    0.0000   -0.0000    0.0068
                2.1501   2.2284e-004  -8.9066e-005   6.8376e-005   6.2401e+006   1.0976e+003   4.7863e+005    0.0433   -0.0000    0.0000   -0.0000    0.0080
                2.4415   2.0251e-004  -8.0938e-005   7.7888e-005   5.6706e+006   9.9587e+002   5.4522e+005    0.0394   -0.0000    0.0000   -0.0000    0.0091
                2.7406   1.7959e-004  -7.1778e-005   8.6645e-005   5.0289e+006   8.8202e+002   6.0652e+005    0.0349   -0.0000    0.0000   -0.0000    0.0101
                3.0464   1.5444e-004  -6.1727e-005   9.4461e-005   4.3247e+006   7.5730e+002   6.6122e+005    0.0300   -0.0000    0.0000   -0.0000    0.0110
                3.3604   1.2632e-004  -5.0487e-005   1.0121e-004   3.5372e+006   6.2204e+002   7.0849e+005    0.0246   -0.0000    0.0000   -0.0000    0.0118

            panel:  2     
           lam_num    nPlies        tPly      fibAng     matID  matName
               (-)       (-)         (m)       (deg)       (-)  (-)
                 1         1    0.005000      0.0000         2  (blade-shell)
                 2         1    0.054104      0.0000         1  (blade-root)
                 3         1    0.022012      0.0000         3  (spar-uni)
                 4         1    0.000001      0.0000         4  (spar-core)
                 5         1    0.022012      0.0000         3  (spar-uni)
                 6         1    0.054104      0.0000         1  (blade-root)
                 7         1    0.005000      0.0000         2  (blade-shell)

               lamina:  1     
              matName:  (blade-shell)
                     s           e11           e22           e12           s11           s22           s12   s11_fcT   s11_fcC   s22_fcT   s22_fcC   s12_fcS
                   (m)         (m/m)         (m/m)         (rad)          (Pa)          (Pa)          (Pa)       (-)       (-)       (-)       (-)       (-)
                0.0000   1.4366e-004  -5.3301e-005   8.6800e-005   4.0479e+006   6.3370e+004   6.0760e+005    0.0281   -0.0000    0.0000   -0.0000    0.0101
                0.0050   1.4198e-004  -5.2617e-005   8.6931e-005   4.0008e+006   6.3520e+004   6.0851e+005    0.0278   -0.0000    0.0000   -0.0000    0.0101
                0.3278   1.1010e-004  -4.0830e-005   9.4373e-005   3.1025e+006   4.8883e+004   6.6061e+005    0.0215   -0.0000    0.0000   -0.0000    0.0110
                0.6526   7.6089e-005  -2.8219e-005   9.9877e-005   2.1440e+006   3.3726e+004   6.9914e+005    0.0149   -0.0000    0.0000   -0.0000    0.0117
                0.9824   4.1189e-005  -1.5287e-005   1.0338e-004   1.1605e+006   1.8080e+004   7.2365e+005    0.0081   -0.0000    0.0000   -0.0000    0.0121
                1.3161   6.0771e-006  -2.2914e-006   1.0476e-004   1.7101e+005   2.1219e+003   7.3329e+005    0.0012   -0.0000    0.0000   -0.0000    0.0122
                1.4729  -1.1133e-005   4.0966e-006   1.0465e-004  -3.1391e+005  -5.4283e+003   7.3253e+005    0.0000    0.0015    0.0000    0.0000    0.0122

               lamina:  2     
              matName:  (blade-root)
                     s           e11           e22           e12           s11           s22           s12   s11_fcT   s11_fcC   s22_fcT   s22_fcC   s12_fcS
                   (m)         (m/m)         (m/m)         (rad)          (Pa)          (Pa)          (Pa)       (-)       (-)       (-)       (-)       (-)
                0.0000   1.4298e-004  -5.3028e-005   8.6800e-005   4.0287e+006   6.3346e+004   6.0760e+005    0.0280   -0.0000    0.0000   -0.0000    0.0101
                0.0050   1.4143e-004  -5.2397e-005   8.6931e-005   3.9853e+006   6.3501e+004   6.0851e+005    0.0277   -0.0000    0.0000   -0.0000    0.0101
                0.3278   1.0962e-004  -4.0638e-005   9.4373e-005   3.0890e+006   4.8866e+004   6.6061e+005    0.0215   -0.0000    0.0000   -0.0000    0.0110
                0.6526   7.5749e-005  -2.8084e-005   9.9877e-005   2.1344e+006   3.3714e+004   6.9914e+005    0.0148   -0.0000    0.0000   -0.0000    0.0117
                0.9824   4.0979e-005  -1.5204e-005   1.0338e-004   1.1547e+006   1.8072e+004   7.2365e+005    0.0080   -0.0000    0.0000   -0.0000    0.0121
                1.3161   5.9699e-006  -2.2488e-006   1.0476e-004   1.6801e+005   2.1182e+003   7.3329e+005    0.0012   -0.0000    0.0000   -0.0000    0.0122
                1.4729  -1.1355e-005   4.1846e-006   1.0465e-004  -3.2010e+005  -5.4359e+003   7.3253e+005    0.0000    0.0015    0.0000    0.0000    0.0122

               lamina:  3     
              matName:  (spar-uni)
                     s           e11           e22           e12           s11           s22           s12   s11_fcT   s11_fcC   s22_fcT   s22_fcC   s12_fcS
                   (m)         (m/m)         (m/m)         (rad)          (Pa)          (Pa)          (Pa)       (-)       (-)       (-)       (-)       (-)
                0.0000   1.3555e-004  -5.0075e-005   8.6800e-005   5.6444e+006  -1.7424e+005   2.6040e+005    0.0058   -0.0000    0.0000    0.0000    0.0087
                0.0050   1.3544e-004  -5.0017e-005   8.6931e-005   5.6398e+006  -1.7385e+005   2.6079e+005    0.0058   -0.0000    0.0000    0.0000    0.0087
                0.3278   1.0441e-004  -3.8564e-005   9.4373e-005   4.3477e+006  -1.3412e+005   2.8312e+005    0.0045   -0.0000    0.0000    0.0000    0.0094
                0.6526   7.2063e-005  -2.6618e-005   9.9877e-005   3.0007e+006  -9.2585e+004   2.9963e+005    0.0031   -0.0000    0.0000    0.0000    0.0100
                0.9824   3.8716e-005  -1.4304e-005   1.0338e-004   1.6121e+006  -4.9790e+004   3.1014e+005    0.0017   -0.0000    0.0000    0.0000    0.0103
                1.3161   4.8104e-006  -1.7876e-006   1.0476e-004   2.0026e+005  -6.3350e+003   3.1427e+005    0.0002   -0.0000    0.0000    0.0000    0.0105
                1.4729  -1.1444e-005   4.2204e-006   1.0465e-004  -4.7658e+005   1.4605e+004   3.1394e+005    0.0000    0.0007    0.0000   -0.0000    0.0105

               lamina:  4     
              matName:  (spar-core)
                     s           e11           e22           e12           s11           s22           s12   s11_fcT   s11_fcC   s22_fcT   s22_fcC   s12_fcS
                   (m)         (m/m)         (m/m)         (rad)          (Pa)          (Pa)          (Pa)       (-)       (-)       (-)       (-)       (-)
                0.0000   1.3253e-004  -4.8874e-005   8.6800e-005   3.3677e+004  -2.6040e+003   1.7360e+003    0.0000   -0.0000    0.0000    0.0000    0.0000
                0.0050   1.3300e-004  -4.9048e-005   8.6931e-005   3.3797e+004  -2.6133e+003   1.7386e+003    0.0000   -0.0000    0.0000    0.0000    0.0000
                0.3278   1.0229e-004  -3.7721e-005   9.4373e-005   2.5992e+004  -2.0098e+003   1.8875e+003    0.0000   -0.0000    0.0000    0.0000    0.0000
                0.6526   7.0563e-005  -2.6022e-005   9.9877e-005   1.7930e+004  -1.3864e+003   1.9975e+003    0.0000   -0.0000    0.0000    0.0000    0.0000
                0.9824   3.7796e-005  -1.3938e-005   1.0338e-004   9.6041e+003  -7.4262e+002   2.0676e+003    0.0000   -0.0000    0.0000    0.0000    0.0000
                1.3161   4.3386e-006  -1.6000e-006   1.0476e-004   1.1025e+003  -8.5247e+001   2.0951e+003    0.0000   -0.0000    0.0000    0.0000    0.0000
                1.4729  -1.1444e-005   4.2204e-006   1.0465e-004  -2.9081e+003   2.2487e+002   2.0929e+003    0.0000    0.0000    0.0000   -0.0000    0.0000

               lamina:  5     
              matName:  (spar-uni)
                     s           e11           e22           e12           s11           s22           s12   s11_fcT   s11_fcC   s22_fcT   s22_fcC   s12_fcS
                   (m)         (m/m)         (m/m)         (rad)          (Pa)          (Pa)          (Pa)       (-)       (-)       (-)       (-)       (-)
                0.0000   1.3253e-004  -4.8874e-005   8.6800e-005   5.5190e+006  -1.6913e+005   2.6040e+005    0.0057   -0.0000    0.0000    0.0000    0.0087
                0.0050   1.3300e-004  -4.9048e-005   8.6931e-005   5.5387e+006  -1.6973e+005   2.6079e+005    0.0057   -0.0000    0.0000    0.0000    0.0087
                0.3278   1.0229e-004  -3.7721e-005   9.4373e-005   4.2596e+006  -1.3053e+005   2.8312e+005    0.0044   -0.0000    0.0000    0.0000    0.0094
                0.6526   7.0563e-005  -2.6021e-005   9.9877e-005   2.9384e+006  -9.0047e+004   2.9963e+005    0.0030   -0.0000    0.0000    0.0000    0.0100
                0.9824   3.7796e-005  -1.3938e-005   1.0338e-004   1.5739e+006  -4.8231e+004   3.1014e+005    0.0016   -0.0000    0.0000    0.0000    0.0103
                1.3161   4.3386e-006  -1.6000e-006   1.0476e-004   1.8067e+005  -5.5366e+003   3.1427e+005    0.0002   -0.0000    0.0000    0.0000    0.0105
                1.4729  -1.1534e-005   4.2562e-006   1.0465e-004  -4.8031e+005   1.4757e+004   3.1394e+005    0.0000    0.0007    0.0000   -0.0000    0.0105

               lamina:  6     
              matName:  (blade-root)
                     s           e11           e22           e12           s11           s22           s12   s11_fcT   s11_fcC   s22_fcT   s22_fcC   s12_fcS
                   (m)         (m/m)         (m/m)         (rad)          (Pa)          (Pa)          (Pa)       (-)       (-)       (-)       (-)       (-)
                0.0000   1.2951e-004  -4.7672e-005   8.6800e-005   3.6515e+006   6.2882e+004   6.0760e+005    0.0254   -0.0000    0.0000   -0.0000    0.0101
                0.0050   1.3057e-004  -4.8079e-005   8.6931e-005   3.6812e+006   6.3127e+004   6.0851e+005    0.0256   -0.0000    0.0000   -0.0000    0.0101
                0.3278   1.0017e-004  -3.6877e-005   9.4373e-005   2.8241e+006   4.8540e+004   6.6061e+005    0.0196   -0.0000    0.0000   -0.0000    0.0110
                0.6526   6.9063e-005  -2.5425e-005   9.9877e-005   1.9472e+006   3.3484e+004   6.9914e+005    0.0135   -0.0000    0.0000   -0.0000    0.0117
                0.9824   3.6875e-005  -1.3572e-005   1.0338e-004   1.0397e+006   1.7931e+004   7.2365e+005    0.0072   -0.0000    0.0000   -0.0000    0.0121
                1.3161   3.8669e-006  -1.4123e-006   1.0476e-004   1.0909e+005   2.0457e+003   7.3329e+005    0.0008   -0.0000    0.0000   -0.0000    0.0122
                1.4729  -1.1756e-005   4.3441e-006   1.0465e-004  -3.3134e+005  -5.4498e+003   7.3253e+005    0.0000    0.0016    0.0000    0.0000    0.0122

               lamina:  7     
              matName:  (blade-shell)
                     s           e11           e22           e12           s11           s22           s12   s11_fcT   s11_fcC   s22_fcT   s22_fcC   s12_fcS
                   (m)         (m/m)         (m/m)         (rad)          (Pa)          (Pa)          (Pa)       (-)       (-)       (-)       (-)       (-)
                0.0000   1.2209e-004  -4.4719e-005   8.6800e-005   3.4434e+006   6.2625e+004   6.0760e+005    0.0239   -0.0000    0.0000   -0.0000    0.0101
                0.0050   1.2458e-004  -4.5699e-005   8.6931e-005   3.5135e+006   6.2920e+004   6.0851e+005    0.0244   -0.0000    0.0000   -0.0000    0.0101
                0.3278   9.4955e-005  -3.4804e-005   9.4373e-005   2.6781e+006   4.8360e+004   6.6061e+005    0.0186   -0.0000    0.0000   -0.0000    0.0110
                0.6526   6.5378e-005  -2.3959e-005   9.9877e-005   1.8439e+006   3.3356e+004   6.9914e+005    0.0128   -0.0000    0.0000   -0.0000    0.0117
                0.9824   3.4612e-005  -1.2671e-005   1.0338e-004   9.7627e+005   1.7853e+004   7.2365e+005    0.0068   -0.0000    0.0000   -0.0000    0.0121
                1.3161   2.7073e-006  -9.5113e-007   1.0476e-004   7.6607e+004   2.0056e+003   7.3329e+005    0.0005   -0.0000    0.0000   -0.0000    0.0122
                1.4729  -1.1776e-005   4.3522e-006   1.0465e-004  -3.3191e+005  -5.4505e+003   7.3253e+005    0.0000    0.0016    0.0000    0.0000    0.0122

            panel:  3     
           lam_num    nPlies        tPly      fibAng     matID  matName
               (-)       (-)         (m)       (deg)       (-)  (-)
                 1         1    0.005000      0.0000         2  (blade-shell)
                 2         1    0.054104      0.0000         1  (blade-root)
                 3         1    0.019422      0.0000         6  (TEP-core)
                 4         1    0.054104      0.0000         1  (blade-root)
                 5         1    0.005000      0.0000         2  (blade-shell)

               lamina:  1     
              matName:  (blade-shell)
                     s           e11           e22           e12           s11           s22           s12   s11_fcT   s11_fcC   s22_fcT   s22_fcC   s12_fcS
                   (m)         (m/m)         (m/m)         (rad)          (Pa)          (Pa)          (Pa)       (-)       (-)       (-)       (-)       (-)
                0.0000  -1.1230e-005   4.4884e-006   1.2129e-004  -3.1445e+005  -5.3474e+001   8.4905e+005    0.0000    0.0015    0.0000    0.0000    0.0142
                0.0083  -1.2067e-005   4.8232e-006   1.2128e-004  -3.3791e+005  -5.7394e+001   8.4894e+005    0.0000    0.0016    0.0000    0.0000    0.0141

               lamina:  2     
              matName:  (blade-root)
                     s           e11           e22           e12           s11           s22           s12   s11_fcT   s11_fcC   s22_fcT   s22_fcC   s12_fcS
                   (m)         (m/m)         (m/m)         (rad)          (Pa)          (Pa)          (Pa)       (-)       (-)       (-)       (-)       (-)
                0.0000  -1.1399e-005   4.5562e-006   1.2129e-004  -3.1920e+005  -5.3487e+001   8.4905e+005    0.0000    0.0015    0.0000    0.0000    0.0142
                0.0083  -1.2237e-005   4.8909e-006   1.2128e-004  -3.4265e+005  -5.7407e+001   8.4894e+005    0.0000    0.0016    0.0000    0.0000    0.0141

               lamina:  3     
              matName:  (TEP-core)
                     s           e11           e22           e12           s11           s22           s12   s11_fcT   s11_fcC   s22_fcT   s22_fcC   s12_fcS
                   (m)         (m/m)         (m/m)         (rad)          (Pa)          (Pa)          (Pa)       (-)       (-)       (-)       (-)       (-)
                0.0000  -1.1460e-005   4.5805e-006   1.2129e-004  -2.8817e+003   3.2642e+002   2.4258e+003    0.0000    0.0000    0.0000   -0.0000    0.0000
                0.0083  -1.2298e-005   4.9153e-006   1.2128e-004  -3.0923e+003   3.5028e+002   2.4256e+003    0.0000    0.0000    0.0000   -0.0000    0.0000

               lamina:  4     
              matName:  (blade-root)
                     s           e11           e22           e12           s11           s22           s12   s11_fcT   s11_fcC   s22_fcT   s22_fcC   s12_fcS
                   (m)         (m/m)         (m/m)         (rad)          (Pa)          (Pa)          (Pa)       (-)       (-)       (-)       (-)       (-)
                0.0000  -1.1629e-005   4.6483e-006   1.2129e-004  -3.2565e+005  -5.3506e+001   8.4905e+005    0.0000    0.0015    0.0000    0.0000    0.0142
                0.0083  -1.2467e-005   4.9830e-006   1.2128e-004  -3.4910e+005  -5.7426e+001   8.4894e+005    0.0000    0.0016    0.0000    0.0000    0.0141

               lamina:  5     
              matName:  (blade-shell)
                     s           e11           e22           e12           s11           s22           s12   s11_fcT   s11_fcC   s22_fcT   s22_fcC   s12_fcS
                   (m)         (m/m)         (m/m)         (rad)          (Pa)          (Pa)          (Pa)       (-)       (-)       (-)       (-)       (-)
                0.0000  -1.1645e-005   4.6545e-006   1.2129e-004  -3.2608e+005  -5.3507e+001   8.4905e+005    0.0000    0.0015    0.0000    0.0000    0.0142
                0.0083  -1.2483e-005   4.9893e-006   1.2128e-004  -3.4954e+005  -5.7427e+001   8.4894e+005    0.0000    0.0016    0.0000    0.0000    0.0141

            panel:  4     
           lam_num    nPlies        tPly      fibAng     matID  matName
               (-)       (-)         (m)       (deg)       (-)  (-)
                 1         1    0.005000      0.0000         2  (blade-shell)
                 2         1    0.054104      0.0000         1  (blade-root)
                 3         1    0.019422      0.0000         6  (TEP-core)
                 4         1    0.054104      0.0000         1  (blade-root)
                 5         1    0.005000      0.0000         2  (blade-shell)

               lamina:  1     
              matName:  (blade-shell)
                     s           e11           e22           e12           s11           s22           s12   s11_fcT   s11_fcC   s22_fcT   s22_fcC   s12_fcS
                   (m)         (m/m)         (m/m)         (rad)          (Pa)          (Pa)          (Pa)       (-)       (-)       (-)       (-)       (-)
                0.0000  -1.2067e-005   4.8232e-006   1.1971e-004  -3.3791e+005  -5.7394e+001   8.3800e+005    0.0000    0.0016    0.0000    0.0000    0.0140
                0.1669  -2.9667e-005   1.1858e-005   1.1970e-004  -8.3074e+005  -1.3607e+002   8.3790e+005    0.0000    0.0039    0.0000    0.0000    0.0140
                0.5009  -6.4182e-005   2.5653e-005   1.1970e-004  -1.7972e+006  -2.9320e+002   8.3790e+005    0.0000    0.0084    0.0000    0.0000    0.0140
                0.8293  -9.8158e-005   3.9234e-005   1.1920e-004  -2.7486e+006  -4.4688e+002   8.3438e+005    0.0000    0.0129    0.0000    0.0000    0.0139
                1.1510  -1.3118e-004   5.2431e-005   1.1696e-004  -3.6732e+006  -5.9589e+002   8.1875e+005    0.0000    0.0172    0.0000    0.0000    0.0136
                1.4638  -1.6279e-004   6.5068e-005   1.1318e-004  -4.5585e+006  -7.3855e+002   7.9225e+005    0.0000    0.0214    0.0000    0.0000    0.0132
                1.7638  -1.9270e-004   7.7021e-005   1.0795e-004  -5.3959e+006  -8.7281e+002   7.5568e+005    0.0000    0.0253    0.0000    0.0000    0.0126
                2.0512  -2.2063e-004   8.8188e-005   1.0145e-004  -6.1782e+006  -9.9753e+002   7.1018e+005    0.0000    0.0290    0.0000    0.0000    0.0118
                2.3224  -2.4621e-004   9.8410e-005   9.3926e-005  -6.8943e+006  -1.1110e+003   6.5748e+005    0.0000    0.0324    0.0000    0.0000    0.0110
                2.5766  -2.6926e-004   1.0762e-004   8.5558e-005  -7.5397e+006  -1.2119e+003   5.9890e+005    0.0000    0.0354    0.0000    0.0000    0.0100
                2.8162  -2.8948e-004   1.1571e-004   7.6652e-005  -8.1059e+006  -1.2997e+003   5.3657e+005    0.0000    0.0381    0.0000    0.0000    0.0089
                3.0330  -3.0664e-004   1.2257e-004   6.7458e-005  -8.5866e+006  -1.3720e+003   4.7221e+005    0.0000    0.0403    0.0000    0.0000    0.0079
                3.2513  -3.2080e-004   1.2822e-004   5.8090e-005  -8.9829e+006  -1.4314e+003   4.0663e+005    0.0000    0.0422    0.0000    0.0000    0.0068
                3.4380  -3.3100e-004   1.3230e-004   4.9074e-005  -9.2687e+006  -1.4732e+003   3.4352e+005    0.0000    0.0435    0.0000    0.0000    0.0057
                3.6325  -3.3754e-004   1.3492e-004   3.9547e-005  -9.4518e+006  -1.5012e+003   2.7683e+005    0.0000    0.0444    0.0000    0.0000    0.0046

               lamina:  2     
              matName:  (blade-root)
                     s           e11           e22           e12           s11           s22           s12   s11_fcT   s11_fcC   s22_fcT   s22_fcC   s12_fcS
                   (m)         (m/m)         (m/m)         (rad)          (Pa)          (Pa)          (Pa)       (-)       (-)       (-)       (-)       (-)
                0.0000  -1.2237e-005   4.8909e-006   1.1971e-004  -3.4265e+005  -5.7407e+001   8.3800e+005    0.0000    0.0016    0.0000    0.0000    0.0140
                0.1669  -2.9624e-005   1.1840e-005   1.1970e-004  -8.2951e+005  -1.3607e+002   8.3790e+005    0.0000    0.0039    0.0000    0.0000    0.0140
                0.5009  -6.4068e-005   2.5608e-005   1.1970e-004  -1.7940e+006  -2.9319e+002   8.3790e+005    0.0000    0.0084    0.0000    0.0000    0.0140
                0.8293  -9.7961e-005   3.9155e-005   1.1920e-004  -2.7431e+006  -4.4687e+002   8.3438e+005    0.0000    0.0129    0.0000    0.0000    0.0139
                1.1510  -1.3089e-004   5.2318e-005   1.1696e-004  -3.6652e+006  -5.9587e+002   8.1875e+005    0.0000    0.0172    0.0000    0.0000    0.0136
                1.4638  -1.6242e-004   6.4921e-005   1.1318e-004  -4.5482e+006  -7.3852e+002   7.9225e+005    0.0000    0.0214    0.0000    0.0000    0.0132
                1.7638  -1.9224e-004   7.6838e-005   1.0795e-004  -5.3830e+006  -8.7277e+002   7.5568e+005    0.0000    0.0253    0.0000    0.0000    0.0126
                2.0512  -2.2008e-004   8.7967e-005   1.0145e-004  -6.1627e+006  -9.9749e+002   7.1018e+005    0.0000    0.0289    0.0000    0.0000    0.0118
                2.3224  -2.4556e-004   9.8149e-005   9.3926e-005  -6.8760e+006  -1.1110e+003   6.5748e+005    0.0000    0.0323    0.0000    0.0000    0.0110
                2.5766  -2.6850e-004   1.0732e-004   8.5558e-005  -7.5184e+006  -1.2118e+003   5.9890e+005    0.0000    0.0353    0.0000    0.0000    0.0100
                2.8162  -2.8861e-004   1.1536e-004   7.6652e-005  -8.0815e+006  -1.2996e+003   5.3657e+005    0.0000    0.0379    0.0000    0.0000    0.0089
                3.0330  -3.0565e-004   1.2217e-004   6.7458e-005  -8.5587e+006  -1.3719e+003   4.7221e+005    0.0000    0.0402    0.0000    0.0000    0.0079
                3.2513  -3.1969e-004   1.2778e-004   5.8090e-005  -8.9520e+006  -1.4313e+003   4.0663e+005    0.0000    0.0420    0.0000    0.0000    0.0068
                3.4380  -3.2980e-004   1.3182e-004   4.9074e-005  -9.2351e+006  -1.4731e+003   3.4352e+005    0.0000    0.0434    0.0000    0.0000    0.0057
                3.6325  -3.3630e-004   1.3442e-004   3.9547e-005  -9.4171e+006  -1.5011e+003   2.7683e+005    0.0000    0.0442    0.0000    0.0000    0.0046

               lamina:  3     
              matName:  (TEP-core)
                     s           e11           e22           e12           s11           s22           s12   s11_fcT   s11_fcC   s22_fcT   s22_fcC   s12_fcS
                   (m)         (m/m)         (m/m)         (rad)          (Pa)          (Pa)          (Pa)       (-)       (-)       (-)       (-)       (-)
                0.0000  -1.2298e-005   4.9153e-006   1.1971e-004  -3.0923e+003   3.5028e+002   2.3943e+003    0.0000    0.0000    0.0000   -0.0000    0.0000
                0.1669  -2.9150e-005   1.1651e-005   1.1970e-004  -7.3299e+003   8.3030e+002   2.3940e+003    0.0000    0.0000    0.0000   -0.0000    0.0000
                0.5009  -6.2843e-005   2.5118e-005   1.1970e-004  -1.5802e+004   1.7900e+003   2.3940e+003    0.0000    0.0000    0.0000   -0.0000    0.0000
                0.8293  -9.5826e-005   3.8301e-005   1.1920e-004  -2.4096e+004   2.7295e+003   2.3839e+003    0.0000    0.0000    0.0000   -0.0000    0.0000
                1.1510  -1.2781e-004   5.1087e-005   1.1696e-004  -3.2139e+004   3.6406e+003   2.3393e+003    0.0000    0.0000    0.0000   -0.0000    0.0000
                1.4638  -1.5844e-004   6.3328e-005   1.1318e-004  -3.9841e+004   4.5130e+003   2.2636e+003    0.0000    0.0000    0.0000   -0.0000    0.0000
                1.7638  -1.8728e-004   7.4855e-005   1.0795e-004  -4.7093e+004   5.3345e+003   2.1591e+003    0.0000    0.0000    0.0000   -0.0000    0.0000
                2.0512  -2.1409e-004   8.5572e-005   1.0145e-004  -5.3835e+004   6.0983e+003   2.0291e+003    0.0000    0.0000    0.0000   -0.0000    0.0000
                2.3224  -2.3851e-004   9.5331e-005   9.3926e-005  -5.9975e+004   6.7937e+003   1.8785e+003    0.0000    0.0000    0.0000   -0.0000    0.0000
                2.5766  -2.6026e-004   1.0402e-004   8.5558e-005  -6.5443e+004   7.4131e+003   1.7112e+003    0.0000    0.0000    0.0000   -0.0000    0.0000
                2.8162  -2.7920e-004   1.1159e-004   7.6652e-005  -7.0205e+004   7.9526e+003   1.5330e+003    0.0000    0.0000    0.0000   -0.0000    0.0000
                3.0330  -2.9486e-004   1.1786e-004   6.7458e-005  -7.4145e+004   8.3990e+003   1.3492e+003    0.0000    0.0000    0.0000   -0.0000    0.0000
                3.2513  -3.0774e-004   1.2300e-004   5.8090e-005  -7.7383e+004   8.7658e+003   1.1618e+003    0.0000    0.0000    0.0000   -0.0000    0.0000
                3.4380  -3.1683e-004   1.2664e-004   4.9074e-005  -7.9669e+004   9.0248e+003   9.8149e+002    0.0000    0.0000    0.0000   -0.0000    0.0000
                3.6325  -3.2289e-004   1.2906e-004   3.9547e-005  -8.1192e+004   9.1973e+003   7.9094e+002    0.0000    0.0000    0.0000   -0.0000    0.0000

               lamina:  4     
              matName:  (blade-root)
                     s           e11           e22           e12           s11           s22           s12   s11_fcT   s11_fcC   s22_fcT   s22_fcC   s12_fcS
                   (m)         (m/m)         (m/m)         (rad)          (Pa)          (Pa)          (Pa)       (-)       (-)       (-)       (-)       (-)
                0.0000  -1.2467e-005   4.9830e-006   1.1971e-004  -3.4910e+005  -5.7426e+001   8.3800e+005    0.0000    0.0016    0.0000    0.0000    0.0140
                0.1669  -2.8980e-005   1.1583e-005   1.1970e-004  -8.1149e+005  -1.3602e+002   8.3790e+005    0.0000    0.0038    0.0000    0.0000    0.0140
                0.5009  -6.2403e-005   2.4942e-005   1.1970e-004  -1.7474e+006  -2.9306e+002   8.3790e+005    0.0000    0.0082    0.0000    0.0000    0.0140
                0.8293  -9.5060e-005   3.7994e-005   1.1920e-004  -2.6618e+006  -4.4664e+002   8.3438e+005    0.0000    0.0125    0.0000    0.0000    0.0139
                1.1510  -1.2671e-004   5.0645e-005   1.1696e-004  -3.5481e+006  -5.9553e+002   8.1875e+005    0.0000    0.0167    0.0000    0.0000    0.0136
                1.4638  -1.5701e-004   6.2756e-005   1.1318e-004  -4.3966e+006  -7.3809e+002   7.9225e+005    0.0000    0.0206    0.0000    0.0000    0.0132
                1.7638  -1.8550e-004   7.4143e-005   1.0795e-004  -5.1944e+006  -8.7223e+002   7.5568e+005    0.0000    0.0244    0.0000    0.0000    0.0126
                2.0512  -2.1194e-004   8.4712e-005   1.0145e-004  -5.9349e+006  -9.9683e+002   7.1018e+005    0.0000    0.0279    0.0000    0.0000    0.0118
                2.3224  -2.3598e-004   9.4320e-005   9.3926e-005  -6.6079e+006  -1.1102e+003   6.5748e+005    0.0000    0.0310    0.0000    0.0000    0.0110
                2.5766  -2.5730e-004   1.0284e-004   8.5558e-005  -7.2048e+006  -1.2109e+003   5.9890e+005    0.0000    0.0338    0.0000    0.0000    0.0100
                2.8162  -2.7582e-004   1.1024e-004   7.6652e-005  -7.7234e+006  -1.2986e+003   5.3657e+005    0.0000    0.0363    0.0000    0.0000    0.0089
                3.0330  -2.9099e-004   1.1631e-004   6.7458e-005  -8.1484e+006  -1.3707e+003   4.7221e+005    0.0000    0.0383    0.0000    0.0000    0.0079
                3.2513  -3.0345e-004   1.2129e-004   5.8090e-005  -8.4972e+006  -1.4300e+003   4.0663e+005    0.0000    0.0399    0.0000    0.0000    0.0068
                3.4380  -3.1218e-004   1.2477e-004   4.9074e-005  -8.7416e+006  -1.4717e+003   3.4352e+005    0.0000    0.0410    0.0000    0.0000    0.0057
                3.6325  -3.1808e-004   1.2713e-004   3.9547e-005  -8.9067e+006  -1.4996e+003   2.7683e+005    0.0000    0.0418    0.0000    0.0000    0.0046

               lamina:  5     
              matName:  (blade-shell)
                     s           e11           e22           e12           s11           s22           s12   s11_fcT   s11_fcC   s22_fcT   s22_fcC   s12_fcS
                   (m)         (m/m)         (m/m)         (rad)          (Pa)          (Pa)          (Pa)       (-)       (-)       (-)       (-)       (-)
                0.0000  -1.2483e-005   4.9893e-006   1.1971e-004  -3.4954e+005  -5.7427e+001   8.3800e+005    0.0000    0.0016    0.0000    0.0000    0.0140
                0.1669  -2.8506e-005   1.1394e-005   1.1970e-004  -7.9823e+005  -1.3598e+002   8.3790e+005    0.0000    0.0037    0.0000    0.0000    0.0140
                0.5009  -6.1178e-005   2.4452e-005   1.1970e-004  -1.7131e+006  -2.9296e+002   8.3790e+005    0.0000    0.0080    0.0000    0.0000    0.0140
                0.8293  -9.2925e-005   3.7141e-005   1.1920e-004  -2.6021e+006  -4.4646e+002   8.3438e+005    0.0000    0.0122    0.0000    0.0000    0.0139
                1.1510  -1.2363e-004   4.9413e-005   1.1696e-004  -3.4619e+006  -5.9528e+002   8.1875e+005    0.0000    0.0163    0.0000    0.0000    0.0136
                1.4638  -1.5303e-004   6.1162e-005   1.1318e-004  -4.2851e+006  -7.3777e+002   7.9225e+005    0.0000    0.0201    0.0000    0.0000    0.0132
                1.7638  -1.8054e-004   7.2160e-005   1.0795e-004  -5.0556e+006  -8.7183e+002   7.5568e+005    0.0000    0.0237    0.0000    0.0000    0.0126
                2.0512  -2.0596e-004   8.2318e-005   1.0145e-004  -5.7672e+006  -9.9635e+002   7.1018e+005    0.0000    0.0271    0.0000    0.0000    0.0118
                2.3224  -2.2894e-004   9.1501e-005   9.3926e-005  -6.4107e+006  -1.1096e+003   6.5748e+005    0.0000    0.0301    0.0000    0.0000    0.0110
                2.5766  -2.4906e-004   9.9544e-005   8.5558e-005  -6.9741e+006  -1.2103e+003   5.9890e+005    0.0000    0.0327    0.0000    0.0000    0.0100
                2.8162  -2.6640e-004   1.0648e-004   7.6652e-005  -7.4598e+006  -1.2978e+003   5.3657e+005    0.0000    0.0350    0.0000    0.0000    0.0089
                3.0330  -2.8021e-004   1.1199e-004   6.7458e-005  -7.8465e+006  -1.3699e+003   4.7221e+005    0.0000    0.0368    0.0000    0.0000    0.0079
                3.2513  -2.9150e-004   1.1651e-004   5.8090e-005  -8.1626e+006  -1.4290e+003   4.0663e+005    0.0000    0.0383    0.0000    0.0000    0.0068
                3.4380  -2.9921e-004   1.1959e-004   4.9074e-005  -8.3784e+006  -1.4706e+003   3.4352e+005    0.0000    0.0393    0.0000    0.0000    0.0057
                3.6325  -3.0466e-004   1.2177e-004   3.9547e-005  -8.5312e+006  -1.4986e+003   2.7683e+005    0.0000    0.0401    0.0000    0.0000    0.0046

  Bottom:  panel  nNode   nLam     xc_St    xc_End         b         t         E_eff         G_eff      nu_eff     density  buckleCrit
            (-)    (-)    (-)       (-)       (-)       (m)       (m)          (Pa)          (Pa)         (-)    (kg/m^3)         (-)
              1     13      5    0.0000    0.3452    3.4030    0.1376   2.4086e+010   6.0150e+009      0.3997   1617.1566      0.0000
              2      7      7    0.3452    0.5768    1.4819    0.1622   3.1840e+010   5.9145e+009      0.3688   1868.9885      0.0005
              3      2      5    0.5768    0.5781    0.0085    0.1376   2.4086e+010   6.0150e+009      0.3997   1617.1566      0.0000
              4     15      5    0.5781    1.0000    3.5736    0.1376   2.4086e+010   6.0150e+009      0.3997   1617.1566      0.0087

            panel:  1     
           lam_num    nPlies        tPly      fibAng     matID  matName
               (-)       (-)         (m)       (deg)       (-)  (-)
                 1         1    0.005000      0.0000         2  (blade-shell)
                 2         1    0.054104      0.0000         1  (blade-root)
                 3         1    0.019422      0.0000         5  (LEP-core)
                 4         1    0.054104      0.0000         1  (blade-root)
                 5         1    0.005000      0.0000         2  (blade-shell)

               lamina:  1     
              matName:  (blade-shell)
                     s           e11           e22           e12           s11           s22           s12   s11_fcT   s11_fcC   s22_fcT   s22_fcC   s12_fcS
                   (m)         (m/m)         (m/m)         (rad)          (Pa)          (Pa)          (Pa)       (-)       (-)       (-)       (-)       (-)
                0.0000   3.1327e-004  -1.2522e-004   1.9998e-005   8.7720e+006   1.3872e+003   1.3999e+005    0.0609   -0.0000    0.0000   -0.0000    0.0023
                0.2482   3.0569e-004  -1.2219e-004   3.0584e-005   8.5597e+006   1.3534e+003   2.1409e+005    0.0594   -0.0000    0.0000   -0.0000    0.0036
                0.5154   2.9392e-004  -1.1748e-004   4.1629e-005   8.2302e+006   1.3025e+003   2.9141e+005    0.0572   -0.0000    0.0000   -0.0000    0.0049
                0.7776   2.7890e-004  -1.1148e-004   5.1995e-005   7.8098e+006   1.2378e+003   3.6397e+005    0.0542   -0.0000    0.0000   -0.0000    0.0061
                1.0466   2.6070e-004  -1.0420e-004   6.2026e-005   7.3000e+006   1.1587e+003   4.3419e+005    0.0507   -0.0000    0.0000   -0.0000    0.0072
                1.3239   2.3944e-004  -9.5705e-005   7.1631e-005   6.7047e+006   1.0660e+003   5.0142e+005    0.0466   -0.0000    0.0000   -0.0000    0.0084
                1.6060   2.1544e-004  -8.6113e-005   8.0532e-005   6.0327e+006   9.6127e+002   5.6372e+005    0.0419   -0.0000    0.0000   -0.0000    0.0094
                1.8936   1.8905e-004  -7.5564e-005   8.8619e-005   5.2937e+006   8.4557e+002   6.2034e+005    0.0368   -0.0000    0.0000   -0.0000    0.0103
                2.1879   1.6043e-004  -6.4123e-005   9.5793e-005   4.4922e+006   7.2016e+002   6.7055e+005    0.0312   -0.0000    0.0000   -0.0000    0.0112
                2.4847   1.3005e-004  -5.1980e-005   1.0183e-004   3.6415e+006   5.8729e+002   7.1282e+005    0.0253   -0.0000    0.0000   -0.0000    0.0119
                2.7861   9.8232e-005  -3.9263e-005   1.0669e-004   2.7507e+006   4.4810e+002   7.4684e+005    0.0191   -0.0000    0.0000   -0.0000    0.0124
                3.0909   6.5374e-005  -2.6130e-005   1.1026e-004   1.8306e+006   3.0481e+002   7.7185e+005    0.0127   -0.0000    0.0000   -0.0000    0.0129
                3.4030   3.2913e-005  -1.3155e-005   1.1251e-004   9.2163e+005   1.5792e+002   7.8760e+005    0.0064   -0.0000    0.0000   -0.0000    0.0131

               lamina:  2     
              matName:  (blade-root)
                     s           e11           e22           e12           s11           s22           s12   s11_fcT   s11_fcC   s22_fcT   s22_fcC   s12_fcS
                   (m)         (m/m)         (m/m)         (rad)          (Pa)          (Pa)          (Pa)       (-)       (-)       (-)       (-)       (-)
                0.0000   3.1202e-004  -1.2472e-004   1.9998e-005   8.7371e+006   1.3871e+003   1.3999e+005    0.0607   -0.0000    0.0000   -0.0000    0.0023
                0.2482   3.0447e-004  -1.2170e-004   3.0584e-005   8.5256e+006   1.3533e+003   2.1409e+005    0.0592   -0.0000    0.0000   -0.0000    0.0036
                0.5154   2.9276e-004  -1.1702e-004   4.1629e-005   8.1979e+006   1.3024e+003   2.9141e+005    0.0569   -0.0000    0.0000   -0.0000    0.0049
                0.7776   2.7784e-004  -1.1105e-004   5.1995e-005   7.7799e+006   1.2377e+003   3.6397e+005    0.0540   -0.0000    0.0000   -0.0000    0.0061
                1.0466   2.5973e-004  -1.0382e-004   6.2026e-005   7.2729e+006   1.1586e+003   4.3419e+005    0.0505   -0.0000    0.0000   -0.0000    0.0072
                1.3239   2.3858e-004  -9.5360e-005   7.1631e-005   6.6806e+006   1.0659e+003   5.0142e+005    0.0464   -0.0000    0.0000   -0.0000    0.0084
                1.6060   2.1470e-004  -8.5816e-005   8.0532e-005   6.0119e+006   9.6121e+002   5.6372e+005    0.0417   -0.0000    0.0000   -0.0000    0.0094
                1.8936   1.8843e-004  -7.5317e-005   8.8619e-005   5.2764e+006   8.4552e+002   6.2034e+005    0.0366   -0.0000    0.0000   -0.0000    0.0103
                2.1879   1.5994e-004  -6.3930e-005   9.5793e-005   4.4787e+006   7.2012e+002   6.7055e+005    0.0311   -0.0000    0.0000   -0.0000    0.0112
                2.4847   1.2971e-004  -5.1845e-005   1.0183e-004   3.6321e+006   5.8727e+002   7.1282e+005    0.0252   -0.0000    0.0000   -0.0000    0.0119
                2.7861   9.8048e-005  -3.9190e-005   1.0669e-004   2.7455e+006   4.4809e+002   7.4684e+005    0.0191   -0.0000    0.0000   -0.0000    0.0124
                3.0909   6.5356e-005  -2.6122e-005   1.1026e-004   1.8301e+006   3.0481e+002   7.7185e+005    0.0127   -0.0000    0.0000   -0.0000    0.0129
                3.4030   3.3629e-005  -1.3441e-005   1.1251e-004   9.4168e+005   1.5797e+002   7.8760e+005    0.0065   -0.0000    0.0000   -0.0000    0.0131

               lamina:  3     
              matName:  (LEP-core)
                     s           e11           e22           e12           s11           s22           s12   s11_fcT   s11_fcC   s22_fcT   s22_fcC   s12_fcS
                   (m)         (m/m)         (m/m)         (rad)          (Pa)          (Pa)          (Pa)       (-)       (-)       (-)       (-)       (-)
                0.0000   2.9853e-004  -1.1932e-004   1.9998e-005   7.5067e+004  -8.5034e+003   3.9997e+002    0.0000   -0.0000    0.0000    0.0000    0.0000
                0.2482   2.9126e-004  -1.1642e-004   3.0584e-005   7.3240e+004  -8.2964e+003   6.1168e+002    0.0000   -0.0000    0.0000    0.0000    0.0000
                0.5154   2.8028e-004  -1.1203e-004   4.1629e-005   7.0478e+004  -7.9836e+003   8.3259e+002    0.0000   -0.0000    0.0000    0.0000    0.0000
                0.7776   2.6631e-004  -1.0644e-004   5.1995e-005   6.6964e+004  -7.5856e+003   1.0399e+003    0.0000   -0.0000    0.0000    0.0000    0.0000
                1.0466   2.4924e-004  -9.9620e-005   6.2026e-005   6.2673e+004  -7.0994e+003   1.2405e+003    0.0000   -0.0000    0.0000    0.0000    0.0000
                1.3239   2.2925e-004  -9.1629e-005   7.1631e-005   5.7646e+004  -6.5300e+003   1.4326e+003    0.0000   -0.0000    0.0000    0.0000    0.0000
                1.6060   2.0667e-004  -8.2604e-005   8.0532e-005   5.1968e+004  -5.8868e+003   1.6106e+003    0.0000   -0.0000    0.0000    0.0000    0.0000
                1.8936   1.8174e-004  -7.2639e-005   8.8619e-005   4.5698e+004  -5.1766e+003   1.7724e+003    0.0000   -0.0000    0.0000    0.0000    0.0000
                2.1879   1.5471e-004  -6.1836e-005   9.5793e-005   3.8902e+004  -4.4067e+003   1.9159e+003    0.0000   -0.0000    0.0000    0.0000    0.0000
                2.4847   1.2607e-004  -5.0388e-005   1.0183e-004   3.1700e+004  -3.5909e+003   2.0366e+003    0.0000   -0.0000    0.0000    0.0000    0.0000
                2.7861   9.6062e-005  -3.8395e-005   1.0669e-004   2.4155e+004  -2.7362e+003   2.1338e+003    0.0000   -0.0000    0.0000    0.0000    0.0000
                3.0909   6.5163e-005  -2.6045e-005   1.1026e-004   1.6385e+004  -1.8561e+003   2.2053e+003    0.0000   -0.0000    0.0000    0.0000    0.0000
                3.4030   3.3886e-005  -1.3544e-005   1.1251e-004   8.5209e+003  -9.6521e+002   2.2503e+003    0.0000   -0.0000    0.0000    0.0000    0.0000

               lamina:  4     
              matName:  (blade-root)
                     s           e11           e22           e12           s11           s22           s12   s11_fcT   s11_fcC   s22_fcT   s22_fcC   s12_fcS
                   (m)         (m/m)         (m/m)         (rad)          (Pa)          (Pa)          (Pa)       (-)       (-)       (-)       (-)       (-)
                0.0000   2.9369e-004  -1.1738e-004   1.9998e-005   8.2238e+006   1.3856e+003   1.3999e+005    0.0571   -0.0000    0.0000   -0.0000    0.0023
                0.2482   2.8653e-004  -1.1452e-004   3.0584e-005   8.0232e+006   1.3518e+003   2.1409e+005    0.0557   -0.0000    0.0000   -0.0000    0.0036
                0.5154   2.7580e-004  -1.1023e-004   4.1629e-005   7.7229e+006   1.3010e+003   2.9141e+005    0.0536   -0.0000    0.0000   -0.0000    0.0049
                0.7776   2.6217e-004  -1.0479e-004   5.1995e-005   7.3412e+006   1.2364e+003   3.6397e+005    0.0510   -0.0000    0.0000   -0.0000    0.0061
                1.0466   2.4548e-004  -9.8114e-005   6.2026e-005   6.8738e+006   1.1575e+003   4.3419e+005    0.0477   -0.0000    0.0000   -0.0000    0.0072
                1.3239   2.2590e-004  -9.0290e-005   7.1631e-005   6.3256e+006   1.0649e+003   5.0142e+005    0.0439   -0.0000    0.0000   -0.0000    0.0084
                1.6060   2.0379e-004  -8.1451e-005   8.0532e-005   5.7064e+006   9.6034e+002   5.6372e+005    0.0396   -0.0000    0.0000   -0.0000    0.0094
                1.8936   1.7933e-004  -7.1677e-005   8.8619e-005   5.0216e+006   8.4479e+002   6.2034e+005    0.0349   -0.0000    0.0000   -0.0000    0.0103
                2.1879   1.5283e-004  -6.1084e-005   9.5793e-005   4.2795e+006   7.1955e+002   6.7055e+005    0.0297   -0.0000    0.0000   -0.0000    0.0112
                2.4847   1.2476e-004  -4.9865e-005   1.0183e-004   3.4935e+006   5.8687e+002   7.1282e+005    0.0243   -0.0000    0.0000   -0.0000    0.0119
                2.7861   9.5349e-005  -3.8110e-005   1.0669e-004   2.6700e+006   4.4787e+002   7.4684e+005    0.0185   -0.0000    0.0000   -0.0000    0.0124
                3.0909   6.5093e-005  -2.6017e-005   1.1026e-004   1.8227e+006   3.0479e+002   7.7185e+005    0.0127   -0.0000    0.0000   -0.0000    0.0129
                3.4030   3.4602e-005  -1.3831e-005   1.1251e-004   9.6893e+005   1.5805e+002   7.8760e+005    0.0067   -0.0000    0.0000   -0.0000    0.0131

               lamina:  5     
              matName:  (blade-shell)
                     s           e11           e22           e12           s11           s22           s12   s11_fcT   s11_fcC   s22_fcT   s22_fcC   s12_fcS
                   (m)         (m/m)         (m/m)         (rad)          (Pa)          (Pa)          (Pa)       (-)       (-)       (-)       (-)       (-)
                0.0000   2.8020e-004  -1.1199e-004   1.9998e-005   7.8462e+006   1.3845e+003   1.3999e+005    0.0545   -0.0000    0.0000   -0.0000    0.0023
                0.2482   2.7332e-004  -1.0924e-004   3.0584e-005   7.6536e+006   1.3508e+003   2.1409e+005    0.0531   -0.0000    0.0000   -0.0000    0.0036
                0.5154   2.6332e-004  -1.0524e-004   4.1629e-005   7.3734e+006   1.3000e+003   2.9141e+005    0.0512   -0.0000    0.0000   -0.0000    0.0049
                0.7776   2.5064e-004  -1.0017e-004   5.1995e-005   7.0184e+006   1.2355e+003   3.6397e+005    0.0487   -0.0000    0.0000   -0.0000    0.0061
                1.0466   2.3499e-004  -9.3919e-005   6.2026e-005   6.5801e+006   1.1566e+003   4.3419e+005    0.0457   -0.0000    0.0000   -0.0000    0.0072
                1.3239   2.1657e-004  -8.6559e-005   7.1631e-005   6.0645e+006   1.0641e+003   5.0142e+005    0.0421   -0.0000    0.0000   -0.0000    0.0084
                1.6060   1.9576e-004  -7.8240e-005   8.0532e-005   5.4816e+006   9.5969e+002   5.6372e+005    0.0381   -0.0000    0.0000   -0.0000    0.0094
                1.8936   1.7264e-004  -6.8999e-005   8.8619e-005   4.8342e+006   8.4425e+002   6.2034e+005    0.0336   -0.0000    0.0000   -0.0000    0.0103
                2.1879   1.4759e-004  -5.8990e-005   9.5793e-005   4.1329e+006   7.1913e+002   6.7055e+005    0.0287   -0.0000    0.0000   -0.0000    0.0112
                2.4847   1.2112e-004  -4.8408e-005   1.0183e-004   3.3915e+006   5.8658e+002   7.1282e+005    0.0236   -0.0000    0.0000   -0.0000    0.0119
                2.7861   9.3364e-005  -3.7316e-005   1.0669e-004   2.6144e+006   4.4771e+002   7.4684e+005    0.0182   -0.0000    0.0000   -0.0000    0.0124
                3.0909   6.4900e-005  -2.5940e-005   1.1026e-004   1.8173e+006   3.0478e+002   7.7185e+005    0.0126   -0.0000    0.0000   -0.0000    0.0129
                3.4030   3.4669e-005  -1.3857e-005   1.1251e-004   9.7078e+005   1.5806e+002   7.8760e+005    0.0067   -0.0000    0.0000   -0.0000    0.0131

            panel:  2     
           lam_num    nPlies        tPly      fibAng     matID  matName
               (-)       (-)         (m)       (deg)       (-)  (-)
                 1         1    0.005000      0.0000         2  (blade-shell)
                 2         1    0.054104      0.0000         1  (blade-root)
                 3         1    0.022012      0.0000         3  (spar-uni)
                 4         1    0.000001      0.0000         4  (spar-core)
                 5         1    0.022012      0.0000         3  (spar-uni)
                 6         1    0.054104      0.0000         1  (blade-root)
                 7         1    0.005000      0.0000         2  (blade-shell)

               lamina:  1     
              matName:  (blade-shell)
                     s           e11           e22           e12           s11           s22           s12   s11_fcT   s11_fcC   s22_fcT   s22_fcC   s12_fcS
                   (m)         (m/m)         (m/m)         (rad)          (Pa)          (Pa)          (Pa)       (-)       (-)       (-)       (-)       (-)
                0.0000   3.2506e-005  -1.1949e-005   9.8449e-005   9.1658e+005   1.6028e+004   6.8915e+005    0.0064   -0.0000    0.0000   -0.0000    0.0115
                0.0071   3.0387e-005  -1.1086e-005   9.8497e-005   8.5735e+005   1.6269e+004   6.8948e+005    0.0060   -0.0000    0.0000   -0.0000    0.0115
                0.3279  -3.1866e-006   1.3447e-006   9.9666e-005  -8.8799e+004   1.0779e+003   6.9766e+005    0.0000    0.0004    0.0000   -0.0000    0.0116
                0.6518  -3.7318e-005   1.4009e-005   9.8836e-005  -1.0505e+006  -1.3978e+004   6.9185e+005    0.0000    0.0049    0.0000    0.0000    0.0115
                0.9835  -7.0757e-005   2.6405e-005   9.5948e-005  -1.9928e+006  -2.8887e+004   6.7164e+005    0.0000    0.0094    0.0000    0.0000    0.0112
                1.3218  -1.0312e-004   3.8384e-005   9.0945e-005  -2.9048e+006  -4.3592e+004   6.3661e+005    0.0000    0.0136    0.0000    0.0000    0.0106
                1.4819  -1.1837e-004   4.4043e-005   8.7873e-005  -3.3346e+006  -5.0309e+004   6.1511e+005    0.0000    0.0157    0.0000    0.0000    0.0103

               lamina:  2     
              matName:  (blade-root)
                     s           e11           e22           e12           s11           s22           s12   s11_fcT   s11_fcC   s22_fcT   s22_fcC   s12_fcS
                   (m)         (m/m)         (m/m)         (rad)          (Pa)          (Pa)          (Pa)       (-)       (-)       (-)       (-)       (-)
                0.0000   3.3440e-005  -1.2321e-005   9.8449e-005   9.4276e+005   1.6060e+004   6.8915e+005    0.0065   -0.0000    0.0000   -0.0000    0.0115
                0.0071   3.3334e-005  -1.2258e-005   9.8497e-005   9.3991e+005   1.6371e+004   6.8948e+005    0.0065   -0.0000    0.0000   -0.0000    0.0115
                0.3279  -2.8258e-006   1.2012e-006   9.9666e-005  -7.8691e+004   1.2126e+003   6.9766e+005    0.0000    0.0004    0.0000   -0.0000    0.0116
                0.6518  -3.6792e-005   1.3800e-005   9.8836e-005  -1.0358e+006  -1.3959e+004   6.9185e+005    0.0000    0.0049    0.0000    0.0000    0.0115
                0.9835  -7.0094e-005   2.6141e-005   9.5948e-005  -1.9742e+006  -2.8864e+004   6.7164e+005    0.0000    0.0093    0.0000    0.0000    0.0112
                1.3218  -1.0236e-004   3.8083e-005   9.0945e-005  -2.8836e+006  -4.3566e+004   6.3661e+005    0.0000    0.0135    0.0000    0.0000    0.0106
                1.4819  -1.1754e-004   4.3713e-005   8.7873e-005  -3.3113e+006  -5.0281e+004   6.1511e+005    0.0000    0.0155    0.0000    0.0000    0.0103

               lamina:  3     
              matName:  (spar-uni)
                     s           e11           e22           e12           s11           s22           s12   s11_fcT   s11_fcC   s22_fcT   s22_fcC   s12_fcS
                   (m)         (m/m)         (m/m)         (rad)          (Pa)          (Pa)          (Pa)       (-)       (-)       (-)       (-)       (-)
                0.0000   3.3821e-005  -1.2472e-005   9.8449e-005   1.4084e+006  -4.3159e+004   2.9535e+005    0.0014   -0.0000    0.0000    0.0000    0.0098
                0.0071   3.4534e-005  -1.2735e-005   9.8497e-005   1.4381e+006  -4.4069e+004   2.9549e+005    0.0015   -0.0000    0.0000    0.0000    0.0098
                0.3279   2.6669e-006  -9.8346e-007   9.9666e-005   1.1106e+005  -3.4032e+003   2.9900e+005    0.0001   -0.0000    0.0000    0.0000    0.0100
                0.6518  -3.1105e-005   1.1538e-005   9.8836e-005  -1.2950e+006   4.0657e+004   2.9651e+005    0.0000    0.0018    0.0000   -0.0000    0.0099
                0.9835  -6.2921e-005   2.3288e-005   9.5948e-005  -2.6198e+006   8.1509e+004   2.8784e+005    0.0000    0.0037    0.0000   -0.0000    0.0096
                1.3218  -9.4167e-005   3.4823e-005   9.0945e-005  -3.9210e+006   1.2156e+005   2.7283e+005    0.0000    0.0056    0.0000   -0.0000    0.0091
                1.4819  -1.0854e-004   4.0132e-005   8.7873e-005  -4.5195e+006   1.4003e+005   2.6362e+005    0.0000    0.0064    0.0000   -0.0000    0.0088

               lamina:  4     
              matName:  (spar-core)
                     s           e11           e22           e12           s11           s22           s12   s11_fcT   s11_fcC   s22_fcT   s22_fcC   s12_fcS
                   (m)         (m/m)         (m/m)         (rad)          (Pa)          (Pa)          (Pa)       (-)       (-)       (-)       (-)       (-)
                0.0000   3.3821e-005  -1.2472e-005   9.8449e-005   8.5940e+003  -6.6452e+002   1.9690e+003    0.0000   -0.0000    0.0000    0.0000    0.0000
                0.0071   3.4534e-005  -1.2735e-005   9.8497e-005   8.7752e+003  -6.7853e+002   1.9699e+003    0.0000   -0.0000    0.0000    0.0000    0.0000
                0.3279   2.6669e-006  -9.8348e-007   9.9666e-005   6.7768e+002  -5.2401e+001   1.9933e+003    0.0000   -0.0000    0.0000    0.0000    0.0000
                0.6518  -2.8792e-005   1.0618e-005   9.8836e-005  -7.3161e+003   5.6571e+002   1.9767e+003    0.0000    0.0000    0.0000   -0.0000    0.0000
                0.9835  -6.0002e-005   2.2127e-005   9.5948e-005  -1.5247e+004   1.1789e+003   1.9190e+003    0.0000    0.0000    0.0000   -0.0000    0.0000
                1.3218  -9.0832e-005   3.3496e-005   9.0945e-005  -2.3081e+004   1.7847e+003   1.8189e+003    0.0000    0.0000    0.0000   -0.0000    0.0000
                1.4819  -1.0488e-004   3.8676e-005   8.7873e-005  -2.6650e+004   2.0607e+003   1.7575e+003    0.0000    0.0000    0.0000   -0.0000    0.0000

               lamina:  5     
              matName:  (spar-uni)
                     s           e11           e22           e12           s11           s22           s12   s11_fcT   s11_fcC   s22_fcT   s22_fcC   s12_fcS
                   (m)         (m/m)         (m/m)         (rad)          (Pa)          (Pa)          (Pa)       (-)       (-)       (-)       (-)       (-)
                0.0000   3.4201e-005  -1.2623e-005   9.8449e-005   1.4242e+006  -4.3803e+004   2.9535e+005    0.0015   -0.0000    0.0000    0.0000    0.0098
                0.0071   3.5733e-005  -1.3212e-005   9.8497e-005   1.4879e+006  -4.6098e+004   2.9549e+005    0.0015   -0.0000    0.0000    0.0000    0.0098
                0.3279   4.2553e-006  -1.6152e-006   9.9666e-005   1.7702e+005  -6.0917e+003   2.9900e+005    0.0002   -0.0000    0.0000    0.0000    0.0100
                0.6518  -2.8792e-005   1.0617e-005   9.8836e-005  -1.1990e+006   3.6742e+004   2.9651e+005    0.0000    0.0017    0.0000   -0.0000    0.0099
                0.9835  -6.0002e-005   2.2127e-005   9.5948e-005  -2.4986e+006   7.6570e+004   2.8784e+005    0.0000    0.0036    0.0000   -0.0000    0.0096
                1.3218  -9.0832e-005   3.3496e-005   9.0945e-005  -3.7825e+006   1.1591e+005   2.7283e+005    0.0000    0.0054    0.0000   -0.0000    0.0091
                1.4819  -1.0488e-004   3.8676e-005   8.7873e-005  -4.3674e+006   1.3384e+005   2.6362e+005    0.0000    0.0062    0.0000   -0.0000    0.0088

               lamina:  6     
              matName:  (blade-root)
                     s           e11           e22           e12           s11           s22           s12   s11_fcT   s11_fcC   s22_fcT   s22_fcC   s12_fcS
                   (m)         (m/m)         (m/m)         (rad)          (Pa)          (Pa)          (Pa)       (-)       (-)       (-)       (-)       (-)
                0.0000   3.5135e-005  -1.2995e-005   9.8449e-005   9.9024e+005   1.6119e+004   6.8915e+005    0.0069   -0.0000    0.0000   -0.0000    0.0115
                0.0071   3.8680e-005  -1.4384e-005   9.8497e-005   1.0897e+006   1.6555e+004   6.8948e+005    0.0076   -0.0000    0.0000   -0.0000    0.0115
                0.3279   8.1596e-006  -3.1681e-006   9.9666e-005   2.2905e+005   1.4570e+003   6.9766e+005    0.0016   -0.0000    0.0000   -0.0000    0.0116
                0.6518  -2.6478e-005   9.6973e-006   9.8836e-005  -7.4683e+005  -1.3603e+004   6.9185e+005    0.0000    0.0035    0.0000    0.0000    0.0115
                0.9835  -5.7084e-005   2.0966e-005   9.5948e-005  -1.6097e+006  -2.8415e+004   6.7164e+005    0.0000    0.0076    0.0000    0.0000    0.0112
                1.3218  -8.7498e-005   3.2170e-005   9.0945e-005  -2.4672e+006  -4.3053e+004   6.3661e+005    0.0000    0.0116    0.0000    0.0000    0.0106
                1.4819  -1.0122e-004   3.7219e-005   8.7873e-005  -2.8539e+006  -4.9717e+004   6.1511e+005    0.0000    0.0134    0.0000    0.0000    0.0103

               lamina:  7     
              matName:  (blade-shell)
                     s           e11           e22           e12           s11           s22           s12   s11_fcT   s11_fcC   s22_fcT   s22_fcC   s12_fcS
                   (m)         (m/m)         (m/m)         (rad)          (Pa)          (Pa)          (Pa)       (-)       (-)       (-)       (-)       (-)
                0.0000   3.5222e-005  -1.3029e-005   9.8449e-005   9.9266e+005   1.6122e+004   6.8915e+005    0.0069   -0.0000    0.0000   -0.0000    0.0115
                0.0071   3.8952e-005  -1.4492e-005   9.8497e-005   1.0973e+006   1.6565e+004   6.8948e+005    0.0076   -0.0000    0.0000   -0.0000    0.0115
                0.3279   8.5204e-006  -3.3116e-006   9.9666e-005   2.3916e+005   1.4695e+003   6.9766e+005    0.0017   -0.0000    0.0000   -0.0000    0.0116
                0.6518  -2.0791e-005   7.4355e-006   9.8836e-005  -5.8752e+005  -1.3407e+004   6.9185e+005    0.0000    0.0028    0.0000    0.0000    0.0115
                0.9835  -4.9910e-005   1.8113e-005   9.5948e-005  -1.4088e+006  -2.8168e+004   6.7164e+005    0.0000    0.0066    0.0000    0.0000    0.0112
                1.3218  -7.9301e-005   2.8910e-005   9.0945e-005  -2.2375e+006  -4.2770e+004   6.3661e+005    0.0000    0.0105    0.0000    0.0000    0.0106
                1.4819  -9.2215e-005   3.3639e-005   8.7873e-005  -2.6018e+006  -4.9407e+004   6.1511e+005    0.0000    0.0122    0.0000    0.0000    0.0103

            panel:  3     
           lam_num    nPlies        tPly      fibAng     matID  matName
               (-)       (-)         (m)       (deg)       (-)  (-)
                 1         1    0.005000      0.0000         2  (blade-shell)
                 2         1    0.054104      0.0000         1  (blade-root)
                 3         1    0.019422      0.0000         6  (TEP-core)
                 4         1    0.054104      0.0000         1  (blade-root)
                 5         1    0.005000      0.0000         2  (blade-shell)

               lamina:  1     
              matName:  (blade-shell)
                     s           e11           e22           e12           s11           s22           s12   s11_fcT   s11_fcC   s22_fcT   s22_fcC   s12_fcS
                   (m)         (m/m)         (m/m)         (rad)          (Pa)          (Pa)          (Pa)       (-)       (-)       (-)       (-)       (-)
                0.0000  -1.1426e-004   4.5670e-005   1.0185e-004  -3.1994e+006  -4.9437e+002   7.1296e+005    0.0000    0.0150    0.0000    0.0000    0.0119
                0.0085  -1.1500e-004   4.5968e-005   1.0172e-004  -3.2202e+006  -4.9785e+002   7.1204e+005    0.0000    0.0151    0.0000    0.0000    0.0119

               lamina:  2     
              matName:  (blade-root)
                     s           e11           e22           e12           s11           s22           s12   s11_fcT   s11_fcC   s22_fcT   s22_fcC   s12_fcS
                   (m)         (m/m)         (m/m)         (rad)          (Pa)          (Pa)          (Pa)       (-)       (-)       (-)       (-)       (-)
                0.0000  -1.1362e-004   4.5415e-005   1.0185e-004  -3.1815e+006  -4.9431e+002   7.1296e+005    0.0000    0.0149    0.0000    0.0000    0.0119
                0.0085  -1.1436e-004   4.5713e-005   1.0172e-004  -3.2024e+006  -4.9780e+002   7.1204e+005    0.0000    0.0150    0.0000    0.0000    0.0119

               lamina:  3     
              matName:  (TEP-core)
                     s           e11           e22           e12           s11           s22           s12   s11_fcT   s11_fcC   s22_fcT   s22_fcC   s12_fcS
                   (m)         (m/m)         (m/m)         (rad)          (Pa)          (Pa)          (Pa)       (-)       (-)       (-)       (-)       (-)
                0.0000  -1.0672e-004   4.2656e-005   1.0185e-004  -2.6836e+004   3.0399e+003   2.0370e+003    0.0000    0.0000    0.0000   -0.0000    0.0000
                0.0085  -1.0747e-004   4.2954e-005   1.0172e-004  -2.7023e+004   3.0611e+003   2.0344e+003    0.0000    0.0000    0.0000   -0.0000    0.0000

               lamina:  4     
              matName:  (blade-root)
                     s           e11           e22           e12           s11           s22           s12   s11_fcT   s11_fcC   s22_fcT   s22_fcC   s12_fcS
                   (m)         (m/m)         (m/m)         (rad)          (Pa)          (Pa)          (Pa)       (-)       (-)       (-)       (-)       (-)
                0.0000  -1.0425e-004   4.1666e-005   1.0185e-004  -2.9191e+006  -4.9356e+002   7.1296e+005    0.0000    0.0137    0.0000    0.0000    0.0119
                0.0085  -1.0499e-004   4.1964e-005   1.0172e-004  -2.9399e+006  -4.9704e+002   7.1204e+005    0.0000    0.0138    0.0000    0.0000    0.0119

               lamina:  5     
              matName:  (blade-shell)
                     s           e11           e22           e12           s11           s22           s12   s11_fcT   s11_fcC   s22_fcT   s22_fcC   s12_fcS
                   (m)         (m/m)         (m/m)         (rad)          (Pa)          (Pa)          (Pa)       (-)       (-)       (-)       (-)       (-)
                0.0000  -9.7349e-005   3.8907e-005   1.0185e-004  -2.7260e+006  -4.9300e+002   7.1296e+005    0.0000    0.0128    0.0000    0.0000    0.0119
                0.0085  -9.8093e-005   3.9205e-005   1.0172e-004  -2.7468e+006  -4.9649e+002   7.1204e+005    0.0000    0.0129    0.0000    0.0000    0.0119

            panel:  4     
           lam_num    nPlies        tPly      fibAng     matID  matName
               (-)       (-)         (m)       (deg)       (-)  (-)
                 1         1    0.005000      0.0000         2  (blade-shell)
                 2         1    0.054104      0.0000         1  (blade-root)
                 3         1    0.019422      0.0000         6  (TEP-core)
                 4         1    0.054104      0.0000         1  (blade-root)
                 5         1    0.005000      0.0000         2  (blade-shell)

               lamina:  1     
              matName:  (blade-shell)
                     s           e11           e22           e12           s11           s22           s12   s11_fcT   s11_fcC   s22_fcT   s22_fcC   s12_fcS
                   (m)         (m/m)         (m/m)         (rad)          (Pa)          (Pa)          (Pa)       (-)       (-)       (-)       (-)       (-)
                0.0000  -1.1500e-004   4.5968e-005   1.0262e-004  -3.2202e+006  -4.9785e+002   7.1837e+005    0.0000    0.0151    0.0000    0.0000    0.0120
                0.1707  -1.3058e-004   5.2196e-005   1.0249e-004  -3.6566e+006  -5.6803e+002   7.1745e+005    0.0000    0.0172    0.0000    0.0000    0.0120
                0.5125  -1.6023e-004   6.4044e-005   1.0249e-004  -4.4866e+006  -7.0364e+002   7.1745e+005    0.0000    0.0211    0.0000    0.0000    0.0120
                0.8490  -1.8852e-004   7.5353e-005   9.9662e-005  -5.2789e+006  -8.3262e+002   6.9764e+005    0.0000    0.0248    0.0000    0.0000    0.0116
                1.1777  -2.1510e-004   8.5976e-005   9.2899e-005  -6.0231e+006  -9.5381e+002   6.5029e+005    0.0000    0.0283    0.0000    0.0000    0.0108
                1.4947  -2.3973e-004   9.5820e-005   8.4854e-005  -6.7127e+006  -1.0661e+003   5.9398e+005    0.0000    0.0315    0.0000    0.0000    0.0099
                1.7959  -2.6224e-004   1.0482e-004   7.5714e-005  -7.3432e+006  -1.1684e+003   5.3000e+005    0.0000    0.0345    0.0000    0.0000    0.0088
                2.0802  -2.8234e-004   1.1285e-004   6.5745e-005  -7.9060e+006  -1.2591e+003   4.6022e+005    0.0000    0.0371    0.0000    0.0000    0.0077
                2.3437  -2.9988e-004   1.1986e-004   5.5268e-005  -8.3970e+006  -1.3375e+003   3.8687e+005    0.0000    0.0394    0.0000    0.0000    0.0064
                2.5861  -3.1464e-004   1.2576e-004   4.4526e-005  -8.8104e+006  -1.4023e+003   3.1168e+005    0.0000    0.0414    0.0000    0.0000    0.0052
                2.8094  -3.2631e-004   1.3043e-004   3.3875e-005  -9.1373e+006  -1.4525e+003   2.3713e+005    0.0000    0.0429    0.0000    0.0000    0.0040
                3.0141  -3.3471e-004   1.3378e-004   2.3539e-005  -9.3723e+006  -1.4878e+003   1.6477e+005    0.0000    0.0440    0.0000    0.0000    0.0027
                3.2013  -3.3965e-004   1.3576e-004   1.3615e-005  -9.5107e+006  -1.5079e+003   9.5304e+004    0.0000    0.0447    0.0000    0.0000    0.0016
                3.3856  -3.4066e-004   1.3616e-004   4.2485e-006  -9.5391e+006  -1.5119e+003   2.9739e+004    0.0000    0.0448    0.0000    0.0000    0.0005
                3.5736  -3.3798e-004   1.3509e-004   4.4809e-006  -9.4639e+006  -1.5000e+003   3.1366e+004    0.0000    0.0444    0.0000    0.0000    0.0005

               lamina:  2     
              matName:  (blade-root)
                     s           e11           e22           e12           s11           s22           s12   s11_fcT   s11_fcC   s22_fcT   s22_fcC   s12_fcS
                   (m)         (m/m)         (m/m)         (rad)          (Pa)          (Pa)          (Pa)       (-)       (-)       (-)       (-)       (-)
                0.0000  -1.1436e-004   4.5713e-005   1.0262e-004  -3.2024e+006  -4.9780e+002   7.1837e+005    0.0000    0.0150    0.0000    0.0000    0.0120
                0.1707  -1.2990e-004   5.1924e-005   1.0249e-004  -3.6375e+006  -5.6797e+002   7.1745e+005    0.0000    0.0171    0.0000    0.0000    0.0120
                0.5125  -1.5950e-004   6.3752e-005   1.0249e-004  -4.4662e+006  -7.0358e+002   7.1745e+005    0.0000    0.0210    0.0000    0.0000    0.0120
                0.8490  -1.8774e-004   7.5039e-005   9.9662e-005  -5.2569e+006  -8.3256e+002   6.9764e+005    0.0000    0.0247    0.0000    0.0000    0.0116
                1.1777  -2.1426e-004   8.5642e-005   9.2899e-005  -5.9997e+006  -9.5374e+002   6.5029e+005    0.0000    0.0282    0.0000    0.0000    0.0108
                1.4947  -2.3884e-004   9.5468e-005   8.4854e-005  -6.6881e+006  -1.0661e+003   5.9398e+005    0.0000    0.0314    0.0000    0.0000    0.0099
                1.7959  -2.6131e-004   1.0445e-004   7.5714e-005  -7.3172e+006  -1.1683e+003   5.3000e+005    0.0000    0.0344    0.0000    0.0000    0.0088
                2.0802  -2.8136e-004   1.1246e-004   6.5745e-005  -7.8785e+006  -1.2590e+003   4.6022e+005    0.0000    0.0370    0.0000    0.0000    0.0077
                2.3437  -2.9883e-004   1.1945e-004   5.5268e-005  -8.3679e+006  -1.3374e+003   3.8687e+005    0.0000    0.0393    0.0000    0.0000    0.0064
                2.5861  -3.1353e-004   1.2532e-004   4.4526e-005  -8.7793e+006  -1.4022e+003   3.1168e+005    0.0000    0.0412    0.0000    0.0000    0.0052
                2.8094  -3.2513e-004   1.2996e-004   3.3875e-005  -9.1043e+006  -1.4524e+003   2.3713e+005    0.0000    0.0427    0.0000    0.0000    0.0040
                3.0141  -3.3346e-004   1.3329e-004   2.3539e-005  -9.3376e+006  -1.4877e+003   1.6477e+005    0.0000    0.0438    0.0000    0.0000    0.0027
                3.2013  -3.3836e-004   1.3524e-004   1.3615e-005  -9.4746e+006  -1.5078e+003   9.5304e+004    0.0000    0.0445    0.0000    0.0000    0.0016
                3.3856  -3.3936e-004   1.3564e-004   4.2485e-006  -9.5027e+006  -1.5118e+003   2.9739e+004    0.0000    0.0446    0.0000    0.0000    0.0005
                3.5736  -3.3668e-004   1.3458e-004   4.4809e-006  -9.4278e+006  -1.4999e+003   3.1366e+004    0.0000    0.0443    0.0000    0.0000    0.0005

               lamina:  3     
              matName:  (TEP-core)
                     s           e11           e22           e12           s11           s22           s12   s11_fcT   s11_fcC   s22_fcT   s22_fcC   s12_fcS
                   (m)         (m/m)         (m/m)         (rad)          (Pa)          (Pa)          (Pa)       (-)       (-)       (-)       (-)       (-)
                0.0000  -1.0747e-004   4.2954e-005   1.0262e-004  -2.7023e+004   3.0611e+003   2.0525e+003    0.0000    0.0000    0.0000   -0.0000    0.0000
                0.1707  -1.2254e-004   4.8977e-005   1.0249e-004  -3.0812e+004   3.4904e+003   2.0499e+003    0.0000    0.0000    0.0000   -0.0000    0.0000
                0.5125  -1.5160e-004   6.0593e-005   1.0249e-004  -3.8120e+004   4.3181e+003   2.0499e+003    0.0000    0.0000    0.0000   -0.0000    0.0000
                0.8490  -1.7925e-004   7.1645e-005   9.9662e-005  -4.5073e+004   5.1058e+003   1.9932e+003    0.0000    0.0000    0.0000   -0.0000    0.0000
                1.1777  -2.0523e-004   8.2030e-005   9.2899e-005  -5.1606e+004   5.8459e+003   1.8580e+003    0.0000    0.0000    0.0000   -0.0000    0.0000
                1.4947  -2.2931e-004   9.1655e-005   8.4854e-005  -5.7662e+004   6.5318e+003   1.6971e+003    0.0000    0.0000    0.0000   -0.0000    0.0000
                1.7959  -2.5124e-004   1.0042e-004   7.5714e-005  -6.3175e+004   7.1564e+003   1.5143e+003    0.0000    0.0000    0.0000   -0.0000    0.0000
                2.0802  -2.7071e-004   1.0820e-004   6.5745e-005  -6.8072e+004   7.7110e+003   1.3149e+003    0.0000    0.0000    0.0000   -0.0000    0.0000
                2.3437  -2.8757e-004   1.1494e-004   5.5268e-005  -7.2310e+004   8.1911e+003   1.1054e+003    0.0000    0.0000    0.0000   -0.0000    0.0000
                2.5861  -3.0152e-004   1.2052e-004   4.4526e-005  -7.5819e+004   8.5886e+003   8.9052e+002    0.0000    0.0000    0.0000   -0.0000    0.0000
                2.8094  -3.1237e-004   1.2485e-004   3.3875e-005  -7.8546e+004   8.8976e+003   6.7751e+002    0.0000    0.0000    0.0000   -0.0000    0.0000
                3.0141  -3.2002e-004   1.2791e-004   2.3539e-005  -8.0470e+004   9.1155e+003   4.7078e+002    0.0000    0.0000    0.0000   -0.0000    0.0000
                3.2013  -3.2440e-004   1.2966e-004   1.3615e-005  -8.1572e+004   9.2402e+003   2.7230e+002    0.0000    0.0000    0.0000   -0.0000    0.0000
                3.3856  -3.2528e-004   1.3001e-004   4.2485e-006  -8.1793e+004   9.2654e+003   8.4969e+001    0.0000    0.0000    0.0000   -0.0000    0.0000
                3.5736  -3.2272e-004   1.2899e-004   4.4809e-006  -8.1149e+004   9.1924e+003   8.9618e+001    0.0000    0.0000    0.0000   -0.0000    0.0000

               lamina:  4     
              matName:  (blade-root)
                     s           e11           e22           e12           s11           s22           s12   s11_fcT   s11_fcC   s22_fcT   s22_fcC   s12_fcS
                   (m)         (m/m)         (m/m)         (rad)          (Pa)          (Pa)          (Pa)       (-)       (-)       (-)       (-)       (-)
                0.0000  -1.0499e-004   4.1964e-005   1.0262e-004  -2.9399e+006  -4.9704e+002   7.1837e+005    0.0000    0.0138    0.0000    0.0000    0.0120
                0.1707  -1.1989e-004   4.7919e-005   1.0249e-004  -3.3572e+006  -5.6716e+002   7.1745e+005    0.0000    0.0158    0.0000    0.0000    0.0120
                0.5125  -1.4876e-004   5.9458e-005   1.0249e-004  -4.1656e+006  -7.0272e+002   7.1745e+005    0.0000    0.0196    0.0000    0.0000    0.0120
                0.8490  -1.7620e-004   7.0427e-005   9.9662e-005  -4.9340e+006  -8.3163e+002   6.9764e+005    0.0000    0.0232    0.0000    0.0000    0.0116
                1.1777  -2.0199e-004   8.0733e-005   9.2899e-005  -5.6561e+006  -9.5276e+002   6.5029e+005    0.0000    0.0266    0.0000    0.0000    0.0108
                1.4947  -2.2589e-004   9.0287e-005   8.4854e-005  -6.3254e+006  -1.0650e+003   5.9398e+005    0.0000    0.0297    0.0000    0.0000    0.0099
                1.7959  -2.4762e-004   9.8973e-005   7.5714e-005  -6.9339e+006  -1.1672e+003   5.3000e+005    0.0000    0.0326    0.0000    0.0000    0.0088
                2.0802  -2.6689e-004   1.0667e-004   6.5745e-005  -7.4735e+006  -1.2578e+003   4.6022e+005    0.0000    0.0351    0.0000    0.0000    0.0077
                2.3437  -2.8352e-004   1.1332e-004   5.5268e-005  -7.9392e+006  -1.3362e+003   3.8687e+005    0.0000    0.0373    0.0000    0.0000    0.0064
                2.5861  -2.9721e-004   1.1879e-004   4.4526e-005  -8.3226e+006  -1.4009e+003   3.1168e+005    0.0000    0.0391    0.0000    0.0000    0.0052
                2.8094  -3.0779e-004   1.2302e-004   3.3875e-005  -8.6186e+006  -1.4510e+003   2.3713e+005    0.0000    0.0405    0.0000    0.0000    0.0040
                3.0141  -3.1519e-004   1.2598e-004   2.3539e-005  -8.8260e+006  -1.4862e+003   1.6477e+005    0.0000    0.0414    0.0000    0.0000    0.0027
                3.2013  -3.1939e-004   1.2766e-004   1.3615e-005  -8.9435e+006  -1.5062e+003   9.5304e+004    0.0000    0.0420    0.0000    0.0000    0.0016
                3.3856  -3.2023e-004   1.2799e-004   4.2485e-006  -8.9670e+006  -1.5103e+003   2.9739e+004    0.0000    0.0421    0.0000    0.0000    0.0005
                3.5736  -3.1770e-004   1.2698e-004   4.4809e-006  -8.8963e+006  -1.4984e+003   3.1366e+004    0.0000    0.0418    0.0000    0.0000    0.0005

               lamina:  5     
              matName:  (blade-shell)
                     s           e11           e22           e12           s11           s22           s12   s11_fcT   s11_fcC   s22_fcT   s22_fcC   s12_fcS
                   (m)         (m/m)         (m/m)         (rad)          (Pa)          (Pa)          (Pa)       (-)       (-)       (-)       (-)       (-)
                0.0000  -9.8093e-005   3.9205e-005   1.0262e-004  -2.7468e+006  -4.9649e+002   7.1837e+005    0.0000    0.0129    0.0000    0.0000    0.0120
                0.1707  -1.1252e-004   4.4972e-005   1.0249e-004  -3.1509e+006  -5.6657e+002   7.1745e+005    0.0000    0.0148    0.0000    0.0000    0.0120
                0.5125  -1.4086e-004   5.6299e-005   1.0249e-004  -3.9444e+006  -7.0208e+002   7.1745e+005    0.0000    0.0185    0.0000    0.0000    0.0120
                0.8490  -1.6772e-004   6.7033e-005   9.9662e-005  -4.6965e+006  -8.3095e+002   6.9764e+005    0.0000    0.0220    0.0000    0.0000    0.0116
                1.1777  -1.9296e-004   7.7121e-005   9.2899e-005  -5.4032e+006  -9.5203e+002   6.5029e+005    0.0000    0.0254    0.0000    0.0000    0.0108
                1.4947  -2.1636e-004   8.6474e-005   8.4854e-005  -6.0585e+006  -1.0643e+003   5.9398e+005    0.0000    0.0284    0.0000    0.0000    0.0099
                1.7959  -2.3755e-004   9.4945e-005   7.5714e-005  -6.6519e+006  -1.1664e+003   5.3000e+005    0.0000    0.0312    0.0000    0.0000    0.0088
                2.0802  -2.5625e-004   1.0242e-004   6.5745e-005  -7.1754e+006  -1.2570e+003   4.6022e+005    0.0000    0.0337    0.0000    0.0000    0.0077
                2.3437  -2.7226e-004   1.0882e-004   5.5268e-005  -7.6238e+006  -1.3353e+003   3.8687e+005    0.0000    0.0358    0.0000    0.0000    0.0064
                2.5861  -2.8521e-004   1.1399e-004   4.4526e-005  -7.9865e+006  -1.3999e+003   3.1168e+005    0.0000    0.0375    0.0000    0.0000    0.0052
                2.8094  -2.9502e-004   1.1791e-004   3.3875e-005  -8.2612e+006  -1.4499e+003   2.3713e+005    0.0000    0.0388    0.0000    0.0000    0.0040
                3.0141  -3.0175e-004   1.2060e-004   2.3539e-005  -8.4495e+006  -1.4851e+003   1.6477e+005    0.0000    0.0397    0.0000    0.0000    0.0027
                3.2013  -3.0543e-004   1.2207e-004   1.3615e-005  -8.5527e+006  -1.5051e+003   9.5304e+004    0.0000    0.0402    0.0000    0.0000    0.0016
                3.3856  -3.0615e-004   1.2236e-004   4.2485e-006  -8.5728e+006  -1.5091e+003   2.9739e+004    0.0000    0.0402    0.0000    0.0000    0.0005
                3.5736  -3.0374e-004   1.2140e-004   4.4809e-006  -8.5053e+006  -1.4972e+003   3.1366e+004    0.0000    0.0399    0.0000    0.0000    0.0005

     Web:  panel  nNode   nLam     xc_St    xc_End         b         t         E_eff         G_eff      nu_eff     density  buckleCrit
            (-)    (-)    (-)       (-)       (-)       (m)       (m)          (Pa)          (Pa)         (-)    (kg/m^3)         (-)
              1     10      3    0.3452    0.3452    4.3123    0.0830   7.6445e+008   4.5301e+008      0.4420    257.1084      0.0001
              2     10      3    0.5781    0.5781    4.0933    0.0830   7.6445e+008   4.5301e+008      0.4420    257.1084      0.0002

            panel:  1     
           lam_num    nPlies        tPly      fibAng     matID  matName
               (-)       (-)         (m)       (deg)       (-)  (-)
                 1         1    0.001500      0.0000         7  (web-shell)
                 2         1    0.080000      0.0000         8  (web-core)
                 3         1    0.001500      0.0000         7  (web-shell)

               lamina:  1     
              matName:  (web-shell)
                     s           e11           e22           e12           s11           s22           s12   s11_fcT   s11_fcC   s22_fcT   s22_fcC   s12_fcS
                   (m)         (m/m)         (m/m)         (rad)          (Pa)          (Pa)          (Pa)       (-)       (-)       (-)       (-)       (-)
                0.0000   1.2496e-004  -5.5051e-005   1.3348e-005   1.8187e+006   1.3865e+005   1.6018e+005    0.0126   -0.0000    0.0000   -0.0000    0.0018
                0.4791   1.1428e-004  -5.0330e-005   1.7025e-005   1.6634e+006   1.2709e+005   2.0431e+005    0.0116   -0.0000    0.0000   -0.0000    0.0023
                0.9583   1.0360e-004  -4.5609e-005   2.0388e-005   1.5081e+006   1.1553e+005   2.4466e+005    0.0105   -0.0000    0.0000   -0.0000    0.0027
                1.4374   9.2915e-005  -4.0887e-005   2.3436e-005   1.3528e+006   1.0397e+005   2.8123e+005    0.0094   -0.0000    0.0000   -0.0000    0.0031
                1.9166   8.2234e-005  -3.6166e-005   2.6170e-005   1.1975e+006   9.2416e+004   3.1404e+005    0.0083   -0.0000    0.0000   -0.0000    0.0035
                2.3957   7.1554e-005  -3.1445e-005   2.8589e-005   1.0422e+006   8.0858e+004   3.4307e+005    0.0072   -0.0000    0.0000   -0.0000    0.0038
                2.8749   6.0873e-005  -2.6724e-005   3.0693e-005   8.8688e+005   6.9301e+004   3.6832e+005    0.0062   -0.0000    0.0000   -0.0000    0.0041
                3.3540   5.0193e-005  -2.2003e-005   3.2483e-005   7.3157e+005   5.7743e+004   3.8980e+005    0.0051   -0.0000    0.0000   -0.0000    0.0043
                3.8332   3.9512e-005  -1.7282e-005   3.3959e-005   5.7626e+005   4.6185e+004   4.0751e+005    0.0040   -0.0000    0.0000   -0.0000    0.0045
                4.3123   2.8831e-005  -1.2561e-005   3.5120e-005   4.2095e+005   3.4627e+004   4.2144e+005    0.0029   -0.0000    0.0000   -0.0000    0.0047

               lamina:  2     
              matName:  (web-core)
                     s           e11           e22           e12           s11           s22           s12   s11_fcT   s11_fcC   s22_fcT   s22_fcC   s12_fcS
                   (m)         (m/m)         (m/m)         (rad)          (Pa)          (Pa)          (Pa)       (-)       (-)       (-)       (-)       (-)
                0.0000   1.3551e-004  -6.0084e-005   1.3348e-005   3.3568e+004  -5.5516e+003   2.6697e+002    0.0000   -0.0000    0.0000    0.0000    0.0000
                0.4791   1.2483e-004  -5.5363e-005   1.7025e-005   3.0921e+004  -5.1181e+003   3.4051e+002    0.0000   -0.0000    0.0000    0.0000    0.0000
                0.9583   1.1415e-004  -5.0642e-005   2.0388e-005   2.8274e+004  -4.6847e+003   4.0776e+002    0.0000   -0.0000    0.0000    0.0000    0.0000
                1.4374   1.0347e-004  -4.5921e-005   2.3436e-005   2.5627e+004  -4.2513e+003   4.6872e+002    0.0000   -0.0000    0.0000    0.0000    0.0000
                1.9166   9.2791e-005  -4.1200e-005   2.6170e-005   2.2980e+004  -3.8179e+003   5.2339e+002    0.0000   -0.0000    0.0000    0.0000    0.0000
                2.3957   8.2110e-005  -3.6479e-005   2.8589e-005   2.0333e+004  -3.3845e+003   5.7178e+002    0.0000   -0.0000    0.0000    0.0000    0.0000
                2.8749   7.1430e-005  -3.1758e-005   3.0693e-005   1.7686e+004  -2.9511e+003   6.1387e+002    0.0000   -0.0000    0.0000    0.0000    0.0000
                3.3540   6.0749e-005  -2.7037e-005   3.2483e-005   1.5039e+004  -2.5177e+003   6.4967e+002    0.0000   -0.0000    0.0000    0.0000    0.0000
                3.8332   5.0069e-005  -2.2315e-005   3.3959e-005   1.2393e+004  -2.0842e+003   6.7918e+002    0.0000   -0.0000    0.0000    0.0000    0.0000
                4.3123   3.9388e-005  -1.7594e-005   3.5120e-005   9.7456e+003  -1.6508e+003   7.0241e+002    0.0000   -0.0000    0.0000    0.0000    0.0000

               lamina:  3     
              matName:  (web-shell)
                     s           e11           e22           e12           s11           s22           s12   s11_fcT   s11_fcC   s22_fcT   s22_fcC   s12_fcS
                   (m)         (m/m)         (m/m)         (rad)          (Pa)          (Pa)          (Pa)       (-)       (-)       (-)       (-)       (-)
                0.0000   1.3571e-004  -6.0179e-005   1.3348e-005   1.9716e+006   1.4330e+005   1.6018e+005    0.0137   -0.0000    0.0000   -0.0000    0.0018
                0.4791   1.2503e-004  -5.5458e-005   1.7025e-005   1.8163e+006   1.3174e+005   2.0431e+005    0.0126   -0.0000    0.0000   -0.0000    0.0023
                0.9583   1.1435e-004  -5.0737e-005   2.0388e-005   1.6610e+006   1.2018e+005   2.4466e+005    0.0115   -0.0000    0.0000   -0.0000    0.0027
                1.4374   1.0367e-004  -4.6015e-005   2.3436e-005   1.5057e+006   1.0863e+005   2.8123e+005    0.0105   -0.0000    0.0000   -0.0000    0.0031
                1.9166   9.2989e-005  -4.1294e-005   2.6170e-005   1.3504e+006   9.7069e+004   3.1404e+005    0.0094   -0.0000    0.0000   -0.0000    0.0035
                2.3957   8.2308e-005  -3.6573e-005   2.8589e-005   1.1951e+006   8.5511e+004   3.4307e+005    0.0083   -0.0000    0.0000   -0.0000    0.0038
                2.8749   7.1628e-005  -3.1852e-005   3.0693e-005   1.0398e+006   7.3953e+004   3.6832e+005    0.0072   -0.0000    0.0000   -0.0000    0.0041
                3.3540   6.0947e-005  -2.7131e-005   3.2483e-005   8.8446e+005   6.2396e+004   3.8980e+005    0.0061   -0.0000    0.0000   -0.0000    0.0043
                3.8332   5.0267e-005  -2.2410e-005   3.3959e-005   7.2915e+005   5.0838e+004   4.0751e+005    0.0051   -0.0000    0.0000   -0.0000    0.0045
                4.3123   3.9586e-005  -1.7689e-005   3.5120e-005   5.7384e+005   3.9280e+004   4.2144e+005    0.0040   -0.0000    0.0000   -0.0000    0.0047

            panel:  2     
           lam_num    nPlies        tPly      fibAng     matID  matName
               (-)       (-)         (m)       (deg)       (-)  (-)
                 1         1    0.001500      0.0000         7  (web-shell)
                 2         1    0.080000      0.0000         8  (web-core)
                 3         1    0.001500      0.0000         7  (web-shell)

               lamina:  1     
              matName:  (web-shell)
                     s           e11           e22           e12           s11           s22           s12   s11_fcT   s11_fcC   s22_fcT   s22_fcC   s12_fcS
                   (m)         (m/m)         (m/m)         (rad)          (Pa)          (Pa)          (Pa)       (-)       (-)       (-)       (-)       (-)
                0.0000  -1.7829e-005   8.0716e-006   3.4412e-005  -2.5747e+005  -1.5735e+004   4.1295e+005    0.0000    0.0012    0.0000    0.0000    0.0046
                0.4548  -2.7883e-005   1.2516e-005   3.3926e-005  -4.0367e+005  -2.6615e+004   4.0711e+005    0.0000    0.0019    0.0000    0.0000    0.0045
                0.9096  -3.7938e-005   1.6960e-005   3.3159e-005  -5.4987e+005  -3.7495e+004   3.9791e+005    0.0000    0.0026    0.0000    0.0000    0.0044
                1.3644  -4.7992e-005   2.1404e-005   3.2111e-005  -6.9607e+005  -4.8375e+004   3.8533e+005    0.0000    0.0033    0.0000    0.0000    0.0043
                1.8193  -5.8046e-005   2.5849e-005   3.0782e-005  -8.4227e+005  -5.9255e+004   3.6938e+005    0.0000    0.0040    0.0000    0.0000    0.0041
                2.2741  -6.8100e-005   3.0293e-005   2.9172e-005  -9.8847e+005  -7.0135e+004   3.5006e+005    0.0000    0.0046    0.0000    0.0000    0.0039
                2.7289  -7.8155e-005   3.4737e-005   2.7281e-005  -1.1347e+006  -8.1015e+004   3.2737e+005    0.0000    0.0053    0.0000    0.0000    0.0036
                3.1837  -8.8209e-005   3.9181e-005   2.5109e-005  -1.2809e+006  -9.1895e+004   3.0130e+005    0.0000    0.0060    0.0000    0.0000    0.0033
                3.6385  -9.8263e-005   4.3626e-005   2.2656e-005  -1.4271e+006  -1.0277e+005   2.7187e+005    0.0000    0.0067    0.0000    0.0000    0.0030
                4.0933  -1.0832e-004   4.8070e-005   1.9921e-005  -1.5733e+006  -1.1365e+005   2.3906e+005    0.0000    0.0074    0.0000    0.0000    0.0027

               lamina:  2     
              matName:  (web-core)
                     s           e11           e22           e12           s11           s22           s12   s11_fcT   s11_fcC   s22_fcT   s22_fcC   s12_fcS
                   (m)         (m/m)         (m/m)         (rad)          (Pa)          (Pa)          (Pa)       (-)       (-)       (-)       (-)       (-)
                0.0000  -1.7631e-005   7.9771e-006   3.4412e-005  -4.3537e+003   7.6795e+002   6.8824e+002    0.0000    0.0000    0.0000   -0.0000    0.0000
                0.4548  -2.7685e-005   1.2421e-005   3.3926e-005  -6.8454e+003   1.1760e+003   6.7852e+002    0.0000    0.0000    0.0000   -0.0000    0.0000
                0.9096  -3.7739e-005   1.6866e-005   3.3159e-005  -9.3371e+003   1.5840e+003   6.6318e+002    0.0000    0.0000    0.0000   -0.0000    0.0000
                1.3644  -4.7794e-005   2.1310e-005   3.2111e-005  -1.1829e+004   1.9920e+003   6.4222e+002    0.0000    0.0000    0.0000   -0.0000    0.0000
                1.8193  -5.7848e-005   2.5754e-005   3.0782e-005  -1.4321e+004   2.3999e+003   6.1564e+002    0.0000    0.0000    0.0000   -0.0000    0.0000
                2.2741  -6.7902e-005   3.0199e-005   2.9172e-005  -1.6812e+004   2.8079e+003   5.8344e+002    0.0000    0.0000    0.0000   -0.0000    0.0000
                2.7289  -7.7957e-005   3.4643e-005   2.7281e-005  -1.9304e+004   3.2159e+003   5.4561e+002    0.0000    0.0000    0.0000   -0.0000    0.0000
                3.1837  -8.8011e-005   3.9087e-005   2.5109e-005  -2.1796e+004   3.6239e+003   5.0217e+002    0.0000    0.0000    0.0000   -0.0000    0.0000
                3.6385  -9.8065e-005   4.3531e-005   2.2656e-005  -2.4287e+004   4.0319e+003   4.5311e+002    0.0000    0.0000    0.0000   -0.0000    0.0000
                4.0933  -1.0812e-004   4.7976e-005   1.9921e-005  -2.6779e+004   4.4399e+003   3.9843e+002    0.0000    0.0000    0.0000   -0.0000    0.0000

               lamina:  3     
              matName:  (web-shell)
                     s           e11           e22           e12           s11           s22           s12   s11_fcT   s11_fcC   s22_fcT   s22_fcC   s12_fcS
                   (m)         (m/m)         (m/m)         (rad)          (Pa)          (Pa)          (Pa)       (-)       (-)       (-)       (-)       (-)
                0.0000  -7.0699e-006   2.9414e-006   3.4412e-005  -1.0452e+005  -1.1080e+004   4.1295e+005    0.0000    0.0005    0.0000    0.0000    0.0046
                0.4548  -1.7124e-005   7.3857e-006   3.3926e-005  -2.5072e+005  -2.1960e+004   4.0711e+005    0.0000    0.0012    0.0000    0.0000    0.0045
                0.9096  -2.7178e-005   1.1830e-005   3.3159e-005  -3.9692e+005  -3.2840e+004   3.9791e+005    0.0000    0.0019    0.0000    0.0000    0.0044
                1.3644  -3.7233e-005   1.6274e-005   3.2111e-005  -5.4312e+005  -4.3720e+004   3.8533e+005    0.0000    0.0025    0.0000    0.0000    0.0043
                1.8193  -4.7287e-005   2.0718e-005   3.0782e-005  -6.8932e+005  -5.4600e+004   3.6938e+005    0.0000    0.0032    0.0000    0.0000    0.0041
                2.2741  -5.7341e-005   2.5163e-005   2.9172e-005  -8.3552e+005  -6.5480e+004   3.5006e+005    0.0000    0.0039    0.0000    0.0000    0.0039
                2.7289  -6.7396e-005   2.9607e-005   2.7281e-005  -9.8172e+005  -7.6360e+004   3.2737e+005    0.0000    0.0046    0.0000    0.0000    0.0036
                3.1837  -7.7450e-005   3.4051e-005   2.5109e-005  -1.1279e+006  -8.7240e+004   3.0130e+005    0.0000    0.0053    0.0000    0.0000    0.0033
                3.6385  -8.7504e-005   3.8496e-005   2.2656e-005  -1.2741e+006  -9.8120e+004   2.7187e+005    0.0000    0.0060    0.0000    0.0000    0.0030
                4.0933  -9.7558e-005   4.2940e-005   1.9921e-005  -1.4203e+006  -1.0900e+005   2.3906e+005    0.0000    0.0067    0.0000    0.0000    0.0027

================================================================================
sec        =  8      
zSec       =  10.0000  (m)
nPanelsTop =  4      
nPanelsBot =  4      
nWebs      =  2      

    Top:  panel  nNode   nLam     xc_St    xc_End         b         t         E_eff         G_eff      nu_eff     density  buckleCrit
            (-)    (-)    (-)       (-)       (-)       (m)       (m)          (Pa)          (Pa)         (-)    (kg/m^3)         (-)
              1     13      5    0.0000    0.3339    3.2607    0.1249   2.1993e+010   5.4884e+009      0.3995   1492.6655      0.0000
              2      7      7    0.3339    0.5561    1.4621    0.1592   3.3443e+010   5.4591e+009      0.3554   1876.9554      0.0000
              3      2      5    0.5561    0.5572    0.0081    0.1249   2.1993e+010   5.4884e+009      0.3995   1492.6655      0.0000
              4     15      5    0.5572    1.0000    3.6962    0.1249   2.1993e+010   5.4884e+009      0.3995   1492.6655      0.0092

            panel:  1     
           lam_num    nPlies        tPly      fibAng     matID  matName
               (-)       (-)         (m)       (deg)       (-)  (-)
                 1         1    0.005000      0.0000         2  (blade-shell)
                 2         1    0.043931      0.0000         1  (blade-root)
                 3         1    0.027052      0.0000         5  (LEP-core)
                 4         1    0.043931      0.0000         1  (blade-root)
                 5         1    0.005000      0.0000         2  (blade-shell)

               lamina:  1     
              matName:  (blade-shell)
                     s           e11           e22           e12           s11           s22           s12   s11_fcT   s11_fcC   s22_fcT   s22_fcC   s12_fcS
                   (m)         (m/m)         (m/m)         (rad)          (Pa)          (Pa)          (Pa)       (-)       (-)       (-)       (-)       (-)
                0.0000   3.4012e-004  -1.3588e-004   2.4334e-005   9.5244e+006   2.5524e+003   1.7034e+005    0.0661   -0.0000    0.0000   -0.0000    0.0028
                0.2368   3.4483e-004  -1.3776e-004   1.3261e-005   9.6564e+006   2.5882e+003   9.2827e+004    0.0671   -0.0000    0.0000   -0.0000    0.0015
                0.4864   3.4600e-004  -1.3823e-004   1.4857e-006   9.6889e+006   2.5967e+003   1.0400e+004    0.0673   -0.0000    0.0000   -0.0000    0.0002
                0.7466   3.4326e-004  -1.3714e-004   1.0757e-005   9.6124e+006   2.5769e+003   7.5299e+004    0.0668   -0.0000    0.0000   -0.0000    0.0013
                0.9984   3.3603e-004  -1.3424e-004   2.2445e-005   9.4097e+006   2.5241e+003   1.5712e+005    0.0653   -0.0000    0.0000   -0.0000    0.0026
                1.2636   3.2499e-004  -1.2984e-004   3.4426e-005   9.1007e+006   2.4430e+003   2.4098e+005    0.0632   -0.0000    0.0000   -0.0000    0.0040
                1.5330   3.0993e-004  -1.2382e-004   4.6133e-005   8.6790e+006   2.3323e+003   3.2293e+005    0.0603   -0.0000    0.0000   -0.0000    0.0054
                1.8110   2.9115e-004  -1.1632e-004   5.7576e-005   8.1531e+006   2.1931e+003   4.0303e+005    0.0566   -0.0000    0.0000   -0.0000    0.0067
                2.0988   2.6887e-004  -1.0742e-004   6.8630e-005   7.5292e+006   2.0278e+003   4.8041e+005    0.0523   -0.0000    0.0000   -0.0000    0.0080
                2.3938   2.4316e-004  -9.7142e-005   7.9001e-005   6.8091e+006   1.8366e+003   5.5301e+005    0.0473   -0.0000    0.0000   -0.0000    0.0092
                2.6983   2.1443e-004  -8.5667e-005   8.8586e-005   6.0048e+006   1.6217e+003   6.2010e+005    0.0417   -0.0000    0.0000   -0.0000    0.0103
                3.0128   1.8304e-004  -7.3124e-005   9.7190e-005   5.1256e+006   1.3854e+003   6.8033e+005    0.0356   -0.0000    0.0000   -0.0000    0.0113
                3.2607   1.5735e-004  -6.2860e-005   1.0300e-004   4.4062e+006   1.1899e+003   7.2100e+005    0.0306   -0.0000    0.0000   -0.0000    0.0120

               lamina:  2     
              matName:  (blade-root)
                     s           e11           e22           e12           s11           s22           s12   s11_fcT   s11_fcC   s22_fcT   s22_fcC   s12_fcS
                   (m)         (m/m)         (m/m)         (rad)          (Pa)          (Pa)          (Pa)       (-)       (-)       (-)       (-)       (-)
                0.0000   3.3885e-004  -1.3537e-004   2.4334e-005   9.4889e+006   2.5521e+003   1.7034e+005    0.0659   -0.0000    0.0000   -0.0000    0.0028
                0.2368   3.4355e-004  -1.3725e-004   1.3261e-005   9.6204e+006   2.5879e+003   9.2827e+004    0.0668   -0.0000    0.0000   -0.0000    0.0015
                0.4864   3.4471e-004  -1.3771e-004   1.4857e-006   9.6528e+006   2.5964e+003   1.0400e+004    0.0670   -0.0000    0.0000   -0.0000    0.0002
                0.7466   3.4199e-004  -1.3663e-004   1.0757e-005   9.5767e+006   2.5765e+003   7.5299e+004    0.0665   -0.0000    0.0000   -0.0000    0.0013
                0.9984   3.3480e-004  -1.3375e-004   2.2445e-005   9.3753e+006   2.5237e+003   1.5712e+005    0.0651   -0.0000    0.0000   -0.0000    0.0026
                1.2636   3.2382e-004  -1.2937e-004   3.4426e-005   9.0679e+006   2.4426e+003   2.4098e+005    0.0630   -0.0000    0.0000   -0.0000    0.0040
                1.5330   3.0884e-004  -1.2338e-004   4.6133e-005   8.6485e+006   2.3319e+003   3.2293e+005    0.0601   -0.0000    0.0000   -0.0000    0.0054
                1.8110   2.9015e-004  -1.1592e-004   5.7576e-005   8.1251e+006   2.1928e+003   4.0303e+005    0.0564   -0.0000    0.0000   -0.0000    0.0067
                2.0988   2.6797e-004  -1.0706e-004   6.8630e-005   7.5041e+006   2.0275e+003   4.8041e+005    0.0521   -0.0000    0.0000   -0.0000    0.0080
                2.3938   2.4237e-004  -9.6829e-005   7.9001e-005   6.7872e+006   1.8363e+003   5.5301e+005    0.0471   -0.0000    0.0000   -0.0000    0.0092
                2.6983   2.1376e-004  -8.5399e-005   8.8586e-005   5.9861e+006   1.6215e+003   6.2010e+005    0.0416   -0.0000    0.0000   -0.0000    0.0103
                3.0128   1.8248e-004  -7.2900e-005   9.7190e-005   5.1099e+006   1.3852e+003   6.8033e+005    0.0355   -0.0000    0.0000   -0.0000    0.0113
                3.2607   1.5685e-004  -6.2663e-005   1.0300e-004   4.3924e+006   1.1897e+003   7.2100e+005    0.0305   -0.0000    0.0000   -0.0000    0.0120

               lamina:  3     
              matName:  (LEP-core)
                     s           e11           e22           e12           s11           s22           s12   s11_fcT   s11_fcC   s22_fcT   s22_fcC   s12_fcS
                   (m)         (m/m)         (m/m)         (rad)          (Pa)          (Pa)          (Pa)       (-)       (-)       (-)       (-)       (-)
                0.0000   3.2769e-004  -1.3091e-004   2.4334e-005   8.2406e+004  -9.3148e+003   4.8669e+002    0.0000   -0.0000    0.0000    0.0000    0.0000
                0.2368   3.3228e-004  -1.3274e-004   1.3261e-005   8.3559e+004  -9.4451e+003   2.6522e+002    0.0000   -0.0000    0.0000    0.0000    0.0000
                0.4864   3.3338e-004  -1.3318e-004   1.4857e-006   8.3835e+004  -9.4763e+003   2.9713e+001    0.0000   -0.0000    0.0000    0.0000    0.0000
                0.7466   3.3081e-004  -1.3216e-004   1.0757e-005   8.3190e+004  -9.4035e+003   2.1514e+002    0.0000   -0.0000    0.0000    0.0000    0.0000
                0.9984   3.2400e-004  -1.2943e-004   2.2445e-005   8.1476e+004  -9.2097e+003   4.4890e+002    0.0000   -0.0000    0.0000    0.0000    0.0000
                1.2636   3.1354e-004  -1.2526e-004   3.4426e-005   7.8847e+004  -8.9125e+003   6.8853e+002    0.0000   -0.0000    0.0000    0.0000    0.0000
                1.5330   2.9927e-004  -1.1955e-004   4.6133e-005   7.5258e+004  -8.5068e+003   9.2267e+002    0.0000   -0.0000    0.0000    0.0000    0.0000
                1.8110   2.8136e-004  -1.1240e-004   5.7576e-005   7.0755e+004  -7.9978e+003   1.1515e+003    0.0000   -0.0000    0.0000    0.0000    0.0000
                2.0988   2.6009e-004  -1.0390e-004   6.8630e-005   6.5404e+004  -7.3930e+003   1.3726e+003    0.0000   -0.0000    0.0000    0.0000    0.0000
                2.3938   2.3549e-004  -9.4077e-005   7.9001e-005   5.9220e+004  -6.6940e+003   1.5800e+003    0.0000   -0.0000    0.0000    0.0000    0.0000
                2.6983   2.0789e-004  -8.3051e-005   8.8586e-005   5.2279e+004  -5.9094e+003   1.7717e+003    0.0000   -0.0000    0.0000    0.0000    0.0000
                3.0128   1.7757e-004  -7.0936e-005   9.7190e-005   4.4653e+004  -5.0474e+003   1.9438e+003    0.0000   -0.0000    0.0000    0.0000    0.0000
                3.2607   1.5253e-004  -6.0936e-005   1.0300e-004   3.8358e+004  -4.3358e+003   2.0600e+003    0.0000   -0.0000    0.0000    0.0000    0.0000

               lamina:  4     
              matName:  (blade-root)
                     s           e11           e22           e12           s11           s22           s12   s11_fcT   s11_fcC   s22_fcT   s22_fcC   s12_fcS
                   (m)         (m/m)         (m/m)         (rad)          (Pa)          (Pa)          (Pa)       (-)       (-)       (-)       (-)       (-)
                0.0000   3.2082e-004  -1.2816e-004   2.4334e-005   8.9841e+006   2.5468e+003   1.7034e+005    0.0624   -0.0000    0.0000   -0.0000    0.0028
                0.2368   3.2534e-004  -1.2997e-004   1.3261e-005   9.1105e+006   2.5825e+003   9.2827e+004    0.0633   -0.0000    0.0000   -0.0000    0.0015
                0.4864   3.2640e-004  -1.3039e-004   1.4857e-006   9.1402e+006   2.5910e+003   1.0400e+004    0.0635   -0.0000    0.0000   -0.0000    0.0002
                0.7466   3.2393e-004  -1.2940e-004   1.0757e-005   9.0711e+006   2.5712e+003   7.5299e+004    0.0630   -0.0000    0.0000   -0.0000    0.0013
                0.9984   3.1734e-004  -1.2677e-004   2.2445e-005   8.8867e+006   2.5186e+003   1.5712e+005    0.0617   -0.0000    0.0000   -0.0000    0.0026
                1.2636   3.0721e-004  -1.2272e-004   3.4426e-005   8.6028e+006   2.4378e+003   2.4098e+005    0.0597   -0.0000    0.0000   -0.0000    0.0040
                1.5330   2.9337e-004  -1.1720e-004   4.6133e-005   8.2154e+006   2.3274e+003   3.2293e+005    0.0571   -0.0000    0.0000   -0.0000    0.0054
                1.8110   2.7595e-004  -1.1024e-004   5.7576e-005   7.7274e+006   2.1887e+003   4.0303e+005    0.0537   -0.0000    0.0000   -0.0000    0.0067
                2.0988   2.5523e-004  -1.0196e-004   6.8630e-005   7.1472e+006   2.0238e+003   4.8041e+005    0.0496   -0.0000    0.0000   -0.0000    0.0080
                2.3938   2.3126e-004  -9.2382e-005   7.9001e-005   6.4759e+006   1.8331e+003   5.5301e+005    0.0450   -0.0000    0.0000   -0.0000    0.0092
                2.6983   2.0428e-004  -8.1604e-005   8.8586e-005   5.7204e+006   1.6187e+003   6.2010e+005    0.0397   -0.0000    0.0000   -0.0000    0.0103
                3.0128   1.7454e-004  -6.9727e-005   9.7190e-005   4.8878e+006   1.3829e+003   6.8033e+005    0.0339   -0.0000    0.0000   -0.0000    0.0113
                3.2607   1.4987e-004  -5.9872e-005   1.0300e-004   4.1969e+006   1.1877e+003   7.2100e+005    0.0291   -0.0000    0.0000   -0.0000    0.0120

               lamina:  5     
              matName:  (blade-shell)
                     s           e11           e22           e12           s11           s22           s12   s11_fcT   s11_fcC   s22_fcT   s22_fcC   s12_fcS
                   (m)         (m/m)         (m/m)         (rad)          (Pa)          (Pa)          (Pa)       (-)       (-)       (-)       (-)       (-)
                0.0000   3.0967e-004  -1.2370e-004   2.4334e-005   8.6717e+006   2.5435e+003   1.7034e+005    0.0602   -0.0000    0.0000   -0.0000    0.0028
                0.2368   3.1407e-004  -1.2546e-004   1.3261e-005   8.7949e+006   2.5792e+003   9.2827e+004    0.0611   -0.0000    0.0000   -0.0000    0.0015
                0.4864   3.1507e-004  -1.2586e-004   1.4857e-006   8.8229e+006   2.5877e+003   1.0400e+004    0.0613   -0.0000    0.0000   -0.0000    0.0002
                0.7466   3.1275e-004  -1.2493e-004   1.0757e-005   8.7581e+006   2.5680e+003   7.5299e+004    0.0608   -0.0000    0.0000   -0.0000    0.0013
                0.9984   3.0654e-004  -1.2245e-004   2.2445e-005   8.5843e+006   2.5155e+003   1.5712e+005    0.0596   -0.0000    0.0000   -0.0000    0.0026
                1.2636   2.9693e-004  -1.1861e-004   3.4426e-005   8.3150e+006   2.4348e+003   2.4098e+005    0.0577   -0.0000    0.0000   -0.0000    0.0040
                1.5330   2.8380e-004  -1.1337e-004   4.6133e-005   7.9473e+006   2.3246e+003   3.2293e+005    0.0552   -0.0000    0.0000   -0.0000    0.0054
                1.8110   2.6716e-004  -1.0672e-004   5.7576e-005   7.4813e+006   2.1861e+003   4.0303e+005    0.0520   -0.0000    0.0000   -0.0000    0.0067
                2.0988   2.4734e-004  -9.8803e-005   6.8630e-005   6.9263e+006   2.0215e+003   4.8041e+005    0.0481   -0.0000    0.0000   -0.0000    0.0080
                2.3938   2.2438e-004  -8.9630e-005   7.9001e-005   6.2833e+006   1.8311e+003   5.5301e+005    0.0436   -0.0000    0.0000   -0.0000    0.0092
                2.6983   1.9840e-004  -7.9255e-005   8.8586e-005   5.5560e+006   1.6170e+003   6.2010e+005    0.0386   -0.0000    0.0000   -0.0000    0.0103
                3.0128   1.6963e-004  -6.7762e-005   9.7190e-005   4.7503e+006   1.3814e+003   6.8033e+005    0.0330   -0.0000    0.0000   -0.0000    0.0113
                3.2607   1.4555e-004  -5.8144e-005   1.0300e-004   4.0760e+006   1.1864e+003   7.2100e+005    0.0283   -0.0000    0.0000   -0.0000    0.0120

            panel:  2     
           lam_num    nPlies        tPly      fibAng     matID  matName
               (-)       (-)         (m)       (deg)       (-)  (-)
                 1         1    0.005000      0.0000         2  (blade-shell)
                 2         1    0.043931      0.0000         1  (blade-root)
                 3         1    0.030659      0.0000         3  (spar-uni)
                 4         1    0.000001      0.0000         4  (spar-core)
                 5         1    0.030659      0.0000         3  (spar-uni)
                 6         1    0.043931      0.0000         1  (blade-root)
                 7         1    0.005000      0.0000         2  (blade-shell)

               lamina:  1     
              matName:  (blade-shell)
                     s           e11           e22           e12           s11           s22           s12   s11_fcT   s11_fcC   s22_fcT   s22_fcC   s12_fcS
                   (m)         (m/m)         (m/m)         (rad)          (Pa)          (Pa)          (Pa)       (-)       (-)       (-)       (-)       (-)
                0.0000   1.6195e-004  -5.7989e-005   8.0393e-005   4.5758e+006   1.0332e+005   5.6275e+005    0.0318   -0.0000    0.0000   -0.0000    0.0094
                0.0727   1.5286e-004  -5.4692e-005   8.2731e-005   4.3194e+006   9.8197e+004   5.7911e+005    0.0300   -0.0000    0.0000   -0.0000    0.0097
                0.4063   1.1683e-004  -4.1826e-005   9.1933e-005   3.3012e+006   7.4672e+004   6.4353e+005    0.0229   -0.0000    0.0000   -0.0000    0.0107
                0.7453   7.8775e-005  -2.8214e-005   9.8681e-005   2.2258e+006   5.0151e+004   6.9076e+005    0.0155   -0.0000    0.0000   -0.0000    0.0115
                1.0903   3.9762e-005  -1.4271e-005   1.0280e-004   1.1233e+006   2.4861e+004   7.1960e+005    0.0078   -0.0000    0.0000   -0.0000    0.0120
                1.4410   7.9047e-007  -3.7886e-007   1.0412e-004   2.1752e+004  -9.6964e+002   7.2881e+005    0.0002   -0.0000    0.0000    0.0000    0.0121
                1.4621  -3.3693e-006   1.1707e-006   1.0410e-004  -9.5419e+004  -2.6938e+003   7.2872e+005    0.0000    0.0004    0.0000    0.0000    0.0121

               lamina:  2     
              matName:  (blade-root)
                     s           e11           e22           e12           s11           s22           s12   s11_fcT   s11_fcC   s22_fcT   s22_fcC   s12_fcS
                   (m)         (m/m)         (m/m)         (rad)          (Pa)          (Pa)          (Pa)       (-)       (-)       (-)       (-)       (-)
                0.0000   1.6123e-004  -5.7706e-005   8.0393e-005   4.5556e+006   1.0325e+005   5.6275e+005    0.0316   -0.0000    0.0000   -0.0000    0.0094
                0.0727   1.5226e-004  -5.4453e-005   8.2731e-005   4.3024e+006   9.8137e+004   5.7911e+005    0.0299   -0.0000    0.0000   -0.0000    0.0097
                0.4063   1.1633e-004  -4.1627e-005   9.1933e-005   3.2870e+006   7.4622e+004   6.4353e+005    0.0228   -0.0000    0.0000   -0.0000    0.0107
                0.7453   7.8414e-005  -2.8072e-005   9.8681e-005   2.2156e+006   5.0116e+004   6.9076e+005    0.0154   -0.0000    0.0000   -0.0000    0.0115
                1.0903   3.9531e-005  -1.4180e-005   1.0280e-004   1.1168e+006   2.4838e+004   7.1960e+005    0.0078   -0.0000    0.0000   -0.0000    0.0120
                1.4410  -7.8912e-007  -3.1534e-007   1.0412e-004  -2.2539e+004  -1.1099e+003   7.2881e+005    0.0000    0.0001    0.0000    0.0000    0.0121
                1.4621  -3.7816e-006   1.3330e-006   1.0410e-004  -1.0698e+005  -2.7346e+003   7.2872e+005    0.0000    0.0005    0.0000    0.0000    0.0121

               lamina:  3     
              matName:  (spar-uni)
                     s           e11           e22           e12           s11           s22           s12   s11_fcT   s11_fcC   s22_fcT   s22_fcC   s12_fcS
                   (m)         (m/m)         (m/m)         (rad)          (Pa)          (Pa)          (Pa)       (-)       (-)       (-)       (-)       (-)
                0.0000   1.5491e-004  -5.5219e-005   8.0393e-005   6.4584e+006  -1.7028e+005   2.4118e+005    0.0066   -0.0000    0.0000    0.0000    0.0080
                0.0727   1.4693e-004  -5.2359e-005   8.2731e-005   6.1260e+006  -1.6126e+005   2.4819e+005    0.0063   -0.0000    0.0000    0.0000    0.0083
                0.4063   1.1190e-004  -3.9884e-005   9.1933e-005   4.6653e+006  -1.2295e+005   2.7580e+005    0.0048   -0.0000    0.0000    0.0000    0.0092
                0.7453   7.5239e-005  -2.6823e-005   9.8681e-005   3.1369e+006  -8.2747e+004   2.9604e+005    0.0032   -0.0000    0.0000    0.0000    0.0099
                1.0903   3.7497e-005  -1.3380e-005   1.0280e-004   1.5633e+006  -4.1411e+004   3.0840e+005    0.0016   -0.0000    0.0000    0.0000    0.0103
                1.4410  -1.7789e-006   6.3217e-007   1.0412e-004  -7.4172e+004   1.9276e+003   3.1235e+005    0.0000    0.0001    0.0000   -0.0000    0.0104
                1.4621  -4.0694e-006   1.4462e-006   1.0410e-004  -1.6968e+005   4.4098e+003   3.1231e+005    0.0000    0.0002    0.0000   -0.0000    0.0104

               lamina:  4     
              matName:  (spar-core)
                     s           e11           e22           e12           s11           s22           s12   s11_fcT   s11_fcC   s22_fcT   s22_fcC   s12_fcS
                   (m)         (m/m)         (m/m)         (rad)          (Pa)          (Pa)          (Pa)       (-)       (-)       (-)       (-)       (-)
                0.0000   1.5050e-004  -5.3483e-005   8.0393e-005   3.8415e+004  -2.3813e+003   1.6079e+003    0.0000   -0.0000    0.0000    0.0000    0.0000
                0.0727   1.4322e-004  -5.0897e-005   8.2731e-005   3.6557e+004  -2.2661e+003   1.6546e+003    0.0000   -0.0000    0.0000    0.0000    0.0000
                0.4063   1.0881e-004  -3.8667e-005   9.1933e-005   2.7773e+004  -1.7216e+003   1.8387e+003    0.0000   -0.0000    0.0000    0.0000    0.0000
                0.7453   7.3024e-005  -2.5951e-005   9.8681e-005   1.8639e+004  -1.1555e+003   1.9736e+003    0.0000   -0.0000    0.0000    0.0000    0.0000
                1.0903   3.6078e-005  -1.2821e-005   1.0280e-004   9.2089e+003  -5.7086e+002   2.0560e+003    0.0000   -0.0000    0.0000    0.0000    0.0000
                1.4410  -1.7789e-006   6.3218e-007   1.0412e-004  -4.5407e+002   2.8147e+001   2.0823e+003    0.0000    0.0000    0.0000   -0.0000    0.0000
                1.4621  -4.0694e-006   1.4462e-006   1.0410e-004  -1.0387e+003   6.4390e+001   2.0821e+003    0.0000    0.0000    0.0000   -0.0000    0.0000

               lamina:  5     
              matName:  (spar-uni)
                     s           e11           e22           e12           s11           s22           s12   s11_fcT   s11_fcC   s22_fcT   s22_fcC   s12_fcS
                   (m)         (m/m)         (m/m)         (rad)          (Pa)          (Pa)          (Pa)       (-)       (-)       (-)       (-)       (-)
                0.0000   1.5050e-004  -5.3483e-005   8.0393e-005   6.2752e+006  -1.6308e+005   2.4118e+005    0.0065   -0.0000    0.0000    0.0000    0.0080
                0.0727   1.4322e-004  -5.0897e-005   8.2731e-005   5.9717e+006  -1.5520e+005   2.4819e+005    0.0061   -0.0000    0.0000    0.0000    0.0083
                0.4063   1.0880e-004  -3.8667e-005   9.1933e-005   4.5368e+006  -1.1791e+005   2.7580e+005    0.0047   -0.0000    0.0000    0.0000    0.0092
                0.7453   7.3024e-005  -2.5951e-005   9.8681e-005   3.0448e+006  -7.9132e+004   2.9604e+005    0.0031   -0.0000    0.0000    0.0000    0.0099
                1.0903   3.6077e-005  -1.2821e-005   1.0280e-004   1.5043e+006  -3.9095e+004   3.0840e+005    0.0015   -0.0000    0.0000    0.0000    0.0103
                1.4410  -2.7686e-006   1.0216e-006   1.0412e-004  -1.1529e+005   3.5426e+003   3.1235e+005    0.0000    0.0002    0.0000   -0.0000    0.0104
                1.4621  -4.3571e-006   1.5594e-006   1.0410e-004  -1.8163e+005   4.8793e+003   3.1231e+005    0.0000    0.0003    0.0000   -0.0000    0.0104

               lamina:  6     
              matName:  (blade-root)
                     s           e11           e22           e12           s11           s22           s12   s11_fcT   s11_fcC   s22_fcT   s22_fcC   s12_fcS
                   (m)         (m/m)         (m/m)         (rad)          (Pa)          (Pa)          (Pa)       (-)       (-)       (-)       (-)       (-)
                0.0000   1.4609e-004  -5.1748e-005   8.0393e-005   4.1311e+006   1.0175e+005   5.6275e+005    0.0287   -0.0000    0.0000   -0.0000    0.0094
                0.0727   1.3950e-004  -4.9435e-005   8.2731e-005   3.9448e+006   9.6876e+004   5.7911e+005    0.0274   -0.0000    0.0000   -0.0000    0.0097
                0.4063   1.0571e-004  -3.7450e-005   9.1933e-005   2.9894e+006   7.3572e+004   6.4353e+005    0.0208   -0.0000    0.0000   -0.0000    0.0107
                0.7453   7.0808e-005  -2.5079e-005   9.8681e-005   2.0024e+006   4.9363e+004   6.9076e+005    0.0139   -0.0000    0.0000   -0.0000    0.0115
                1.0903   3.4658e-005  -1.2263e-005   1.0280e-004   9.8017e+005   2.4356e+004   7.1960e+005    0.0068   -0.0000    0.0000   -0.0000    0.0120
                1.4410  -4.1868e-006   1.5797e-006   1.0412e-004  -1.1781e+005  -1.4460e+003   7.2881e+005    0.0000    0.0006    0.0000    0.0000    0.0121
                1.4621  -4.7694e-006   1.7217e-006   1.0410e-004  -1.3468e+005  -2.8323e+003   7.2872e+005    0.0000    0.0006    0.0000    0.0000    0.0121

               lamina:  7     
              matName:  (blade-shell)
                     s           e11           e22           e12           s11           s22           s12   s11_fcT   s11_fcC   s22_fcT   s22_fcC   s12_fcS
                   (m)         (m/m)         (m/m)         (rad)          (Pa)          (Pa)          (Pa)       (-)       (-)       (-)       (-)       (-)
                0.0000   1.3977e-004  -4.9261e-005   8.0393e-005   3.9539e+006   1.0112e+005   5.6275e+005    0.0275   -0.0000    0.0000   -0.0000    0.0094
                0.0727   1.3418e-004  -4.7340e-005   8.2731e-005   3.7955e+006   9.6349e+004   5.7911e+005    0.0264   -0.0000    0.0000   -0.0000    0.0097
                0.4063   1.0128e-004  -3.5707e-005   9.1933e-005   2.8652e+006   7.3134e+004   6.4353e+005    0.0199   -0.0000    0.0000   -0.0000    0.0107
                0.7453   6.7633e-005  -2.3830e-005   9.8681e-005   1.9133e+006   4.9049e+004   6.9076e+005    0.0133   -0.0000    0.0000   -0.0000    0.0115
                1.0903   3.2625e-005  -1.1462e-005   1.0280e-004   9.2315e+005   2.4155e+004   7.1960e+005    0.0064   -0.0000    0.0000   -0.0000    0.0120
                1.4410  -4.3482e-006   1.6432e-006   1.0412e-004  -1.2233e+005  -1.4620e+003   7.2881e+005    0.0000    0.0006    0.0000    0.0000    0.0121
                1.4621  -4.8164e-006   1.7401e-006   1.0410e-004  -1.3599e+005  -2.8370e+003   7.2872e+005    0.0000    0.0006    0.0000    0.0000    0.0121

            panel:  3     
           lam_num    nPlies        tPly      fibAng     matID  matName
               (-)       (-)         (m)       (deg)       (-)  (-)
                 1         1    0.005000      0.0000         2  (blade-shell)
                 2         1    0.043931      0.0000         1  (blade-root)
                 3         1    0.027052      0.0000         6  (TEP-core)
                 4         1    0.043931      0.0000         1  (blade-root)
                 5         1    0.005000      0.0000         2  (blade-shell)

               lamina:  1     
              matName:  (blade-shell)
                     s           e11           e22           e12           s11           s22           s12   s11_fcT   s11_fcC   s22_fcT   s22_fcC   s12_fcS
                   (m)         (m/m)         (m/m)         (rad)          (Pa)          (Pa)          (Pa)       (-)       (-)       (-)       (-)       (-)
                0.0000  -3.6546e-006   1.4598e-006   1.3195e-004  -1.0234e+005  -3.1503e+001   9.2368e+005    0.0000    0.0005    0.0000    0.0000    0.0154
                0.0081  -4.5371e-006   1.8123e-006   1.3195e-004  -1.2705e+005  -3.8437e+001   9.2364e+005    0.0000    0.0006    0.0000    0.0000    0.0154

               lamina:  2     
              matName:  (blade-root)
                     s           e11           e22           e12           s11           s22           s12   s11_fcT   s11_fcC   s22_fcT   s22_fcC   s12_fcS
                   (m)         (m/m)         (m/m)         (rad)          (Pa)          (Pa)          (Pa)       (-)       (-)       (-)       (-)       (-)
                0.0000  -3.9364e-006   1.5725e-006   1.3195e-004  -1.1023e+005  -3.1586e+001   9.2368e+005    0.0000    0.0005    0.0000    0.0000    0.0154
                0.0081  -4.8189e-006   1.9250e-006   1.3195e-004  -1.3494e+005  -3.8520e+001   9.2364e+005    0.0000    0.0006    0.0000    0.0000    0.0154

               lamina:  3     
              matName:  (TEP-core)
                     s           e11           e22           e12           s11           s22           s12   s11_fcT   s11_fcC   s22_fcT   s22_fcC   s12_fcS
                   (m)         (m/m)         (m/m)         (rad)          (Pa)          (Pa)          (Pa)       (-)       (-)       (-)       (-)       (-)
                0.0000  -4.1100e-006   1.6419e-006   1.3195e-004  -1.0335e+003   1.1683e+002   2.6391e+003    0.0000    0.0000    0.0000   -0.0000    0.0000
                0.0081  -4.9925e-006   1.9945e-006   1.3195e-004  -1.2555e+003   1.4192e+002   2.6390e+003    0.0000    0.0000    0.0000   -0.0000    0.0000

               lamina:  4     
              matName:  (blade-root)
                     s           e11           e22           e12           s11           s22           s12   s11_fcT   s11_fcC   s22_fcT   s22_fcC   s12_fcS
                   (m)         (m/m)         (m/m)         (rad)          (Pa)          (Pa)          (Pa)       (-)       (-)       (-)       (-)       (-)
                0.0000  -4.3918e-006   1.7546e-006   1.3195e-004  -1.2298e+005  -3.1720e+001   9.2368e+005    0.0000    0.0006    0.0000    0.0000    0.0154
                0.0081  -5.2743e-006   2.1072e-006   1.3195e-004  -1.4770e+005  -3.8653e+001   9.2364e+005    0.0000    0.0007    0.0000    0.0000    0.0154

               lamina:  5     
              matName:  (blade-shell)
                     s           e11           e22           e12           s11           s22           s12   s11_fcT   s11_fcC   s22_fcT   s22_fcC   s12_fcS
                   (m)         (m/m)         (m/m)         (rad)          (Pa)          (Pa)          (Pa)       (-)       (-)       (-)       (-)       (-)
                0.0000  -4.4239e-006   1.7675e-006   1.3195e-004  -1.2388e+005  -3.1729e+001   9.2368e+005    0.0000    0.0006    0.0000    0.0000    0.0154
                0.0081  -5.3064e-006   2.1200e-006   1.3195e-004  -1.4859e+005  -3.8663e+001   9.2364e+005    0.0000    0.0007    0.0000    0.0000    0.0154

            panel:  4     
           lam_num    nPlies        tPly      fibAng     matID  matName
               (-)       (-)         (m)       (deg)       (-)  (-)
                 1         1    0.005000      0.0000         2  (blade-shell)
                 2         1    0.043931      0.0000         1  (blade-root)
                 3         1    0.027052      0.0000         6  (TEP-core)
                 4         1    0.043931      0.0000         1  (blade-root)
                 5         1    0.005000      0.0000         2  (blade-shell)

               lamina:  1     
              matName:  (blade-shell)
                     s           e11           e22           e12           s11           s22           s12   s11_fcT   s11_fcC   s22_fcT   s22_fcC   s12_fcS
                   (m)         (m/m)         (m/m)         (rad)          (Pa)          (Pa)          (Pa)       (-)       (-)       (-)       (-)       (-)
                0.0000  -4.5371e-006   1.8123e-006   1.2965e-004  -1.2705e+005  -3.8437e+001   9.0758e+005    0.0000    0.0006    0.0000    0.0000    0.0151
                0.3184  -3.9478e-005   1.5771e-005   1.2965e-004  -1.1055e+006  -3.0963e+002   9.0754e+005    0.0000    0.0052    0.0000    0.0000    0.0151
                0.6668  -7.8057e-005   3.1183e-005   1.2965e-004  -2.1858e+006  -6.0652e+002   9.0754e+005    0.0000    0.0103    0.0000    0.0000    0.0151
                1.0087  -1.1586e-004   4.6286e-005   1.2864e-004  -3.2445e+006  -8.9703e+002   9.0046e+005    0.0000    0.0152    0.0000    0.0000    0.0150
                1.3422  -1.5255e-004   6.0942e-005   1.2573e-004  -4.2719e+006  -1.1786e+003   8.8010e+005    0.0000    0.0201    0.0000    0.0000    0.0147
                1.6636  -1.8758e-004   7.4937e-005   1.2105e-004  -5.2528e+006  -1.4475e+003   8.4732e+005    0.0000    0.0247    0.0000    0.0000    0.0141
                1.9690  -2.2063e-004   8.8140e-005   1.1474e-004  -6.1783e+006  -1.7002e+003   8.0318e+005    0.0000    0.0290    0.0000    0.0000    0.0134
                2.2575  -2.5139e-004   1.0043e-004   1.0705e-004  -7.0398e+006  -1.9343e+003   7.4936e+005    0.0000    0.0331    0.0000    0.0000    0.0125
                2.5250  -2.7945e-004   1.1164e-004   9.8297e-005  -7.8255e+006  -2.1465e+003   6.8808e+005    0.0000    0.0367    0.0000    0.0000    0.0115
                2.7704  -3.0464e-004   1.2170e-004   8.8749e-005  -8.5308e+006  -2.3345e+003   6.2124e+005    0.0000    0.0401    0.0000    0.0000    0.0104
                2.9950  -3.2665e-004   1.3050e-004   7.8807e-005  -9.1473e+006  -2.4969e+003   5.5165e+005    0.0000    0.0429    0.0000    0.0000    0.0092
                3.1920  -3.4527e-004   1.3793e-004   6.8793e-005  -9.6686e+006  -2.6297e+003   4.8155e+005    0.0000    0.0454    0.0000    0.0000    0.0080
                3.3801  -3.6052e-004   1.4403e-004   5.8915e-005  -1.0096e+007  -2.7367e+003   4.1241e+005    0.0000    0.0474    0.0000    0.0000    0.0069
                3.5345  -3.7148e-004   1.4841e-004   4.9721e-005  -1.0402e+007  -2.8103e+003   3.4805e+005    0.0000    0.0488    0.0000    0.0000    0.0058
                3.6962  -3.7838e-004   1.5116e-004   4.0530e-005  -1.0596e+007  -2.8590e+003   2.8371e+005    0.0000    0.0497    0.0000    0.0000    0.0047

               lamina:  2     
              matName:  (blade-root)
                     s           e11           e22           e12           s11           s22           s12   s11_fcT   s11_fcC   s22_fcT   s22_fcC   s12_fcS
                   (m)         (m/m)         (m/m)         (rad)          (Pa)          (Pa)          (Pa)       (-)       (-)       (-)       (-)       (-)
                0.0000  -4.8189e-006   1.9250e-006   1.2965e-004  -1.3494e+005  -3.8520e+001   9.0758e+005    0.0000    0.0006    0.0000    0.0000    0.0151
                0.3184  -3.9472e-005   1.5769e-005   1.2965e-004  -1.1054e+006  -3.0963e+002   9.0754e+005    0.0000    0.0052    0.0000    0.0000    0.0151
                0.6668  -7.7985e-005   3.1154e-005   1.2965e-004  -2.1838e+006  -6.0650e+002   9.0754e+005    0.0000    0.0103    0.0000    0.0000    0.0151
                1.0087  -1.1572e-004   4.6230e-005   1.2864e-004  -3.2406e+006  -8.9699e+002   9.0046e+005    0.0000    0.0152    0.0000    0.0000    0.0150
                1.3422  -1.5234e-004   6.0858e-005   1.2573e-004  -4.2659e+006  -1.1785e+003   8.8010e+005    0.0000    0.0200    0.0000    0.0000    0.0147
                1.6636  -1.8730e-004   7.4826e-005   1.2105e-004  -5.2450e+006  -1.4475e+003   8.4732e+005    0.0000    0.0246    0.0000    0.0000    0.0141
                1.9690  -2.2028e-004   8.7999e-005   1.1474e-004  -6.1684e+006  -1.7001e+003   8.0318e+005    0.0000    0.0290    0.0000    0.0000    0.0134
                2.2575  -2.5096e-004   1.0026e-004   1.0705e-004  -7.0277e+006  -1.9342e+003   7.4936e+005    0.0000    0.0330    0.0000    0.0000    0.0125
                2.5250  -2.7893e-004   1.1143e-004   9.8297e-005  -7.8109e+006  -2.1464e+003   6.8808e+005    0.0000    0.0367    0.0000    0.0000    0.0115
                2.7704  -3.0401e-004   1.2145e-004   8.8749e-005  -8.5133e+006  -2.3343e+003   6.2124e+005    0.0000    0.0400    0.0000    0.0000    0.0104
                2.9950  -3.2592e-004   1.3020e-004   7.8807e-005  -9.1267e+006  -2.4967e+003   5.5165e+005    0.0000    0.0428    0.0000    0.0000    0.0092
                3.1920  -3.4439e-004   1.3758e-004   6.8793e-005  -9.6439e+006  -2.6294e+003   4.8155e+005    0.0000    0.0453    0.0000    0.0000    0.0080
                3.3801  -3.5950e-004   1.4362e-004   5.8915e-005  -1.0067e+007  -2.7364e+003   4.1241e+005    0.0000    0.0473    0.0000    0.0000    0.0069
                3.5345  -3.7033e-004   1.4795e-004   4.9721e-005  -1.0370e+007  -2.8100e+003   3.4805e+005    0.0000    0.0487    0.0000    0.0000    0.0058
                3.6962  -3.7717e-004   1.5068e-004   4.0530e-005  -1.0562e+007  -2.8587e+003   2.8371e+005    0.0000    0.0496    0.0000    0.0000    0.0047

               lamina:  3     
              matName:  (TEP-core)
                     s           e11           e22           e12           s11           s22           s12   s11_fcT   s11_fcC   s22_fcT   s22_fcC   s12_fcS
                   (m)         (m/m)         (m/m)         (rad)          (Pa)          (Pa)          (Pa)       (-)       (-)       (-)       (-)       (-)
                0.0000  -4.9925e-006   1.9945e-006   1.2965e-004  -1.2555e+003   1.4192e+002   2.5931e+003    0.0000    0.0000    0.0000   -0.0000    0.0000
                0.3184  -3.9420e-005   1.5748e-005   1.2965e-004  -9.9131e+003   1.1205e+003   2.5930e+003    0.0000    0.0000    0.0000   -0.0000    0.0000
                0.6668  -7.7353e-005   3.0901e-005   1.2965e-004  -1.9452e+004   2.1987e+003   2.5930e+003    0.0000    0.0000    0.0000   -0.0000    0.0000
                1.0087  -1.1448e-004   4.5734e-005   1.2864e-004  -2.8789e+004   3.2541e+003   2.5728e+003    0.0000    0.0000    0.0000   -0.0000    0.0000
                1.3422  -1.5048e-004   6.0113e-005   1.2573e-004  -3.7840e+004   4.2772e+003   2.5146e+003    0.0000    0.0000    0.0000   -0.0000    0.0000
                1.6636  -1.8485e-004   7.3846e-005   1.2105e-004  -4.6486e+004   5.2544e+003   2.4209e+003    0.0000    0.0000    0.0000   -0.0000    0.0000
                1.9690  -2.1717e-004   8.6757e-005   1.1474e-004  -5.4613e+004   6.1730e+003   2.2948e+003    0.0000    0.0000    0.0000   -0.0000    0.0000
                2.2575  -2.4715e-004   9.8733e-005   1.0705e-004  -6.2152e+004   7.0252e+003   2.1410e+003    0.0000    0.0000    0.0000   -0.0000    0.0000
                2.5250  -2.7436e-004   1.0960e-004   9.8297e-005  -6.8993e+004   7.7985e+003   1.9659e+003    0.0000    0.0000    0.0000   -0.0000    0.0000
                2.7704  -2.9851e-004   1.1925e-004   8.8749e-005  -7.5067e+004   8.4851e+003   1.7750e+003    0.0000    0.0000    0.0000   -0.0000    0.0000
                2.9950  -3.1943e-004   1.2761e-004   7.8807e-005  -8.0328e+004   9.0798e+003   1.5761e+003    0.0000    0.0000    0.0000   -0.0000    0.0000
                3.1920  -3.3665e-004   1.3449e-004   6.8793e-005  -8.4658e+004   9.5693e+003   1.3759e+003    0.0000    0.0000    0.0000   -0.0000    0.0000
                3.3801  -3.5058e-004   1.4005e-004   5.8915e-005  -8.8161e+004   9.9652e+003   1.1783e+003    0.0000    0.0000    0.0000   -0.0000    0.0000
                3.5345  -3.6024e-004   1.4391e-004   4.9721e-005  -9.0592e+004   1.0240e+004   9.9442e+002    0.0000    0.0000    0.0000   -0.0000    0.0000
                3.6962  -3.6657e-004   1.4644e-004   4.0530e-005  -9.2182e+004   1.0420e+004   8.1061e+002    0.0000    0.0000    0.0000   -0.0000    0.0000

               lamina:  4     
              matName:  (blade-root)
                     s           e11           e22           e12           s11           s22           s12   s11_fcT   s11_fcC   s22_fcT   s22_fcC   s12_fcS
                   (m)         (m/m)         (m/m)         (rad)          (Pa)          (Pa)          (Pa)       (-)       (-)       (-)       (-)       (-)
                0.0000  -5.2743e-006   2.1072e-006   1.2965e-004  -1.4770e+005  -3.8653e+001   9.0758e+005    0.0000    0.0007    0.0000    0.0000    0.0151
                0.3184  -3.9388e-005   1.5735e-005   1.2965e-004  -1.1030e+006  -3.0961e+002   9.0754e+005    0.0000    0.0052    0.0000    0.0000    0.0151
                0.6668  -7.6964e-005   3.0746e-005   1.2965e-004  -2.1552e+006  -6.0620e+002   9.0754e+005    0.0000    0.0101    0.0000    0.0000    0.0151
                1.0087  -1.1372e-004   4.5428e-005   1.2864e-004  -3.1845e+006  -8.9640e+002   9.0046e+005    0.0000    0.0150    0.0000    0.0000    0.0150
                1.3422  -1.4933e-004   5.9654e-005   1.2573e-004  -4.1817e+006  -1.1777e+003   8.8010e+005    0.0000    0.0196    0.0000    0.0000    0.0147
                1.6636  -1.8335e-004   7.3244e-005   1.2105e-004  -5.1343e+006  -1.4463e+003   8.4732e+005    0.0000    0.0241    0.0000    0.0000    0.0141
                1.9690  -2.1526e-004   8.5993e-005   1.1474e-004  -6.0280e+006  -1.6986e+003   8.0318e+005    0.0000    0.0283    0.0000    0.0000    0.0134
                2.2575  -2.4480e-004   9.7795e-005   1.0705e-004  -6.8553e+006  -1.9324e+003   7.4936e+005    0.0000    0.0322    0.0000    0.0000    0.0125
                2.5250  -2.7154e-004   1.0848e-004   9.8297e-005  -7.6040e+006  -2.1442e+003   6.8808e+005    0.0000    0.0357    0.0000    0.0000    0.0115
                2.7704  -2.9512e-004   1.1790e-004   8.8749e-005  -8.2644e+006  -2.3317e+003   6.2124e+005    0.0000    0.0388    0.0000    0.0000    0.0104
                2.9950  -3.1544e-004   1.2601e-004   7.8807e-005  -8.8333e+006  -2.4936e+003   5.5165e+005    0.0000    0.0415    0.0000    0.0000    0.0092
                3.1920  -3.3189e-004   1.3258e-004   6.8793e-005  -9.2938e+006  -2.6257e+003   4.8155e+005    0.0000    0.0436    0.0000    0.0000    0.0080
                3.3801  -3.4508e-004   1.3785e-004   5.8915e-005  -9.6634e+006  -2.7322e+003   4.1241e+005    0.0000    0.0454    0.0000    0.0000    0.0069
                3.5345  -3.5403e-004   1.4143e-004   4.9721e-005  -9.9141e+006  -2.8052e+003   3.4805e+005    0.0000    0.0465    0.0000    0.0000    0.0058
                3.6962  -3.6004e-004   1.4383e-004   4.0530e-005  -1.0082e+007  -2.8536e+003   2.8371e+005    0.0000    0.0473    0.0000    0.0000    0.0047

               lamina:  5     
              matName:  (blade-shell)
                     s           e11           e22           e12           s11           s22           s12   s11_fcT   s11_fcC   s22_fcT   s22_fcC   s12_fcS
                   (m)         (m/m)         (m/m)         (rad)          (Pa)          (Pa)          (Pa)       (-)       (-)       (-)       (-)       (-)
                0.0000  -5.3064e-006   2.1200e-006   1.2965e-004  -1.4859e+005  -3.8663e+001   9.0758e+005    0.0000    0.0007    0.0000    0.0000    0.0151
                0.3184  -3.9336e-005   1.5714e-005   1.2965e-004  -1.1015e+006  -3.0959e+002   9.0754e+005    0.0000    0.0052    0.0000    0.0000    0.0151
                0.6668  -7.6332e-005   3.0493e-005   1.2965e-004  -2.1375e+006  -6.0601e+002   9.0754e+005    0.0000    0.0100    0.0000    0.0000    0.0151
                1.0087  -1.1248e-004   4.4932e-005   1.2864e-004  -3.1497e+006  -8.9604e+002   9.0046e+005    0.0000    0.0148    0.0000    0.0000    0.0150
                1.3422  -1.4747e-004   5.8909e-005   1.2573e-004  -4.1295e+006  -1.1771e+003   8.8010e+005    0.0000    0.0194    0.0000    0.0000    0.0147
                1.6636  -1.8090e-004   7.2264e-005   1.2105e-004  -5.0657e+006  -1.4456e+003   8.4732e+005    0.0000    0.0238    0.0000    0.0000    0.0141
                1.9690  -2.1216e-004   8.4751e-005   1.1474e-004  -5.9411e+006  -1.6977e+003   8.0318e+005    0.0000    0.0279    0.0000    0.0000    0.0134
                2.2575  -2.4099e-004   9.6271e-005   1.0705e-004  -6.7486e+006  -1.9313e+003   7.4936e+005    0.0000    0.0317    0.0000    0.0000    0.0125
                2.5250  -2.6697e-004   1.0665e-004   9.8297e-005  -7.4760e+006  -2.1429e+003   6.8808e+005    0.0000    0.0351    0.0000    0.0000    0.0115
                2.7704  -2.8962e-004   1.1570e-004   8.8749e-005  -8.1103e+006  -2.3301e+003   6.2124e+005    0.0000    0.0381    0.0000    0.0000    0.0104
                2.9950  -3.0896e-004   1.2342e-004   7.8807e-005  -8.6518e+006  -2.4917e+003   5.5165e+005    0.0000    0.0406    0.0000    0.0000    0.0092
                3.1920  -3.2415e-004   1.2949e-004   6.8793e-005  -9.0772e+006  -2.6235e+003   4.8155e+005    0.0000    0.0426    0.0000    0.0000    0.0080
                3.3801  -3.3616e-004   1.3428e-004   5.8915e-005  -9.4135e+006  -2.7296e+003   4.1241e+005    0.0000    0.0442    0.0000    0.0000    0.0069
                3.5345  -3.4395e-004   1.3740e-004   4.9721e-005  -9.6318e+006  -2.8023e+003   3.4805e+005    0.0000    0.0452    0.0000    0.0000    0.0058
                3.6962  -3.4944e-004   1.3959e-004   4.0530e-005  -9.7855e+006  -2.8505e+003   2.8371e+005    0.0000    0.0459    0.0000    0.0000    0.0047

  Bottom:  panel  nNode   nLam     xc_St    xc_End         b         t         E_eff         G_eff      nu_eff     density  buckleCrit
            (-)    (-)    (-)       (-)       (-)       (m)       (m)          (Pa)          (Pa)         (-)    (kg/m^3)         (-)
              1     13      5    0.0000    0.3339    3.3158    0.1249   2.1993e+010   5.4884e+009      0.3995   1492.6655      0.0001
              2      7      7    0.3339    0.5561    1.4711    0.1592   3.3443e+010   5.4591e+009      0.3554   1876.9554      0.0007
              3      2      5    0.5561    0.5572    0.0084    0.1249   2.1993e+010   5.4884e+009      0.3995   1492.6655      0.0000
              4     15      5    0.5572    1.0000    3.6284    0.1249   2.1993e+010   5.4884e+009      0.3995   1492.6655      0.0135

            panel:  1     
           lam_num    nPlies        tPly      fibAng     matID  matName
               (-)       (-)         (m)       (deg)       (-)  (-)
                 1         1    0.005000      0.0000         2  (blade-shell)
                 2         1    0.043931      0.0000         1  (blade-root)
                 3         1    0.027052      0.0000         5  (LEP-core)
                 4         1    0.043931      0.0000         1  (blade-root)
                 5         1    0.005000      0.0000         2  (blade-shell)

               lamina:  1     
              matName:  (blade-shell)
                     s           e11           e22           e12           s11           s22           s12   s11_fcT   s11_fcC   s22_fcT   s22_fcC   s12_fcS
                   (m)         (m/m)         (m/m)         (rad)          (Pa)          (Pa)          (Pa)       (-)       (-)       (-)       (-)       (-)
                0.0000   3.3976e-004  -1.3574e-004   2.4334e-005   9.5144e+006   2.5543e+003   1.7034e+005    0.0661   -0.0000    0.0000   -0.0000    0.0028
                0.2356   3.3112e-004  -1.3228e-004   3.5145e-005   9.2723e+006   2.4893e+003   2.4602e+005    0.0644   -0.0000    0.0000   -0.0000    0.0041
                0.4929   3.1775e-004  -1.2694e-004   4.6570e-005   8.8981e+006   2.3917e+003   3.2599e+005    0.0618   -0.0000    0.0000   -0.0000    0.0054
                0.7461   3.0085e-004  -1.2019e-004   5.7304e-005   8.4247e+006   2.2685e+003   4.0113e+005    0.0585   -0.0000    0.0000   -0.0000    0.0067
                1.0084   2.8043e-004  -1.1203e-004   6.7776e-005   7.8530e+006   2.1181e+003   4.7443e+005    0.0545   -0.0000    0.0000   -0.0000    0.0079
                1.2819   2.5665e-004  -1.0253e-004   7.7882e-005   7.1869e+006   1.9422e+003   5.4518e+005    0.0499   -0.0000    0.0000   -0.0000    0.0091
                1.5625   2.2987e-004  -9.1835e-005   8.7295e-005   6.4372e+006   1.7439e+003   6.1107e+005    0.0447   -0.0000    0.0000   -0.0000    0.0102
                1.8509   2.0050e-004  -8.0098e-005   9.5874e-005   5.6145e+006   1.5254e+003   6.7112e+005    0.0390   -0.0000    0.0000   -0.0000    0.0112
                2.1476   1.6874e-004  -6.7412e-005   1.0348e-004   4.7253e+006   1.2891e+003   7.2434e+005    0.0328   -0.0000    0.0000   -0.0000    0.0121
                2.4491   1.3513e-004  -5.3985e-005   1.0987e-004   3.7841e+006   1.0394e+003   7.6907e+005    0.0263   -0.0000    0.0000   -0.0000    0.0128
                2.7566   1.0005e-004  -3.9969e-005   1.1496e-004   2.8017e+006   7.7895e+002   8.0472e+005    0.0195   -0.0000    0.0000   -0.0000    0.0134
                3.0699   6.4168e-005  -2.5633e-005   1.1864e-004   1.7969e+006   5.1158e+002   8.3051e+005    0.0125   -0.0000    0.0000   -0.0000    0.0138
                3.3158   3.6660e-005  -1.4644e-005   1.2047e-004   1.0266e+006   3.0396e+002   8.4332e+005    0.0071   -0.0000    0.0000   -0.0000    0.0141

               lamina:  2     
              matName:  (blade-root)
                     s           e11           e22           e12           s11           s22           s12   s11_fcT   s11_fcC   s22_fcT   s22_fcC   s12_fcS
                   (m)         (m/m)         (m/m)         (rad)          (Pa)          (Pa)          (Pa)       (-)       (-)       (-)       (-)       (-)
                0.0000   3.3854e-004  -1.3525e-004   2.4334e-005   9.4803e+006   2.5539e+003   1.7034e+005    0.0658   -0.0000    0.0000   -0.0000    0.0028
                0.2356   3.2993e-004  -1.3181e-004   3.5145e-005   9.2390e+006   2.4890e+003   2.4602e+005    0.0642   -0.0000    0.0000   -0.0000    0.0041
                0.4929   3.1664e-004  -1.2650e-004   4.6570e-005   8.8669e+006   2.3914e+003   3.2599e+005    0.0616   -0.0000    0.0000   -0.0000    0.0054
                0.7461   2.9984e-004  -1.1979e-004   5.7304e-005   8.3965e+006   2.2682e+003   4.0113e+005    0.0583   -0.0000    0.0000   -0.0000    0.0067
                1.0084   2.7953e-004  -1.1167e-004   6.7776e-005   7.8277e+006   2.1179e+003   4.7443e+005    0.0544   -0.0000    0.0000   -0.0000    0.0079
                1.2819   2.5586e-004  -1.0222e-004   7.7882e-005   7.1648e+006   1.9420e+003   5.4518e+005    0.0498   -0.0000    0.0000   -0.0000    0.0091
                1.5625   2.2921e-004  -9.1571e-005   8.7295e-005   6.4187e+006   1.7437e+003   6.1107e+005    0.0446   -0.0000    0.0000   -0.0000    0.0102
                1.8509   1.9997e-004  -7.9887e-005   9.5874e-005   5.5997e+006   1.5252e+003   6.7112e+005    0.0389   -0.0000    0.0000   -0.0000    0.0112
                2.1476   1.6835e-004  -6.7256e-005   1.0348e-004   4.7144e+006   1.2890e+003   7.2434e+005    0.0327   -0.0000    0.0000   -0.0000    0.0121
                2.4491   1.3490e-004  -5.3890e-005   1.0987e-004   3.7775e+006   1.0394e+003   7.6907e+005    0.0262   -0.0000    0.0000   -0.0000    0.0128
                2.7566   9.9975e-005  -3.9939e-005   1.1496e-004   2.7996e+006   7.7893e+002   8.0472e+005    0.0194   -0.0000    0.0000   -0.0000    0.0134
                3.0699   6.4916e-005  -2.5933e-005   1.1864e-004   1.8178e+006   5.1180e+002   8.3051e+005    0.0126   -0.0000    0.0000   -0.0000    0.0138
                3.3158   3.8268e-005  -1.5287e-005   1.2047e-004   1.0716e+006   3.0443e+002   8.4332e+005    0.0074   -0.0000    0.0000   -0.0000    0.0141

               lamina:  3     
              matName:  (LEP-core)
                     s           e11           e22           e12           s11           s22           s12   s11_fcT   s11_fcC   s22_fcT   s22_fcC   s12_fcS
                   (m)         (m/m)         (m/m)         (rad)          (Pa)          (Pa)          (Pa)       (-)       (-)       (-)       (-)       (-)
                0.0000   3.2782e-004  -1.3096e-004   2.4334e-005   8.2437e+004  -9.3184e+003   4.8669e+002    0.0000   -0.0000    0.0000    0.0000    0.0000
                0.2356   3.1948e-004  -1.2763e-004   3.5145e-005   8.0341e+004  -9.0813e+003   7.0290e+002    0.0000   -0.0000    0.0000    0.0000    0.0000
                0.4929   3.0688e-004  -1.2259e-004   4.6570e-005   7.7171e+004  -8.7231e+003   9.3139e+002    0.0000   -0.0000    0.0000    0.0000    0.0000
                0.7461   2.9097e-004  -1.1624e-004   5.7304e-005   7.3171e+004  -8.2709e+003   1.1461e+003    0.0000   -0.0000    0.0000    0.0000    0.0000
                1.0084   2.7160e-004  -1.0850e-004   6.7776e-005   6.8299e+004  -7.7202e+003   1.3555e+003    0.0000   -0.0000    0.0000    0.0000    0.0000
                1.2819   2.4895e-004  -9.9451e-005   7.7882e-005   6.2603e+004  -7.0763e+003   1.5576e+003    0.0000   -0.0000    0.0000    0.0000    0.0000
                1.5625   2.2342e-004  -8.9255e-005   8.7295e-005   5.6185e+004  -6.3508e+003   1.7459e+003    0.0000   -0.0000    0.0000    0.0000    0.0000
                1.8509   1.9532e-004  -7.8028e-005   9.5874e-005   4.9117e+004  -5.5519e+003   1.9175e+003    0.0000   -0.0000    0.0000    0.0000    0.0000
                2.1476   1.6494e-004  -6.5890e-005   1.0348e-004   4.1477e+004  -4.6883e+003   2.0695e+003    0.0000   -0.0000    0.0000    0.0000    0.0000
                2.4491   1.3282e-004  -5.3059e-005   1.0987e-004   3.3400e+004  -3.7753e+003   2.1973e+003    0.0000   -0.0000    0.0000    0.0000    0.0000
                2.7566   9.9307e-005  -3.9672e-005   1.1496e-004   2.4973e+004  -2.8227e+003   2.2992e+003    0.0000   -0.0000    0.0000    0.0000    0.0000
                3.0699   6.5376e-005  -2.6117e-005   1.1864e-004   1.6440e+004  -1.8583e+003   2.3729e+003    0.0000   -0.0000    0.0000    0.0000    0.0000
                3.3158   3.9259e-005  -1.5684e-005   1.2047e-004   9.8726e+003  -1.1160e+003   2.4095e+003    0.0000   -0.0000    0.0000    0.0000    0.0000

               lamina:  4     
              matName:  (blade-root)
                     s           e11           e22           e12           s11           s22           s12   s11_fcT   s11_fcC   s22_fcT   s22_fcC   s12_fcS
                   (m)         (m/m)         (m/m)         (rad)          (Pa)          (Pa)          (Pa)       (-)       (-)       (-)       (-)       (-)
                0.0000   3.2122e-004  -1.2832e-004   2.4334e-005   8.9950e+006   2.5489e+003   1.7034e+005    0.0625   -0.0000    0.0000   -0.0000    0.0028
                0.2356   3.1305e-004  -1.2506e-004   3.5145e-005   8.7663e+006   2.4840e+003   2.4602e+005    0.0609   -0.0000    0.0000   -0.0000    0.0041
                0.4929   3.0087e-004  -1.2019e-004   4.6570e-005   8.4252e+006   2.3867e+003   3.2599e+005    0.0585   -0.0000    0.0000   -0.0000    0.0054
                0.7461   2.8551e-004  -1.1405e-004   5.7304e-005   7.9950e+006   2.2640e+003   4.0113e+005    0.0555   -0.0000    0.0000   -0.0000    0.0067
                1.0084   2.6671e-004  -1.0655e-004   6.7776e-005   7.4688e+006   2.1141e+003   4.7443e+005    0.0519   -0.0000    0.0000   -0.0000    0.0079
                1.2819   2.4469e-004  -9.7748e-005   7.7882e-005   6.8520e+006   1.9387e+003   5.4518e+005    0.0476   -0.0000    0.0000   -0.0000    0.0091
                1.5625   2.1986e-004  -8.7829e-005   8.7295e-005   6.1567e+006   1.7410e+003   6.1107e+005    0.0428   -0.0000    0.0000   -0.0000    0.0102
                1.8509   1.9246e-004  -7.6883e-005   9.5874e-005   5.3894e+006   1.5230e+003   6.7112e+005    0.0374   -0.0000    0.0000   -0.0000    0.0112
                2.1476   1.6283e-004  -6.5048e-005   1.0348e-004   4.5598e+006   1.2874e+003   7.2434e+005    0.0317   -0.0000    0.0000   -0.0000    0.0121
                2.4491   1.3154e-004  -5.2547e-005   1.0987e-004   3.6835e+006   1.0384e+003   7.6907e+005    0.0256   -0.0000    0.0000   -0.0000    0.0128
                2.7566   9.8896e-005  -3.9507e-005   1.1496e-004   2.7694e+006   7.7861e+002   8.0472e+005    0.0192   -0.0000    0.0000   -0.0000    0.0134
                3.0699   6.6124e-005  -2.6416e-005   1.1864e-004   1.8517e+006   5.1216e+002   8.3051e+005    0.0129   -0.0000    0.0000   -0.0000    0.0138
                3.3158   4.0868e-005  -1.6327e-005   1.2047e-004   1.1444e+006   3.0520e+002   8.4332e+005    0.0079   -0.0000    0.0000   -0.0000    0.0141

               lamina:  5     
              matName:  (blade-shell)
                     s           e11           e22           e12           s11           s22           s12   s11_fcT   s11_fcC   s22_fcT   s22_fcC   s12_fcS
                   (m)         (m/m)         (m/m)         (rad)          (Pa)          (Pa)          (Pa)       (-)       (-)       (-)       (-)       (-)
                0.0000   3.1049e-004  -1.2403e-004   2.4334e-005   8.6947e+006   2.5457e+003   1.7034e+005    0.0604   -0.0000    0.0000   -0.0000    0.0028
                0.2356   3.0260e-004  -1.2088e-004   3.5145e-005   8.4738e+006   2.4810e+003   2.4602e+005    0.0588   -0.0000    0.0000   -0.0000    0.0041
                0.4929   2.9110e-004  -1.1628e-004   4.6570e-005   8.1518e+006   2.3839e+003   3.2599e+005    0.0566   -0.0000    0.0000   -0.0000    0.0054
                0.7461   2.7663e-004  -1.1050e-004   5.7304e-005   7.7466e+006   2.2614e+003   4.0113e+005    0.0538   -0.0000    0.0000   -0.0000    0.0067
                1.0084   2.5878e-004  -1.0337e-004   6.7776e-005   7.2466e+006   2.1118e+003   4.7443e+005    0.0503   -0.0000    0.0000   -0.0000    0.0079
                1.2819   2.3777e-004  -9.4983e-005   7.7882e-005   6.6585e+006   1.9367e+003   5.4518e+005    0.0462   -0.0000    0.0000   -0.0000    0.0091
                1.5625   2.1407e-004  -8.5513e-005   8.7295e-005   5.9946e+006   1.7393e+003   6.1107e+005    0.0416   -0.0000    0.0000   -0.0000    0.0102
                1.8509   1.8781e-004  -7.5023e-005   9.5874e-005   5.2592e+006   1.5217e+003   6.7112e+005    0.0365   -0.0000    0.0000   -0.0000    0.0112
                2.1476   1.5942e-004  -6.3682e-005   1.0348e-004   4.4642e+006   1.2864e+003   7.2434e+005    0.0310   -0.0000    0.0000   -0.0000    0.0121
                2.4491   1.2946e-004  -5.1716e-005   1.0987e-004   3.6253e+006   1.0378e+003   7.6907e+005    0.0252   -0.0000    0.0000   -0.0000    0.0128
                2.7566   9.8229e-005  -3.9240e-005   1.1496e-004   2.7507e+006   7.7842e+002   8.0472e+005    0.0191   -0.0000    0.0000   -0.0000    0.0134
                3.0699   6.6209e-005  -2.6450e-005   1.1864e-004   1.8541e+006   5.1218e+002   8.3051e+005    0.0129   -0.0000    0.0000   -0.0000    0.0138
                3.3158   4.1051e-005  -1.6400e-005   1.2047e-004   1.1496e+006   3.0525e+002   8.4332e+005    0.0080   -0.0000    0.0000   -0.0000    0.0141

            panel:  2     
           lam_num    nPlies        tPly      fibAng     matID  matName
               (-)       (-)         (m)       (deg)       (-)  (-)
                 1         1    0.005000      0.0000         2  (blade-shell)
                 2         1    0.043931      0.0000         1  (blade-root)
                 3         1    0.030659      0.0000         3  (spar-uni)
                 4         1    0.000001      0.0000         4  (spar-core)
                 5         1    0.030659      0.0000         3  (spar-uni)
                 6         1    0.043931      0.0000         1  (blade-root)
                 7         1    0.005000      0.0000         2  (blade-shell)

               lamina:  1     
              matName:  (blade-shell)
                     s           e11           e22           e12           s11           s22           s12   s11_fcT   s11_fcC   s22_fcT   s22_fcC   s12_fcS
                   (m)         (m/m)         (m/m)         (rad)          (Pa)          (Pa)          (Pa)       (-)       (-)       (-)       (-)       (-)
                0.0000   3.5031e-005  -1.2297e-005   9.6901e-005   9.9132e+005   2.6104e+004   6.7831e+005    0.0069   -0.0000    0.0000   -0.0000    0.0113
                0.0704   2.4987e-005  -8.6330e-006   9.7444e-005   7.0794e+005   2.0725e+004   6.8211e+005    0.0049   -0.0000    0.0000   -0.0000    0.0114
                0.4021  -1.2370e-005   4.7400e-006   9.8464e-005  -3.4763e+005  -3.1650e+003   6.8925e+005    0.0000    0.0016    0.0000    0.0000    0.0115
                0.7413  -4.9575e-005   1.8067e-005   9.6935e-005  -1.3988e+006  -2.6835e+004   6.7855e+005    0.0000    0.0066    0.0000    0.0000    0.0113
                1.0905  -8.5874e-005   3.1050e-005   9.2739e-005  -2.4246e+006  -5.0218e+004   6.4917e+005    0.0000    0.0114    0.0000    0.0000    0.0108
                1.4489  -1.2065e-004   4.3447e-005   8.5769e-005  -3.4075e+006  -7.3244e+004   6.0039e+005    0.0000    0.0160    0.0000    0.0000    0.0100
                1.4711  -1.2409e-004   4.4725e-005   8.5250e-005  -3.5045e+006  -7.4752e+004   5.9675e+005    0.0000    0.0165    0.0000    0.0000    0.0099

               lamina:  2     
              matName:  (blade-root)
                     s           e11           e22           e12           s11           s22           s12   s11_fcT   s11_fcC   s22_fcT   s22_fcC   s12_fcS
                   (m)         (m/m)         (m/m)         (rad)          (Pa)          (Pa)          (Pa)       (-)       (-)       (-)       (-)       (-)
                0.0000   3.7385e-005  -1.3223e-005   9.6901e-005   1.0573e+006   2.6337e+004   6.7831e+005    0.0073   -0.0000    0.0000   -0.0000    0.0113
                0.0704   2.8804e-005  -1.0135e-005   9.7444e-005   8.1496e+005   2.1103e+004   6.8211e+005    0.0057   -0.0000    0.0000   -0.0000    0.0114
                0.4021  -1.1803e-005   4.5170e-006   9.8464e-005  -3.3173e+005  -3.1089e+003   6.8925e+005    0.0000    0.0016    0.0000    0.0000    0.0115
                0.7413  -4.8836e-005   1.7776e-005   9.6935e-005  -1.3781e+006  -2.6762e+004   6.7855e+005    0.0000    0.0065    0.0000    0.0000    0.0113
                1.0905  -8.4998e-005   3.0705e-005   9.2739e-005  -2.4000e+006  -5.0131e+004   6.4917e+005    0.0000    0.0113    0.0000    0.0000    0.0108
                1.4489  -1.1971e-004   4.3077e-005   8.5769e-005  -3.3811e+006  -7.3151e+004   6.0039e+005    0.0000    0.0159    0.0000    0.0000    0.0100
                1.4711  -1.2306e-004   4.4320e-005   8.5250e-005  -3.4756e+006  -7.4651e+004   5.9675e+005    0.0000    0.0163    0.0000    0.0000    0.0099

               lamina:  3     
              matName:  (spar-uni)
                     s           e11           e22           e12           s11           s22           s12   s11_fcT   s11_fcC   s22_fcT   s22_fcC   s12_fcS
                   (m)         (m/m)         (m/m)         (rad)          (Pa)          (Pa)          (Pa)       (-)       (-)       (-)       (-)       (-)
                0.0000   3.9027e-005  -1.3870e-005   9.6901e-005   1.6273e+006  -4.2292e+004   2.9070e+005    0.0017   -0.0000    0.0000    0.0000    0.0097
                0.0704   3.1468e-005  -1.1183e-005   9.7444e-005   1.3121e+006  -3.4100e+004   2.9233e+005    0.0013   -0.0000    0.0000    0.0000    0.0097
                0.4021  -6.8226e-006   2.5571e-006   9.8464e-005  -2.8395e+005   9.2980e+003   2.9539e+005    0.0000    0.0004    0.0000   -0.0000    0.0098
                0.7413  -4.2341e-005   1.5220e-005   9.6935e-005  -1.7648e+006   4.8366e+004   2.9081e+005    0.0000    0.0025    0.0000   -0.0000    0.0097
                1.0905  -7.7300e-005   2.7676e-005   9.2739e-005  -3.2223e+006   8.6710e+004   2.7822e+005    0.0000    0.0046    0.0000   -0.0000    0.0093
                1.4489  -1.1145e-004   3.9828e-005   8.5769e-005  -4.6464e+006   1.2393e+005   2.5731e+005    0.0000    0.0066    0.0000   -0.0000    0.0086
                1.4711  -1.1402e-004   4.0761e-005   8.5250e-005  -4.7532e+006   1.2702e+005   2.5575e+005    0.0000    0.0068    0.0000   -0.0000    0.0085

               lamina:  4     
              matName:  (spar-core)
                     s           e11           e22           e12           s11           s22           s12   s11_fcT   s11_fcC   s22_fcT   s22_fcC   s12_fcS
                   (m)         (m/m)         (m/m)         (rad)          (Pa)          (Pa)          (Pa)       (-)       (-)       (-)       (-)       (-)
                0.0000   3.9027e-005  -1.3870e-005   9.6901e-005   9.9619e+003  -6.1753e+002   1.9380e+003    0.0000   -0.0000    0.0000    0.0000    0.0000
                0.0704   3.1468e-005  -1.1183e-005   9.7444e-005   8.0323e+003  -4.9792e+002   1.9489e+003    0.0000   -0.0000    0.0000    0.0000    0.0000
                0.4021  -3.3467e-006   1.1893e-006   9.8464e-005  -8.5425e+002   5.2955e+001   1.9693e+003    0.0000    0.0000    0.0000   -0.0000    0.0000
                0.7413  -3.7808e-005   1.3436e-005   9.6935e-005  -9.6505e+003   5.9823e+002   1.9387e+003    0.0000    0.0000    0.0000   -0.0000    0.0000
                1.0905  -7.1928e-005   2.5562e-005   9.2739e-005  -1.8360e+004   1.1381e+003   1.8548e+003    0.0000    0.0000    0.0000   -0.0000    0.0000
                1.4489  -1.0569e-004   3.7561e-005   8.5769e-005  -2.6979e+004   1.6724e+003   1.7154e+003    0.0000    0.0000    0.0000   -0.0000    0.0000
                1.4711  -1.0771e-004   3.8277e-005   8.5250e-005  -2.7492e+004   1.7042e+003   1.7050e+003    0.0000    0.0000    0.0000   -0.0000    0.0000

               lamina:  5     
              matName:  (spar-uni)
                     s           e11           e22           e12           s11           s22           s12   s11_fcT   s11_fcC   s22_fcT   s22_fcC   s12_fcS
                   (m)         (m/m)         (m/m)         (rad)          (Pa)          (Pa)          (Pa)       (-)       (-)       (-)       (-)       (-)
                0.0000   4.0670e-005  -1.4516e-005   9.6901e-005   1.6956e+006  -4.4972e+004   2.9070e+005    0.0017   -0.0000    0.0000    0.0000    0.0097
                0.0704   3.4132e-005  -1.2231e-005   9.7444e-005   1.4228e+006  -3.8446e+004   2.9233e+005    0.0015   -0.0000    0.0000    0.0000    0.0097
                0.4021  -3.3466e-006   1.1893e-006   9.8464e-005  -1.3954e+005   3.6265e+003   2.9539e+005    0.0000    0.0002    0.0000   -0.0000    0.0098
                0.7413  -3.7808e-005   1.3436e-005   9.6935e-005  -1.5764e+006   4.0970e+004   2.9081e+005    0.0000    0.0022    0.0000   -0.0000    0.0097
                1.0905  -7.1928e-005   2.5562e-005   9.2739e-005  -2.9991e+006   7.7944e+004   2.7822e+005    0.0000    0.0043    0.0000   -0.0000    0.0093
                1.4489  -1.0569e-004   3.7561e-005   8.5769e-005  -4.4070e+006   1.1453e+005   2.5731e+005    0.0000    0.0063    0.0000   -0.0000    0.0086
                1.4711  -1.0771e-004   3.8276e-005   8.5250e-005  -4.4910e+006   1.1671e+005   2.5575e+005    0.0000    0.0064    0.0000   -0.0000    0.0085

               lamina:  6     
              matName:  (blade-root)
                     s           e11           e22           e12           s11           s22           s12   s11_fcT   s11_fcC   s22_fcT   s22_fcC   s12_fcS
                   (m)         (m/m)         (m/m)         (rad)          (Pa)          (Pa)          (Pa)       (-)       (-)       (-)       (-)       (-)
                0.0000   4.3024e-005  -1.5442e-005   9.6901e-005   1.2154e+006   2.6895e+004   6.7831e+005    0.0084   -0.0000    0.0000   -0.0000    0.0113
                0.0704   3.7948e-005  -1.3733e-005   9.7444e-005   1.0714e+006   2.2008e+004   6.8211e+005    0.0074   -0.0000    0.0000   -0.0000    0.0114
                0.4021   5.1099e-006  -2.1383e-006   9.8464e-005   1.4250e+005  -1.9285e+003   6.8925e+005    0.0010   -0.0000    0.0000    0.0000    0.0115
                0.7413  -3.3274e-005   1.1652e-005   9.6935e-005  -9.4177e+005  -2.5223e+004   6.7855e+005    0.0000    0.0044    0.0000    0.0000    0.0113
                1.0905  -6.6555e-005   2.3448e-005   9.2739e-005  -1.8829e+006  -4.8307e+004   6.4917e+005    0.0000    0.0088    0.0000    0.0000    0.0108
                1.4489  -9.9932e-005   3.5294e-005   8.5769e-005  -2.8266e+006  -7.1195e+004   6.0039e+005    0.0000    0.0133    0.0000    0.0000    0.0100
                1.4711  -1.0139e-004   3.5792e-005   8.5250e-005  -2.8680e+006  -7.2507e+004   5.9675e+005    0.0000    0.0135    0.0000    0.0000    0.0099

               lamina:  7     
              matName:  (blade-shell)
                     s           e11           e22           e12           s11           s22           s12   s11_fcT   s11_fcC   s22_fcT   s22_fcC   s12_fcS
                   (m)         (m/m)         (m/m)         (rad)          (Pa)          (Pa)          (Pa)       (-)       (-)       (-)       (-)       (-)
                0.0000   4.3292e-005  -1.5548e-005   9.6901e-005   1.2229e+006   2.6921e+004   6.7831e+005    0.0085   -0.0000    0.0000   -0.0000    0.0113
                0.0704   3.8383e-005  -1.3904e-005   9.7444e-005   1.0835e+006   2.2051e+004   6.8211e+005    0.0075   -0.0000    0.0000   -0.0000    0.0114
                0.4021   5.6767e-006  -2.3614e-006   9.8464e-005   1.5840e+005  -1.4358e+003   6.8925e+005    0.0011   -0.0000    0.0000    0.0000    0.0115
                0.7413  -2.6779e-005   9.0964e-006   9.6935e-005  -7.5965e+005  -2.4580e+004   6.7855e+005    0.0000    0.0036    0.0000    0.0000    0.0113
                1.0905  -5.8857e-005   2.0418e-005   9.2739e-005  -1.6670e+006  -4.7545e+004   6.4917e+005    0.0000    0.0078    0.0000    0.0000    0.0108
                1.4489  -9.1676e-005   3.2046e-005   8.5769e-005  -2.5951e+006  -7.0378e+004   6.0039e+005    0.0000    0.0122    0.0000    0.0000    0.0100
                1.4711  -9.2348e-005   3.2233e-005   8.5250e-005  -2.6144e+006  -7.1612e+004   5.9675e+005    0.0000    0.0123    0.0000    0.0000    0.0099

            panel:  3     
           lam_num    nPlies        tPly      fibAng     matID  matName
               (-)       (-)         (m)       (deg)       (-)  (-)
                 1         1    0.005000      0.0000         2  (blade-shell)
                 2         1    0.043931      0.0000         1  (blade-root)
                 3         1    0.027052      0.0000         6  (TEP-core)
                 4         1    0.043931      0.0000         1  (blade-root)
                 5         1    0.005000      0.0000         2  (blade-shell)

               lamina:  1     
              matName:  (blade-shell)
                     s           e11           e22           e12           s11           s22           s12   s11_fcT   s11_fcC   s22_fcT   s22_fcC   s12_fcS
                   (m)         (m/m)         (m/m)         (rad)          (Pa)          (Pa)          (Pa)       (-)       (-)       (-)       (-)       (-)
                0.0000  -1.1751e-004   4.6947e-005   1.0806e-004  -3.2906e+006  -8.5681e+002   7.5640e+005    0.0000    0.0154    0.0000    0.0000    0.0126
                0.0084  -1.1827e-004   4.7251e-005   1.0793e-004  -3.3119e+006  -8.6278e+002   7.5548e+005    0.0000    0.0155    0.0000    0.0000    0.0126

               lamina:  2     
              matName:  (blade-root)
                     s           e11           e22           e12           s11           s22           s12   s11_fcT   s11_fcC   s22_fcT   s22_fcC   s12_fcS
                   (m)         (m/m)         (m/m)         (rad)          (Pa)          (Pa)          (Pa)       (-)       (-)       (-)       (-)       (-)
                0.0000  -1.1681e-004   4.6666e-005   1.0806e-004  -3.2709e+006  -8.5660e+002   7.5640e+005    0.0000    0.0154    0.0000    0.0000    0.0126
                0.0084  -1.1757e-004   4.6970e-005   1.0793e-004  -3.2922e+006  -8.6258e+002   7.5548e+005    0.0000    0.0155    0.0000    0.0000    0.0126

               lamina:  3     
              matName:  (TEP-core)
                     s           e11           e22           e12           s11           s22           s12   s11_fcT   s11_fcC   s22_fcT   s22_fcC   s12_fcS
                   (m)         (m/m)         (m/m)         (rad)          (Pa)          (Pa)          (Pa)       (-)       (-)       (-)       (-)       (-)
                0.0000  -1.1062e-004   4.4193e-005   1.0806e-004  -2.7818e+004   3.1446e+003   2.1611e+003    0.0000    0.0000    0.0000   -0.0000    0.0000
                0.0084  -1.1138e-004   4.4496e-005   1.0793e-004  -2.8010e+004   3.1662e+003   2.1585e+003    0.0000    0.0000    0.0000   -0.0000    0.0000

               lamina:  4     
              matName:  (blade-root)
                     s           e11           e22           e12           s11           s22           s12   s11_fcT   s11_fcC   s22_fcT   s22_fcC   s12_fcS
                   (m)         (m/m)         (m/m)         (rad)          (Pa)          (Pa)          (Pa)       (-)       (-)       (-)       (-)       (-)
                0.0000  -1.0682e-004   4.2670e-005   1.0806e-004  -2.9912e+006  -8.5368e+002   7.5640e+005    0.0000    0.0140    0.0000    0.0000    0.0126
                0.0084  -1.0758e-004   4.2974e-005   1.0793e-004  -3.0124e+006  -8.5965e+002   7.5548e+005    0.0000    0.0141    0.0000    0.0000    0.0126

               lamina:  5     
              matName:  (blade-shell)
                     s           e11           e22           e12           s11           s22           s12   s11_fcT   s11_fcC   s22_fcT   s22_fcC   s12_fcS
                   (m)         (m/m)         (m/m)         (rad)          (Pa)          (Pa)          (Pa)       (-)       (-)       (-)       (-)       (-)
                0.0000  -1.0063e-004   4.0197e-005   1.0806e-004  -2.8180e+006  -8.5186e+002   7.5640e+005    0.0000    0.0132    0.0000    0.0000    0.0126
                0.0084  -1.0139e-004   4.0500e-005   1.0793e-004  -2.8393e+006  -8.5784e+002   7.5548e+005    0.0000    0.0133    0.0000    0.0000    0.0126

            panel:  4     
           lam_num    nPlies        tPly      fibAng     matID  matName
               (-)       (-)         (m)       (deg)       (-)  (-)
                 1         1    0.005000      0.0000         2  (blade-shell)
                 2         1    0.043931      0.0000         1  (blade-root)
                 3         1    0.027052      0.0000         6  (TEP-core)
                 4         1    0.043931      0.0000         1  (blade-root)
                 5         1    0.005000      0.0000         2  (blade-shell)

               lamina:  1     
              matName:  (blade-shell)
                     s           e11           e22           e12           s11           s22           s12   s11_fcT   s11_fcC   s22_fcT   s22_fcC   s12_fcS
                   (m)         (m/m)         (m/m)         (rad)          (Pa)          (Pa)          (Pa)       (-)       (-)       (-)       (-)       (-)
                0.0000  -1.1827e-004   4.7251e-005   1.0953e-004  -3.3119e+006  -8.6278e+002   7.6673e+005    0.0000    0.0155    0.0000    0.0000    0.0128
                0.3274  -1.4834e-004   5.9266e-005   1.0940e-004  -4.1541e+006  -1.0966e+003   7.6582e+005    0.0000    0.0195    0.0000    0.0000    0.0128
                0.6869  -1.8050e-004   7.2113e-005   1.0940e-004  -5.0546e+006  -1.3453e+003   7.6582e+005    0.0000    0.0237    0.0000    0.0000    0.0128
                1.0399  -2.1118e-004   8.4367e-005   1.0357e-004  -5.9136e+006  -1.5829e+003   7.2500e+005    0.0000    0.0278    0.0000    0.0000    0.0121
                1.3821  -2.4008e-004   9.5915e-005   9.5587e-005  -6.7231e+006  -1.8071e+003   6.6911e+005    0.0000    0.0316    0.0000    0.0000    0.0112
                1.7090  -2.6698e-004   1.0666e-004   8.6186e-005  -7.4764e+006  -2.0158e+003   6.0330e+005    0.0000    0.0351    0.0000    0.0000    0.0101
                2.0162  -2.9167e-004   1.1652e-004   7.5631e-005  -8.1677e+006  -2.2071e+003   5.2941e+005    0.0000    0.0383    0.0000    0.0000    0.0088
                2.3006  -3.1389e-004   1.2540e-004   6.4257e-005  -8.7899e+006  -2.3784e+003   4.4980e+005    0.0000    0.0413    0.0000    0.0000    0.0075
                2.5593  -3.3342e-004   1.3320e-004   5.2451e-005  -9.3368e+006  -2.5277e+003   3.6716e+005    0.0000    0.0438    0.0000    0.0000    0.0061
                2.7909  -3.5002e-004   1.3983e-004   4.0583e-005  -9.8016e+006  -2.6525e+003   2.8408e+005    0.0000    0.0460    0.0000    0.0000    0.0047
                2.9962  -3.6339e-004   1.4517e-004   2.9032e-005  -1.0176e+007  -2.7506e+003   2.0322e+005    0.0000    0.0478    0.0000    0.0000    0.0034
                3.1752  -3.7331e-004   1.4914e-004   1.8114e-005  -1.0454e+007  -2.8211e+003   1.2680e+005    0.0000    0.0491    0.0000    0.0000    0.0021
                3.3300  -3.7953e-004   1.5163e-004   8.0191e-006  -1.0628e+007  -2.8629e+003   5.6134e+004    0.0000    0.0499    0.0000    0.0000    0.0009
                3.4750  -3.8140e-004   1.5237e-004   1.0581e-006  -1.0680e+007  -2.8749e+003   7.4069e+003    0.0000    0.0501    0.0000    0.0000    0.0001
                3.6284  -3.7889e-004   1.5137e-004   9.0641e-006  -1.0610e+007  -2.8564e+003   6.3448e+004    0.0000    0.0498    0.0000    0.0000    0.0011

               lamina:  2     
              matName:  (blade-root)
                     s           e11           e22           e12           s11           s22           s12   s11_fcT   s11_fcC   s22_fcT   s22_fcC   s12_fcS
                   (m)         (m/m)         (m/m)         (rad)          (Pa)          (Pa)          (Pa)       (-)       (-)       (-)       (-)       (-)
                0.0000  -1.1757e-004   4.6970e-005   1.0953e-004  -3.2922e+006  -8.6258e+002   7.6673e+005    0.0000    0.0155    0.0000    0.0000    0.0128
                0.3274  -1.4761e-004   5.8974e-005   1.0940e-004  -4.1337e+006  -1.0964e+003   7.6582e+005    0.0000    0.0194    0.0000    0.0000    0.0128
                0.6869  -1.7973e-004   7.1804e-005   1.0940e-004  -5.0330e+006  -1.3451e+003   7.6582e+005    0.0000    0.0236    0.0000    0.0000    0.0128
                1.0399  -2.1037e-004   8.4044e-005   1.0357e-004  -5.8910e+006  -1.5827e+003   7.2500e+005    0.0000    0.0277    0.0000    0.0000    0.0121
                1.3821  -2.3924e-004   9.5579e-005   9.5587e-005  -6.6996e+006  -1.8068e+003   6.6911e+005    0.0000    0.0315    0.0000    0.0000    0.0112
                1.7090  -2.6612e-004   1.0631e-004   8.6186e-005  -7.4521e+006  -2.0156e+003   6.0330e+005    0.0000    0.0350    0.0000    0.0000    0.0101
                2.0162  -2.9078e-004   1.1617e-004   7.5631e-005  -8.1426e+006  -2.2068e+003   5.2941e+005    0.0000    0.0382    0.0000    0.0000    0.0088
                2.3006  -3.1296e-004   1.2503e-004   6.4257e-005  -8.7639e+006  -2.3782e+003   4.4980e+005    0.0000    0.0411    0.0000    0.0000    0.0075
                2.5593  -3.3245e-004   1.3281e-004   5.2451e-005  -9.3095e+006  -2.5275e+003   3.6716e+005    0.0000    0.0437    0.0000    0.0000    0.0061
                2.7909  -3.4899e-004   1.3942e-004   4.0583e-005  -9.7727e+006  -2.6522e+003   2.8408e+005    0.0000    0.0459    0.0000    0.0000    0.0047
                2.9962  -3.6228e-004   1.4473e-004   2.9032e-005  -1.0145e+007  -2.7503e+003   2.0322e+005    0.0000    0.0476    0.0000    0.0000    0.0034
                3.1752  -3.7212e-004   1.4866e-004   1.8114e-005  -1.0421e+007  -2.8207e+003   1.2680e+005    0.0000    0.0489    0.0000    0.0000    0.0021
                3.3300  -3.7827e-004   1.5112e-004   8.0191e-006  -1.0593e+007  -2.8625e+003   5.6134e+004    0.0000    0.0497    0.0000    0.0000    0.0009
                3.4750  -3.8011e-004   1.5186e-004   1.0581e-006  -1.0644e+007  -2.8745e+003   7.4069e+003    0.0000    0.0500    0.0000    0.0000    0.0001
                3.6284  -3.7762e-004   1.5086e-004   9.0641e-006  -1.0574e+007  -2.8560e+003   6.3448e+004    0.0000    0.0496    0.0000    0.0000    0.0011

               lamina:  3     
              matName:  (TEP-core)
                     s           e11           e22           e12           s11           s22           s12   s11_fcT   s11_fcC   s22_fcT   s22_fcC   s12_fcS
                   (m)         (m/m)         (m/m)         (rad)          (Pa)          (Pa)          (Pa)       (-)       (-)       (-)       (-)       (-)
                0.0000  -1.1138e-004   4.4496e-005   1.0953e-004  -2.8010e+004   3.1662e+003   2.1907e+003    0.0000    0.0000    0.0000   -0.0000    0.0000
                0.3274  -1.4120e-004   5.6408e-005   1.0940e-004  -3.5508e+004   4.0137e+003   2.1881e+003    0.0000    0.0000    0.0000   -0.0000    0.0000
                0.6869  -1.7295e-004   6.9091e-005   1.0940e-004  -4.3491e+004   4.9161e+003   2.1881e+003    0.0000    0.0000    0.0000   -0.0000    0.0000
                1.0399  -2.0327e-004   8.1204e-005   1.0357e-004  -5.1117e+004   5.7780e+003   2.0714e+003    0.0000    0.0000    0.0000   -0.0000    0.0000
                1.3821  -2.3187e-004   9.2628e-005   9.5587e-005  -5.8308e+004   6.5909e+003   1.9117e+003    0.0000    0.0000    0.0000   -0.0000    0.0000
                1.7090  -2.5850e-004   1.0327e-004   8.6186e-005  -6.5005e+004   7.3478e+003   1.7237e+003    0.0000    0.0000    0.0000   -0.0000    0.0000
                2.0162  -2.8290e-004   1.1302e-004   7.5631e-005  -7.1142e+004   8.0415e+003   1.5126e+003    0.0000    0.0000    0.0000   -0.0000    0.0000
                2.3006  -3.0479e-004   1.2176e-004   6.4257e-005  -7.6645e+004   8.6636e+003   1.2851e+003    0.0000    0.0000    0.0000   -0.0000    0.0000
                2.5593  -3.2389e-004   1.2939e-004   5.2451e-005  -8.1449e+004   9.2065e+003   1.0490e+003    0.0000    0.0000    0.0000   -0.0000    0.0000
                2.7909  -3.3990e-004   1.3579e-004   4.0583e-005  -8.5476e+004   9.6617e+003   8.1165e+002    0.0000    0.0000    0.0000   -0.0000    0.0000
                2.9962  -3.5255e-004   1.4084e-004   2.9032e-005  -8.8658e+004   1.0021e+004   5.8064e+002    0.0000    0.0000    0.0000   -0.0000    0.0000
                3.1752  -3.6170e-004   1.4449e-004   1.8114e-005  -9.0957e+004   1.0281e+004   3.6228e+002    0.0000    0.0000    0.0000   -0.0000    0.0000
                3.3300  -3.6719e-004   1.4669e-004   8.0191e-006  -9.2338e+004   1.0437e+004   1.6038e+002    0.0000    0.0000    0.0000   -0.0000    0.0000
                3.4750  -3.6878e-004   1.4732e-004   1.0581e-006  -9.2738e+004   1.0483e+004   2.1163e+001    0.0000    0.0000    0.0000   -0.0000    0.0000
                3.6284  -3.6639e-004   1.4637e-004   9.0641e-006  -9.2137e+004   1.0415e+004   1.8128e+002    0.0000    0.0000    0.0000   -0.0000    0.0000

               lamina:  4     
              matName:  (blade-root)
                     s           e11           e22           e12           s11           s22           s12   s11_fcT   s11_fcC   s22_fcT   s22_fcC   s12_fcS
                   (m)         (m/m)         (m/m)         (rad)          (Pa)          (Pa)          (Pa)       (-)       (-)       (-)       (-)       (-)
                0.0000  -1.0758e-004   4.2974e-005   1.0953e-004  -3.0124e+006  -8.5965e+002   7.6673e+005    0.0000    0.0141    0.0000    0.0000    0.0128
                0.3274  -1.3725e-004   5.4828e-005   1.0940e-004  -3.8435e+006  -1.0934e+003   7.6582e+005    0.0000    0.0180    0.0000    0.0000    0.0128
                0.6869  -1.6877e-004   6.7420e-005   1.0940e-004  -4.7261e+006  -1.3419e+003   7.6582e+005    0.0000    0.0222    0.0000    0.0000    0.0128
                1.0399  -1.9890e-004   7.9456e-005   1.0357e-004  -5.5698e+006  -1.5793e+003   7.2500e+005    0.0000    0.0261    0.0000    0.0000    0.0121
                1.3821  -2.2732e-004   9.0811e-005   9.5587e-005  -6.3658e+006  -1.8033e+003   6.6911e+005    0.0000    0.0299    0.0000    0.0000    0.0112
                1.7090  -2.5380e-004   1.0139e-004   8.6186e-005  -7.1073e+006  -2.0120e+003   6.0330e+005    0.0000    0.0334    0.0000    0.0000    0.0101
                2.0162  -2.7805e-004   1.1108e-004   7.5631e-005  -7.7864e+006  -2.2031e+003   5.2941e+005    0.0000    0.0366    0.0000    0.0000    0.0088
                2.3006  -2.9975e-004   1.1975e-004   6.4257e-005  -8.3940e+006  -2.3743e+003   4.4980e+005    0.0000    0.0394    0.0000    0.0000    0.0075
                2.5593  -3.1862e-004   1.2728e-004   5.2451e-005  -8.9223e+006  -2.5234e+003   3.6716e+005    0.0000    0.0419    0.0000    0.0000    0.0061
                2.7909  -3.3431e-004   1.3355e-004   4.0583e-005  -9.3617e+006  -2.6479e+003   2.8408e+005    0.0000    0.0440    0.0000    0.0000    0.0047
                2.9962  -3.4657e-004   1.3845e-004   2.9032e-005  -9.7049e+006  -2.7457e+003   2.0322e+005    0.0000    0.0456    0.0000    0.0000    0.0034
                3.1752  -3.5528e-004   1.4193e-004   1.8114e-005  -9.9489e+006  -2.8158e+003   1.2680e+005    0.0000    0.0467    0.0000    0.0000    0.0021
                3.3300  -3.6036e-004   1.4396e-004   8.0191e-006  -1.0091e+007  -2.8573e+003   5.6134e+004    0.0000    0.0474    0.0000    0.0000    0.0009
                3.4750  -3.6180e-004   1.4453e-004   1.0581e-006  -1.0132e+007  -2.8692e+003   7.4069e+003    0.0000    0.0476    0.0000    0.0000    0.0001
                3.6284  -3.5948e-004   1.4360e-004   9.0641e-006  -1.0067e+007  -2.8507e+003   6.3448e+004    0.0000    0.0473    0.0000    0.0000    0.0011

               lamina:  5     
              matName:  (blade-shell)
                     s           e11           e22           e12           s11           s22           s12   s11_fcT   s11_fcC   s22_fcT   s22_fcC   s12_fcS
                   (m)         (m/m)         (m/m)         (rad)          (Pa)          (Pa)          (Pa)       (-)       (-)       (-)       (-)       (-)
                0.0000  -1.0139e-004   4.0500e-005   1.0953e-004  -2.8393e+006  -8.5784e+002   7.6673e+005    0.0000    0.0133    0.0000    0.0000    0.0128
                0.3274  -1.3084e-004   5.2263e-005   1.0940e-004  -3.6638e+006  -1.0915e+003   7.6582e+005    0.0000    0.0172    0.0000    0.0000    0.0128
                0.6869  -1.6199e-004   6.4706e-005   1.0940e-004  -4.5361e+006  -1.3399e+003   7.6582e+005    0.0000    0.0213    0.0000    0.0000    0.0128
                1.0399  -1.9180e-004   7.6616e-005   1.0357e-004  -5.3710e+006  -1.5773e+003   7.2500e+005    0.0000    0.0252    0.0000    0.0000    0.0121
                1.3821  -2.1995e-004   8.7860e-005   9.5587e-005  -6.1592e+006  -1.8012e+003   6.6911e+005    0.0000    0.0289    0.0000    0.0000    0.0112
                1.7090  -2.4618e-004   9.8341e-005   8.6186e-005  -6.8939e+006  -2.0097e+003   6.0330e+005    0.0000    0.0324    0.0000    0.0000    0.0101
                2.0162  -2.7018e-004   1.0793e-004   7.5631e-005  -7.5659e+006  -2.2008e+003   5.2941e+005    0.0000    0.0355    0.0000    0.0000    0.0088
                2.3006  -2.9158e-004   1.1648e-004   6.4257e-005  -8.1651e+006  -2.3719e+003   4.4980e+005    0.0000    0.0383    0.0000    0.0000    0.0075
                2.5593  -3.1006e-004   1.2386e-004   5.2451e-005  -8.6826e+006  -2.5209e+003   3.6716e+005    0.0000    0.0408    0.0000    0.0000    0.0061
                2.7909  -3.2522e-004   1.2992e-004   4.0583e-005  -9.1073e+006  -2.6452e+003   2.8408e+005    0.0000    0.0428    0.0000    0.0000    0.0047
                2.9962  -3.3684e-004   1.3456e-004   2.9032e-005  -9.4326e+006  -2.7429e+003   2.0322e+005    0.0000    0.0443    0.0000    0.0000    0.0034
                3.1752  -3.4485e-004   1.3776e-004   1.8114e-005  -9.6570e+006  -2.8127e+003   1.2680e+005    0.0000    0.0453    0.0000    0.0000    0.0021
                3.3300  -3.4928e-004   1.3952e-004   8.0191e-006  -9.7809e+006  -2.8540e+003   5.6134e+004    0.0000    0.0459    0.0000    0.0000    0.0009
                3.4750  -3.5047e-004   1.4000e-004   1.0581e-006  -9.8143e+006  -2.8658e+003   7.4069e+003    0.0000    0.0461    0.0000    0.0000    0.0001
                3.6284  -3.4825e-004   1.3911e-004   9.0641e-006  -9.7522e+006  -2.8474e+003   6.3448e+004    0.0000    0.0458    0.0000    0.0000    0.0011

     Web:  panel  nNode   nLam     xc_St    xc_End         b         t         E_eff         G_eff      nu_eff     density  buckleCrit
            (-)    (-)    (-)       (-)       (-)       (m)       (m)          (Pa)          (Pa)         (-)    (kg/m^3)         (-)
              1     10      3    0.3339    0.3339    4.0201    0.0830   7.6445e+008   4.5301e+008      0.4420    257.1084      0.0001
              2     10      3    0.5572    0.5572    3.7502    0.0830   7.6445e+008   4.5301e+008      0.4420    257.1084      0.0002

            panel:  1     
           lam_num    nPlies        tPly      fibAng     matID  matName
               (-)       (-)         (m)       (deg)       (-)  (-)
                 1         1    0.001500      0.0000         7  (web-shell)
                 2         1    0.080000      0.0000         8  (web-core)
                 3         1    0.001500      0.0000         7  (web-shell)

               lamina:  1     
              matName:  (web-shell)
                     s           e11           e22           e12           s11           s22           s12   s11_fcT   s11_fcC   s22_fcT   s22_fcC   s12_fcS
                   (m)         (m/m)         (m/m)         (rad)          (Pa)          (Pa)          (Pa)       (-)       (-)       (-)       (-)       (-)
                0.0000   1.4298e-004  -6.3004e-005   2.0037e-005   2.0809e+006   1.5839e+005   2.4044e+005    0.0145   -0.0000    0.0000   -0.0000    0.0027
                0.4467   1.3088e-004  -5.7656e-005   2.3878e-005   1.9050e+006   1.4529e+005   2.8653e+005    0.0132   -0.0000    0.0000   -0.0000    0.0032
                0.8934   1.1878e-004  -5.2307e-005   2.7392e-005   1.7290e+006   1.3220e+005   3.2871e+005    0.0120   -0.0000    0.0000   -0.0000    0.0037
                1.3400   1.0668e-004  -4.6959e-005   3.0581e-005   1.5531e+006   1.1911e+005   3.6697e+005    0.0108   -0.0000    0.0000   -0.0000    0.0041
                1.7867   9.4580e-005  -4.1610e-005   3.3444e-005   1.3771e+006   1.0601e+005   4.0133e+005    0.0096   -0.0000    0.0000   -0.0000    0.0045
                2.2334   8.2480e-005  -3.6262e-005   3.5981e-005   1.2012e+006   9.2919e+004   4.3177e+005    0.0083   -0.0000    0.0000   -0.0000    0.0048
                2.6801   7.0380e-005  -3.0913e-005   3.8191e-005   1.0252e+006   7.9826e+004   4.5830e+005    0.0071   -0.0000    0.0000   -0.0000    0.0051
                3.1268   5.8280e-005  -2.5565e-005   4.0076e-005   8.4928e+005   6.6732e+004   4.8091e+005    0.0059   -0.0000    0.0000   -0.0000    0.0053
                3.5735   4.6180e-005  -2.0216e-005   4.1635e-005   6.7334e+005   5.3639e+004   4.9962e+005    0.0047   -0.0000    0.0000   -0.0000    0.0056
                4.0201   3.4080e-005  -1.4868e-005   4.2868e-005   4.9739e+005   4.0545e+004   5.1441e+005    0.0035   -0.0000    0.0000   -0.0000    0.0057

               lamina:  2     
              matName:  (web-core)
                     s           e11           e22           e12           s11           s22           s12   s11_fcT   s11_fcC   s22_fcT   s22_fcC   s12_fcS
                   (m)         (m/m)         (m/m)         (rad)          (Pa)          (Pa)          (Pa)       (-)       (-)       (-)       (-)       (-)
                0.0000   1.5427e-004  -6.8388e-005   2.0037e-005   3.8215e+004  -6.3163e+003   4.0074e+002    0.0000   -0.0000    0.0000    0.0000    0.0000
                0.4467   1.4217e-004  -6.3039e-005   2.3878e-005   3.5216e+004  -5.8253e+003   4.7755e+002    0.0000   -0.0000    0.0000    0.0000    0.0000
                0.8934   1.3007e-004  -5.7691e-005   2.7392e-005   3.2218e+004  -5.3343e+003   5.4785e+002    0.0000   -0.0000    0.0000    0.0000    0.0000
                1.3400   1.1797e-004  -5.2342e-005   3.0581e-005   2.9219e+004  -4.8433e+003   6.1162e+002    0.0000   -0.0000    0.0000    0.0000    0.0000
                1.7867   1.0587e-004  -4.6994e-005   3.3444e-005   2.6220e+004  -4.3522e+003   6.6888e+002    0.0000   -0.0000    0.0000    0.0000    0.0000
                2.2334   9.3769e-005  -4.1645e-005   3.5981e-005   2.3222e+004  -3.8612e+003   7.1961e+002    0.0000   -0.0000    0.0000    0.0000    0.0000
                2.6801   8.1669e-005  -3.6297e-005   3.8191e-005   2.0223e+004  -3.3702e+003   7.6383e+002    0.0000   -0.0000    0.0000    0.0000    0.0000
                3.1268   6.9569e-005  -3.0948e-005   4.0076e-005   1.7224e+004  -2.8792e+003   8.0152e+002    0.0000   -0.0000    0.0000    0.0000    0.0000
                3.5735   5.7469e-005  -2.5600e-005   4.1635e-005   1.4226e+004  -2.3882e+003   8.3270e+002    0.0000   -0.0000    0.0000    0.0000    0.0000
                4.0201   4.5370e-005  -2.0251e-005   4.2868e-005   1.1227e+004  -1.8972e+003   8.5736e+002    0.0000   -0.0000    0.0000    0.0000    0.0000

               lamina:  3     
              matName:  (web-shell)
                     s           e11           e22           e12           s11           s22           s12   s11_fcT   s11_fcC   s22_fcT   s22_fcC   s12_fcS
                   (m)         (m/m)         (m/m)         (rad)          (Pa)          (Pa)          (Pa)       (-)       (-)       (-)       (-)       (-)
                0.0000   1.5448e-004  -6.8488e-005   2.0037e-005   2.2444e+006   1.6336e+005   2.4044e+005    0.0156   -0.0000    0.0000   -0.0000    0.0027
                0.4467   1.4238e-004  -6.3140e-005   2.3878e-005   2.0685e+006   1.5027e+005   2.8653e+005    0.0144   -0.0000    0.0000   -0.0000    0.0032
                0.8934   1.3028e-004  -5.7791e-005   2.7392e-005   1.8925e+006   1.3718e+005   3.2871e+005    0.0131   -0.0000    0.0000   -0.0000    0.0037
                1.3400   1.1818e-004  -5.2443e-005   3.0581e-005   1.7166e+006   1.2408e+005   3.6697e+005    0.0119   -0.0000    0.0000   -0.0000    0.0041
                1.7867   1.0608e-004  -4.7094e-005   3.3444e-005   1.5406e+006   1.1099e+005   4.0133e+005    0.0107   -0.0000    0.0000   -0.0000    0.0045
                2.2334   9.3981e-005  -4.1746e-005   3.5981e-005   1.3647e+006   9.7895e+004   4.3177e+005    0.0095   -0.0000    0.0000   -0.0000    0.0048
                2.6801   8.1881e-005  -3.6397e-005   3.8191e-005   1.1887e+006   8.4802e+004   4.5830e+005    0.0083   -0.0000    0.0000   -0.0000    0.0051
                3.1268   6.9781e-005  -3.1049e-005   4.0076e-005   1.0128e+006   7.1708e+004   4.8091e+005    0.0070   -0.0000    0.0000   -0.0000    0.0053
                3.5735   5.7681e-005  -2.5700e-005   4.1635e-005   8.3684e+005   5.8615e+004   4.9962e+005    0.0058   -0.0000    0.0000   -0.0000    0.0056
                4.0201   4.5581e-005  -2.0352e-005   4.2868e-005   6.6090e+005   4.5521e+004   5.1441e+005    0.0046   -0.0000    0.0000   -0.0000    0.0057

            panel:  2     
           lam_num    nPlies        tPly      fibAng     matID  matName
               (-)       (-)         (m)       (deg)       (-)  (-)
                 1         1    0.001500      0.0000         7  (web-shell)
                 2         1    0.080000      0.0000         8  (web-core)
                 3         1    0.001500      0.0000         7  (web-shell)

               lamina:  1     
              matName:  (web-shell)
                     s           e11           e22           e12           s11           s22           s12   s11_fcT   s11_fcC   s22_fcT   s22_fcC   s12_fcS
                   (m)         (m/m)         (m/m)         (rad)          (Pa)          (Pa)          (Pa)       (-)       (-)       (-)       (-)       (-)
                0.0000  -1.0934e-005   5.0369e-006   4.1841e-005  -1.5709e+005  -8.0259e+003   5.0210e+005    0.0000    0.0007    0.0000    0.0000    0.0056
                0.4167  -2.2124e-005   9.9833e-006   4.1573e-005  -3.1980e+005  -2.0135e+004   4.9887e+005    0.0000    0.0015    0.0000    0.0000    0.0055
                0.8334  -3.3314e-005   1.4930e-005   4.1023e-005  -4.8252e+005  -3.2244e+004   4.9228e+005    0.0000    0.0023    0.0000    0.0000    0.0055
                1.2501  -4.4504e-005   1.9876e-005   4.0192e-005  -6.4524e+005  -4.4354e+004   4.8231e+005    0.0000    0.0030    0.0000    0.0000    0.0054
                1.6668  -5.5695e-005   2.4822e-005   3.9080e-005  -8.0796e+005  -5.6463e+004   4.6896e+005    0.0000    0.0038    0.0000    0.0000    0.0052
                2.0835  -6.6885e-005   2.9769e-005   3.7687e-005  -9.7067e+005  -6.8572e+004   4.5224e+005    0.0000    0.0046    0.0000    0.0000    0.0050
                2.5001  -7.8075e-005   3.4715e-005   3.6012e-005  -1.1334e+006  -8.0681e+004   4.3215e+005    0.0000    0.0053    0.0000    0.0000    0.0048
                2.9168  -8.9265e-005   3.9662e-005   3.4056e-005  -1.2961e+006  -9.2790e+004   4.0868e+005    0.0000    0.0061    0.0000    0.0000    0.0045
                3.3335  -1.0046e-004   4.4608e-005   3.1819e-005  -1.4588e+006  -1.0490e+005   3.8183e+005    0.0000    0.0068    0.0000    0.0000    0.0042
                3.7502  -1.1165e-004   4.9554e-005   2.9301e-005  -1.6215e+006  -1.1701e+005   3.5161e+005    0.0000    0.0076    0.0000    0.0000    0.0039

               lamina:  2     
              matName:  (web-core)
                     s           e11           e22           e12           s11           s22           s12   s11_fcT   s11_fcC   s22_fcT   s22_fcC   s12_fcS
                   (m)         (m/m)         (m/m)         (rad)          (Pa)          (Pa)          (Pa)       (-)       (-)       (-)       (-)       (-)
                0.0000  -1.0722e-005   4.9359e-006   4.1841e-005  -2.6403e+003   4.9124e+002   8.3683e+002    0.0000    0.0000    0.0000   -0.0000    0.0000
                0.4167  -2.1912e-005   9.8823e-006   4.1573e-005  -5.4136e+003   9.4534e+002   8.3146e+002    0.0000    0.0000    0.0000   -0.0000    0.0000
                0.8334  -3.3102e-005   1.4829e-005   4.1023e-005  -8.1868e+003   1.3994e+003   8.2046e+002    0.0000    0.0000    0.0000   -0.0000    0.0000
                1.2501  -4.4293e-005   1.9775e-005   4.0192e-005  -1.0960e+004   1.8535e+003   8.0385e+002    0.0000    0.0000    0.0000   -0.0000    0.0000
                1.6668  -5.5483e-005   2.4722e-005   3.9080e-005  -1.3733e+004   2.3076e+003   7.8160e+002    0.0000    0.0000    0.0000   -0.0000    0.0000
                2.0835  -6.6673e-005   2.9668e-005   3.7687e-005  -1.6506e+004   2.7617e+003   7.5374e+002    0.0000    0.0000    0.0000   -0.0000    0.0000
                2.5001  -7.7863e-005   3.4614e-005   3.6012e-005  -1.9280e+004   3.2158e+003   7.2024e+002    0.0000    0.0000    0.0000   -0.0000    0.0000
                2.9168  -8.9053e-005   3.9561e-005   3.4056e-005  -2.2053e+004   3.6699e+003   6.8113e+002    0.0000    0.0000    0.0000   -0.0000    0.0000
                3.3335  -1.0024e-004   4.4507e-005   3.1819e-005  -2.4826e+004   4.1240e+003   6.3639e+002    0.0000    0.0000    0.0000   -0.0000    0.0000
                3.7502  -1.1143e-004   4.9453e-005   2.9301e-005  -2.7599e+004   4.5781e+003   5.8602e+002    0.0000    0.0000    0.0000   -0.0000    0.0000

               lamina:  3     
              matName:  (web-shell)
                     s           e11           e22           e12           s11           s22           s12   s11_fcT   s11_fcC   s22_fcT   s22_fcC   s12_fcS
                   (m)         (m/m)         (m/m)         (rad)          (Pa)          (Pa)          (Pa)       (-)       (-)       (-)       (-)       (-)
                0.0000   7.8572e-007  -5.5119e-007   4.1841e-005   9.5224e+003  -3.0472e+003   5.0210e+005    0.0001   -0.0000    0.0000    0.0000    0.0056
                0.4167  -1.0616e-005   4.4962e-006   4.1573e-005  -1.5621e+005  -1.5156e+004   4.9887e+005    0.0000    0.0007    0.0000    0.0000    0.0055
                0.8334  -2.1806e-005   9.4426e-006   4.1023e-005  -3.1892e+005  -2.7266e+004   4.9228e+005    0.0000    0.0015    0.0000    0.0000    0.0055
                1.2501  -3.2997e-005   1.4389e-005   4.0192e-005  -4.8164e+005  -3.9375e+004   4.8231e+005    0.0000    0.0023    0.0000    0.0000    0.0054
                1.6668  -4.4187e-005   1.9335e-005   3.9080e-005  -6.4436e+005  -5.1484e+004   4.6896e+005    0.0000    0.0030    0.0000    0.0000    0.0052
                2.0835  -5.5377e-005   2.4282e-005   3.7687e-005  -8.0708e+005  -6.3593e+004   4.5224e+005    0.0000    0.0038    0.0000    0.0000    0.0050
                2.5001  -6.6567e-005   2.9228e-005   3.6012e-005  -9.6979e+005  -7.5702e+004   4.3215e+005    0.0000    0.0046    0.0000    0.0000    0.0048
                2.9168  -7.7757e-005   3.4175e-005   3.4056e-005  -1.1325e+006  -8.7812e+004   4.0868e+005    0.0000    0.0053    0.0000    0.0000    0.0045
                3.3335  -8.8948e-005   3.9121e-005   3.1819e-005  -1.2952e+006  -9.9921e+004   3.8183e+005    0.0000    0.0061    0.0000    0.0000    0.0042
                3.7502  -1.0014e-004   4.4067e-005   2.9301e-005  -1.4579e+006  -1.1203e+005   3.5161e+005    0.0000    0.0068    0.0000    0.0000    0.0039

================================================================================
sec        =  9      
zSec       =  12.2000  (m)
nPanelsTop =  4      
nPanelsBot =  4      
nWebs      =  2      

    Top:  panel  nNode   nLam     xc_St    xc_End         b         t         E_eff         G_eff      nu_eff     density  buckleCrit
            (-)    (-)    (-)       (-)       (-)       (m)       (m)          (Pa)          (Pa)         (-)    (kg/m^3)         (-)
              1     13      5    0.0000    0.3223    3.1624    0.1122   1.9426e+010   4.8423e+009      0.3992   1339.9537      0.0000
              2      6      7    0.3223    0.5357    1.4667    0.1561   3.5102e+010   4.9859e+009      0.3413   1885.2337      0.0000
              3      2      5    0.5357    0.5368    0.0079    0.1122   1.9426e+010   4.8423e+009      0.3992   1339.9537      0.0000
              4     16      5    0.5368    1.0000    3.7784    0.1122   1.9426e+010   4.8423e+009      0.3992   1339.9537      0.0148

            panel:  1     
           lam_num    nPlies        tPly      fibAng     matID  matName
               (-)       (-)         (m)       (deg)       (-)  (-)
                 1         1    0.005000      0.0000         2  (blade-shell)
                 2         1    0.033757      0.0000         1  (blade-root)
                 3         1    0.034682      0.0000         5  (LEP-core)
                 4         1    0.033757      0.0000         1  (blade-root)
                 5         1    0.005000      0.0000         2  (blade-shell)

               lamina:  1     
              matName:  (blade-shell)
                     s           e11           e22           e12           s11           s22           s12   s11_fcT   s11_fcC   s22_fcT   s22_fcC   s12_fcS
                   (m)         (m/m)         (m/m)         (rad)          (Pa)          (Pa)          (Pa)       (-)       (-)       (-)       (-)       (-)
                0.0000   3.8378e-004  -1.5320e-004   3.1060e-005   1.0748e+007   4.6954e+003   2.1742e+005    0.0746   -0.0000    0.0000   -0.0000    0.0036
                0.2236   3.8929e-004  -1.5540e-004   1.9311e-005   1.0902e+007   4.7632e+003   1.3518e+005    0.0757   -0.0000    0.0000   -0.0000    0.0023
                0.4662   3.9091e-004  -1.5605e-004   6.4433e-006   1.0947e+007   4.7825e+003   4.5103e+004    0.0760   -0.0000    0.0000   -0.0000    0.0008
                0.7140   3.8781e-004  -1.5481e-004   6.6709e-006   1.0861e+007   4.7459e+003   4.6696e+004    0.0754   -0.0000    0.0000   -0.0000    0.0008
                0.9592   3.7961e-004  -1.5154e-004   1.9468e-005   1.0631e+007   4.6482e+003   1.3627e+005    0.0738   -0.0000    0.0000   -0.0000    0.0023
                1.2185   3.6697e-004  -1.4649e-004   3.2642e-005   1.0277e+007   4.4967e+003   2.2849e+005    0.0714   -0.0000    0.0000   -0.0000    0.0038
                1.4852   3.4968e-004  -1.3959e-004   4.5664e-005   9.7928e+006   4.2891e+003   3.1965e+005    0.0680   -0.0000    0.0000   -0.0000    0.0053
                1.7626   3.2804e-004  -1.3095e-004   5.8482e-005   9.1866e+006   4.0275e+003   4.0938e+005    0.0638   -0.0000    0.0000   -0.0000    0.0068
                2.0522   3.0230e-004  -1.2068e-004   7.0941e-005   8.4659e+006   3.7156e+003   4.9659e+005    0.0588   -0.0000    0.0000   -0.0000    0.0083
                2.3516   2.7253e-004  -1.0879e-004   8.2705e-005   7.6322e+006   3.3541e+003   5.7893e+005    0.0530   -0.0000    0.0000   -0.0000    0.0096
                2.6629   2.3919e-004  -9.5482e-005   9.3609e-005   6.6985e+006   2.9470e+003   6.5526e+005    0.0465   -0.0000    0.0000   -0.0000    0.0109
                2.9871   2.0274e-004  -8.0932e-005   1.0342e-004   5.6777e+006   2.4980e+003   7.2394e+005    0.0394   -0.0000    0.0000   -0.0000    0.0121
                3.1624   1.8193e-004  -7.2626e-005   1.0804e-004   5.0950e+006   2.2443e+003   7.5629e+005    0.0354   -0.0000    0.0000   -0.0000    0.0126

               lamina:  2     
              matName:  (blade-root)
                     s           e11           e22           e12           s11           s22           s12   s11_fcT   s11_fcC   s22_fcT   s22_fcC   s12_fcS
                   (m)         (m/m)         (m/m)         (rad)          (Pa)          (Pa)          (Pa)       (-)       (-)       (-)       (-)       (-)
                0.0000   3.8250e-004  -1.5269e-004   3.1060e-005   1.0712e+007   4.6943e+003   2.1742e+005    0.0744   -0.0000    0.0000   -0.0000    0.0036
                0.2236   3.8799e-004  -1.5488e-004   1.9311e-005   1.0866e+007   4.7621e+003   1.3518e+005    0.0755   -0.0000    0.0000   -0.0000    0.0023
                0.4662   3.8960e-004  -1.5553e-004   6.4433e-006   1.0911e+007   4.7814e+003   4.5103e+004    0.0758   -0.0000    0.0000   -0.0000    0.0008
                0.7140   3.8652e-004  -1.5430e-004   6.6709e-006   1.0825e+007   4.7448e+003   4.6696e+004    0.0752   -0.0000    0.0000   -0.0000    0.0008
                0.9592   3.7837e-004  -1.5104e-004   1.9468e-005   1.0596e+007   4.6471e+003   1.3627e+005    0.0736   -0.0000    0.0000   -0.0000    0.0023
                1.2185   3.6579e-004  -1.4602e-004   3.2642e-005   1.0244e+007   4.4956e+003   2.2849e+005    0.0711   -0.0000    0.0000   -0.0000    0.0038
                1.4852   3.4860e-004  -1.3916e-004   4.5664e-005   9.7624e+006   4.2882e+003   3.1965e+005    0.0678   -0.0000    0.0000   -0.0000    0.0053
                1.7626   3.2705e-004  -1.3055e-004   5.8482e-005   9.1589e+006   4.0266e+003   4.0938e+005    0.0636   -0.0000    0.0000   -0.0000    0.0068
                2.0522   3.0142e-004  -1.2032e-004   7.0941e-005   8.4412e+006   3.7148e+003   4.9659e+005    0.0586   -0.0000    0.0000   -0.0000    0.0083
                2.3516   2.7177e-004  -1.0849e-004   8.2705e-005   7.6109e+006   3.3534e+003   5.7893e+005    0.0529   -0.0000    0.0000   -0.0000    0.0096
                2.6629   2.3855e-004  -9.5225e-005   9.3609e-005   6.6805e+006   2.9465e+003   6.5526e+005    0.0464   -0.0000    0.0000   -0.0000    0.0109
                2.9871   2.0220e-004  -8.0714e-005   1.0342e-004   5.6625e+006   2.4975e+003   7.2394e+005    0.0393   -0.0000    0.0000   -0.0000    0.0121
                3.1624   1.8147e-004  -7.2439e-005   1.0804e-004   5.0819e+006   2.2439e+003   7.5629e+005    0.0353   -0.0000    0.0000   -0.0000    0.0126

               lamina:  3     
              matName:  (LEP-core)
                     s           e11           e22           e12           s11           s22           s12   s11_fcT   s11_fcC   s22_fcT   s22_fcC   s12_fcS
                   (m)         (m/m)         (m/m)         (rad)          (Pa)          (Pa)          (Pa)       (-)       (-)       (-)       (-)       (-)
                0.0000   3.7385e-004  -1.4923e-004   3.1060e-005   9.4022e+004  -1.0593e+004   6.2120e+002    0.0000   -0.0000    0.0000    0.0000    0.0000
                0.2236   3.7923e-004  -1.5138e-004   1.9311e-005   9.5377e+004  -1.0746e+004   3.8622e+002    0.0000   -0.0000    0.0000    0.0000    0.0000
                0.4662   3.8078e-004  -1.5200e-004   6.4433e-006   9.5766e+004  -1.0790e+004   1.2887e+002    0.0000   -0.0000    0.0000    0.0000    0.0000
                0.7140   3.7784e-004  -1.5082e-004   6.6709e-006   9.5026e+004  -1.0706e+004   1.3342e+002    0.0000   -0.0000    0.0000    0.0000    0.0000
                0.9592   3.7000e-004  -1.4770e-004   1.9468e-005   9.3056e+004  -1.0484e+004   3.8935e+002    0.0000   -0.0000    0.0000    0.0000    0.0000
                1.2185   3.5787e-004  -1.4285e-004   3.2642e-005   9.0005e+004  -1.0141e+004   6.5283e+002    0.0000   -0.0000    0.0000    0.0000    0.0000
                1.4852   3.4127e-004  -1.3623e-004   4.5664e-005   8.5828e+004  -9.6701e+003   9.1328e+002    0.0000   -0.0000    0.0000    0.0000    0.0000
                1.7626   3.2037e-004  -1.2788e-004   5.8482e-005   8.0572e+004  -9.0779e+003   1.1696e+003    0.0000   -0.0000    0.0000    0.0000    0.0000
                2.0522   2.9547e-004  -1.1794e-004   7.0941e-005   7.4311e+004  -8.3724e+003   1.4188e+003    0.0000   -0.0000    0.0000    0.0000    0.0000
                2.3516   2.6663e-004  -1.0643e-004   8.2705e-005   6.7058e+004  -7.5552e+003   1.6541e+003    0.0000   -0.0000    0.0000    0.0000    0.0000
                2.6629   2.3420e-004  -9.3488e-005   9.3609e-005   5.8902e+004  -6.6363e+003   1.8722e+003    0.0000   -0.0000    0.0000    0.0000    0.0000
                2.9871   1.9852e-004  -7.9244e-005   1.0342e-004   4.9927e+004  -5.6251e+003   2.0684e+003    0.0000   -0.0000    0.0000    0.0000    0.0000
                3.1624   1.7830e-004  -7.1173e-005   1.0804e-004   4.4842e+004  -5.0522e+003   2.1608e+003    0.0000   -0.0000    0.0000    0.0000    0.0000

               lamina:  4     
              matName:  (blade-root)
                     s           e11           e22           e12           s11           s22           s12   s11_fcT   s11_fcC   s22_fcT   s22_fcC   s12_fcS
                   (m)         (m/m)         (m/m)         (rad)          (Pa)          (Pa)          (Pa)       (-)       (-)       (-)       (-)       (-)
                0.0000   3.6495e-004  -1.4567e-004   3.1060e-005   1.0221e+007   4.6791e+003   2.1742e+005    0.0710   -0.0000    0.0000   -0.0000    0.0036
                0.2236   3.7023e-004  -1.4778e-004   1.9311e-005   1.0368e+007   4.7466e+003   1.3518e+005    0.0720   -0.0000    0.0000   -0.0000    0.0023
                0.4662   3.7172e-004  -1.4837e-004   6.4433e-006   1.0410e+007   4.7658e+003   4.5103e+004    0.0723   -0.0000    0.0000   -0.0000    0.0008
                0.7140   3.6891e-004  -1.4725e-004   6.6709e-006   1.0331e+007   4.7295e+003   4.6696e+004    0.0717   -0.0000    0.0000   -0.0000    0.0008
                0.9592   3.6141e-004  -1.4426e-004   1.9468e-005   1.0121e+007   4.6324e+003   1.3627e+005    0.0703   -0.0000    0.0000   -0.0000    0.0023
                1.2185   3.4974e-004  -1.3960e-004   3.2642e-005   9.7944e+006   4.4817e+003   2.2849e+005    0.0680   -0.0000    0.0000   -0.0000    0.0038
                1.4852   3.3374e-004  -1.3321e-004   4.5664e-005   9.3463e+006   4.2753e+003   3.1965e+005    0.0649   -0.0000    0.0000   -0.0000    0.0053
                1.7626   3.1350e-004  -1.2514e-004   5.8482e-005   8.7797e+006   4.0149e+003   4.0938e+005    0.0610   -0.0000    0.0000   -0.0000    0.0068
                2.0522   2.8936e-004  -1.1550e-004   7.0941e-005   8.1036e+006   3.7043e+003   4.9659e+005    0.0563   -0.0000    0.0000   -0.0000    0.0083
                2.3516   2.6135e-004  -1.0432e-004   8.2705e-005   7.3192e+006   3.3444e+003   5.7893e+005    0.0508   -0.0000    0.0000   -0.0000    0.0096
                2.6629   2.2974e-004  -9.1704e-005   9.3609e-005   6.4340e+006   2.9388e+003   6.5526e+005    0.0447   -0.0000    0.0000   -0.0000    0.0109
                2.9871   1.9474e-004  -7.7733e-005   1.0342e-004   5.4537e+006   2.4911e+003   7.2394e+005    0.0379   -0.0000    0.0000   -0.0000    0.0121
                3.1624   1.7505e-004  -6.9872e-005   1.0804e-004   4.9022e+006   2.2383e+003   7.5629e+005    0.0340   -0.0000    0.0000   -0.0000    0.0126

               lamina:  5     
              matName:  (blade-shell)
                     s           e11           e22           e12           s11           s22           s12   s11_fcT   s11_fcC   s22_fcT   s22_fcC   s12_fcS
                   (m)         (m/m)         (m/m)         (rad)          (Pa)          (Pa)          (Pa)       (-)       (-)       (-)       (-)       (-)
                0.0000   3.5630e-004  -1.4221e-004   3.1060e-005   9.9783e+006   4.6715e+003   2.1742e+005    0.0693   -0.0000    0.0000   -0.0000    0.0036
                0.2236   3.6147e-004  -1.4428e-004   1.9311e-005   1.0123e+007   4.7390e+003   1.3518e+005    0.0703   -0.0000    0.0000   -0.0000    0.0023
                0.4662   3.6290e-004  -1.4485e-004   6.4433e-006   1.0163e+007   4.7582e+003   4.5103e+004    0.0706   -0.0000    0.0000   -0.0000    0.0008
                0.7140   3.6023e-004  -1.4378e-004   6.6709e-006   1.0088e+007   4.7219e+003   4.6696e+004    0.0701   -0.0000    0.0000   -0.0000    0.0008
                0.9592   3.5305e-004  -1.4091e-004   1.9468e-005   9.8872e+006   4.6251e+003   1.3627e+005    0.0687   -0.0000    0.0000   -0.0000    0.0023
                1.2185   3.4182e-004  -1.3643e-004   3.2642e-005   9.5726e+006   4.4748e+003   2.2849e+005    0.0665   -0.0000    0.0000   -0.0000    0.0038
                1.4852   3.2641e-004  -1.3028e-004   4.5664e-005   9.1411e+006   4.2689e+003   3.1965e+005    0.0635   -0.0000    0.0000   -0.0000    0.0053
                1.7626   3.0682e-004  -1.2247e-004   5.8482e-005   8.5927e+006   4.0090e+003   4.0938e+005    0.0597   -0.0000    0.0000   -0.0000    0.0068
                2.0522   2.8341e-004  -1.1312e-004   7.0941e-005   7.9371e+006   3.6992e+003   4.9659e+005    0.0551   -0.0000    0.0000   -0.0000    0.0083
                2.3516   2.5622e-004  -1.0227e-004   8.2705e-005   7.1754e+006   3.3399e+003   5.7893e+005    0.0498   -0.0000    0.0000   -0.0000    0.0096
                2.6629   2.2540e-004  -8.9967e-005   9.3609e-005   6.3124e+006   2.9350e+003   6.5526e+005    0.0438   -0.0000    0.0000   -0.0000    0.0109
                2.9871   1.9106e-004  -7.6262e-005   1.0342e-004   5.3508e+006   2.4879e+003   7.2394e+005    0.0372   -0.0000    0.0000   -0.0000    0.0121
                3.1624   1.7188e-004  -6.8606e-005   1.0804e-004   4.8136e+006   2.2356e+003   7.5629e+005    0.0334   -0.0000    0.0000   -0.0000    0.0126

            panel:  2     
           lam_num    nPlies        tPly      fibAng     matID  matName
               (-)       (-)         (m)       (deg)       (-)  (-)
                 1         1    0.005000      0.0000         2  (blade-shell)
                 2         1    0.033757      0.0000         1  (blade-root)
                 3         1    0.039306      0.0000         3  (spar-uni)
                 4         1    0.000001      0.0000         4  (spar-core)
                 5         1    0.039306      0.0000         3  (spar-uni)
                 6         1    0.033757      0.0000         1  (blade-root)
                 7         1    0.005000      0.0000         2  (blade-shell)

               lamina:  1     
              matName:  (blade-shell)
                     s           e11           e22           e12           s11           s22           s12   s11_fcT   s11_fcC   s22_fcT   s22_fcC   s12_fcS
                   (m)         (m/m)         (m/m)         (rad)          (Pa)          (Pa)          (Pa)       (-)       (-)       (-)       (-)       (-)
                0.0000   1.8777e-004  -6.4617e-005   7.3936e-005   5.3215e+006   1.5967e+005   5.1755e+005    0.0370   -0.0000    0.0000   -0.0000    0.0086
                0.1572   1.6825e-004  -5.7882e-005   8.0434e-005   4.7684e+006   1.4333e+005   5.6304e+005    0.0331   -0.0000    0.0000   -0.0000    0.0094
                0.5030   1.2591e-004  -4.3346e-005   9.2230e-005   3.5683e+006   1.0682e+005   6.4561e+005    0.0248   -0.0000    0.0000   -0.0000    0.0108
                0.8566   8.1505e-005  -2.8087e-005   1.0068e-004   2.3096e+006   6.8702e+004   7.0475e+005    0.0160   -0.0000    0.0000   -0.0000    0.0117
                1.2176   3.6077e-005  -1.2499e-005   1.0547e-004   1.0219e+006   2.9392e+004   7.3832e+005    0.0071   -0.0000    0.0000   -0.0000    0.0123
                1.4667   4.7119e-006  -1.7453e-006   1.0651e-004   1.3278e+005   2.1222e+003   7.4554e+005    0.0009   -0.0000    0.0000   -0.0000    0.0124

               lamina:  2     
              matName:  (blade-root)
                     s           e11           e22           e12           s11           s22           s12   s11_fcT   s11_fcC   s22_fcT   s22_fcC   s12_fcS
                   (m)         (m/m)         (m/m)         (rad)          (Pa)          (Pa)          (Pa)       (-)       (-)       (-)       (-)       (-)
                0.0000   1.8700e-004  -6.4319e-005   7.3936e-005   5.2998e+006   1.5950e+005   5.1755e+005    0.0368   -0.0000    0.0000   -0.0000    0.0086
                0.1572   1.6759e-004  -5.7625e-005   8.0434e-005   4.7497e+006   1.4318e+005   5.6304e+005    0.0330   -0.0000    0.0000   -0.0000    0.0094
                0.5030   1.2537e-004  -4.3137e-005   9.2230e-005   3.5531e+006   1.0670e+005   6.4561e+005    0.0247   -0.0000    0.0000   -0.0000    0.0108
                0.8566   8.1112e-005  -2.7936e-005   1.0068e-004   2.2986e+006   6.8615e+004   7.0475e+005    0.0160   -0.0000    0.0000   -0.0000    0.0117
                1.2176   3.5806e-005  -1.2395e-005   1.0547e-004   1.0143e+006   2.9332e+004   7.3832e+005    0.0070   -0.0000    0.0000   -0.0000    0.0123
                1.4667   4.5128e-006  -1.6686e-006   1.0651e-004   1.2719e+005   2.0781e+003   7.4554e+005    0.0009   -0.0000    0.0000   -0.0000    0.0124

               lamina:  3     
              matName:  (spar-uni)
                     s           e11           e22           e12           s11           s22           s12   s11_fcT   s11_fcC   s22_fcT   s22_fcC   s12_fcS
                   (m)         (m/m)         (m/m)         (rad)          (Pa)          (Pa)          (Pa)       (-)       (-)       (-)       (-)       (-)
                0.0000   1.8179e-004  -6.2309e-005   7.3936e-005   7.5891e+006  -1.6401e+005   2.2181e+005    0.0078   -0.0000    0.0000    0.0000    0.0074
                0.1572   1.6308e-004  -5.5887e-005   8.0434e-005   6.8081e+006  -1.4700e+005   2.4130e+005    0.0070   -0.0000    0.0000    0.0000    0.0080
                0.5030   1.2171e-004  -4.1726e-005   9.2230e-005   5.0811e+006  -1.0993e+005   2.7669e+005    0.0052   -0.0000    0.0000    0.0000    0.0092
                0.8566   7.8459e-005  -2.6913e-005   1.0068e-004   3.2754e+006  -7.1083e+004   3.0203e+005    0.0034   -0.0000    0.0000    0.0000    0.0101
                1.2176   3.3976e-005  -1.1690e-005   1.0547e-004   1.4182e+006  -3.1285e+004   3.1642e+005    0.0015   -0.0000    0.0000    0.0000    0.0105
                1.4667   3.1687e-006  -1.1505e-006   1.0651e-004   1.3203e+005  -3.7848e+003   3.1952e+005    0.0001   -0.0000    0.0000    0.0000    0.0107

               lamina:  4     
              matName:  (spar-core)
                     s           e11           e22           e12           s11           s22           s12   s11_fcT   s11_fcC   s22_fcT   s22_fcC   s12_fcS
                   (m)         (m/m)         (m/m)         (rad)          (Pa)          (Pa)          (Pa)       (-)       (-)       (-)       (-)       (-)
                0.0000   1.7571e-004  -5.9968e-005   7.3936e-005   4.5064e+004  -2.0726e+003   1.4787e+003    0.0000   -0.0000    0.0000    0.0000    0.0000
                0.1572   1.5783e-004  -5.3864e-005   8.0434e-005   4.0477e+004  -1.8617e+003   1.6087e+003    0.0000   -0.0000    0.0000    0.0000    0.0000
                0.5030   1.1745e-004  -4.0084e-005   9.2230e-005   3.0121e+004  -1.3854e+003   1.8446e+003    0.0000   -0.0000    0.0000    0.0000    0.0000
                0.8566   7.5369e-005  -2.5722e-005   1.0068e-004   1.9329e+004  -8.8902e+002   2.0136e+003    0.0000   -0.0000    0.0000    0.0000    0.0000
                1.2176   3.1845e-005  -1.0868e-005   1.0547e-004   8.1671e+003  -3.7564e+002   2.1095e+003    0.0000   -0.0000    0.0000    0.0000    0.0000
                1.4667   1.6037e-006  -5.4730e-007   1.0651e-004   4.1128e+002  -1.8916e+001   2.1301e+003    0.0000   -0.0000    0.0000    0.0000    0.0000

               lamina:  5     
              matName:  (spar-uni)
                     s           e11           e22           e12           s11           s22           s12   s11_fcT   s11_fcC   s22_fcT   s22_fcC   s12_fcS
                   (m)         (m/m)         (m/m)         (rad)          (Pa)          (Pa)          (Pa)       (-)       (-)       (-)       (-)       (-)
                0.0000   1.7571e-004  -5.9968e-005   7.3936e-005   7.3366e+006  -1.5480e+005   2.2181e+005    0.0075   -0.0000    0.0000    0.0000    0.0074
                0.1572   1.5783e-004  -5.3864e-005   8.0434e-005   6.5898e+006  -1.3905e+005   2.4130e+005    0.0068   -0.0000    0.0000    0.0000    0.0080
                0.5030   1.1745e-004  -4.0084e-005   9.2230e-005   4.9039e+006  -1.0347e+005   2.7669e+005    0.0050   -0.0000    0.0000    0.0000    0.0092
                0.8566   7.5369e-005  -2.5722e-005   1.0068e-004   3.1469e+006  -6.6401e+004   3.0203e+005    0.0032   -0.0000    0.0000    0.0000    0.0101
                1.2176   3.1845e-005  -1.0868e-005   1.0547e-004   1.3296e+006  -2.8056e+004   3.1642e+005    0.0014   -0.0000    0.0000    0.0000    0.0105
                1.4667   1.6036e-006  -5.4729e-007   1.0651e-004   6.6956e+004  -1.4128e+003   3.1952e+005    0.0001   -0.0000    0.0000    0.0000    0.0107

               lamina:  6     
              matName:  (blade-root)
                     s           e11           e22           e12           s11           s22           s12   s11_fcT   s11_fcC   s22_fcT   s22_fcC   s12_fcS
                   (m)         (m/m)         (m/m)         (rad)          (Pa)          (Pa)          (Pa)       (-)       (-)       (-)       (-)       (-)
                0.0000   1.6964e-004  -5.7628e-005   7.3936e-005   4.8122e+006   1.5565e+005   5.1755e+005    0.0334   -0.0000    0.0000   -0.0000    0.0086
                0.1572   1.5258e-004  -5.1841e-005   8.0434e-005   4.3281e+006   1.3985e+005   5.6304e+005    0.0301   -0.0000    0.0000   -0.0000    0.0094
                0.5030   1.1319e-004  -3.8441e-005   9.2230e-005   3.2108e+006   1.0399e+005   6.4561e+005    0.0223   -0.0000    0.0000   -0.0000    0.0108
                0.8566   7.2279e-005  -2.4531e-005   1.0068e-004   2.0505e+006   6.6656e+004   7.0475e+005    0.0142   -0.0000    0.0000   -0.0000    0.0117
                1.2176   2.9715e-005  -1.0047e-005   1.0547e-004   8.4320e+005   2.7981e+004   7.3832e+005    0.0059   -0.0000    0.0000   -0.0000    0.0123
                1.4667  -1.3055e-006   5.7396e-007   1.0651e-004  -3.6239e+004   1.0857e+003   7.4554e+005    0.0000    0.0002    0.0000   -0.0000    0.0124

               lamina:  7     
              matName:  (blade-shell)
                     s           e11           e22           e12           s11           s22           s12   s11_fcT   s11_fcC   s22_fcT   s22_fcC   s12_fcS
                   (m)         (m/m)         (m/m)         (rad)          (Pa)          (Pa)          (Pa)       (-)       (-)       (-)       (-)       (-)
                0.0000   1.6442e-004  -5.5617e-005   7.3936e-005   4.6657e+006   1.5449e+005   5.1755e+005    0.0324   -0.0000    0.0000   -0.0000    0.0086
                0.1572   1.4807e-004  -5.0103e-005   8.0434e-005   4.2015e+006   1.3885e+005   5.6304e+005    0.0292   -0.0000    0.0000   -0.0000    0.0094
                0.5030   1.0953e-004  -3.7030e-005   9.2230e-005   3.1080e+006   1.0318e+005   6.4561e+005    0.0216   -0.0000    0.0000   -0.0000    0.0108
                0.8566   6.9625e-005  -2.3509e-005   1.0068e-004   1.9759e+006   6.6068e+004   7.0475e+005    0.0137   -0.0000    0.0000   -0.0000    0.0117
                1.2176   2.7885e-005  -9.3419e-006   1.0547e-004   7.9181e+005   2.7575e+004   7.3832e+005    0.0055   -0.0000    0.0000   -0.0000    0.0123
                1.4667  -1.5046e-006   6.5069e-007   1.0651e-004  -4.1831e+004   7.8762e+002   7.4554e+005    0.0000    0.0002    0.0000   -0.0000    0.0124

            panel:  3     
           lam_num    nPlies        tPly      fibAng     matID  matName
               (-)       (-)         (m)       (deg)       (-)  (-)
                 1         1    0.005000      0.0000         2  (blade-shell)
                 2         1    0.033757      0.0000         1  (blade-root)
                 3         1    0.034682      0.0000         6  (TEP-core)
                 4         1    0.033757      0.0000         1  (blade-root)
                 5         1    0.005000      0.0000         2  (blade-shell)

               lamina:  1     
              matName:  (blade-shell)
                     s           e11           e22           e12           s11           s22           s12   s11_fcT   s11_fcC   s22_fcT   s22_fcC   s12_fcS
                   (m)         (m/m)         (m/m)         (rad)          (Pa)          (Pa)          (Pa)       (-)       (-)       (-)       (-)       (-)
                0.0000   3.2069e-006  -1.2811e-006   1.5260e-004   8.9804e+004   2.4646e+001   1.0682e+006    0.0006   -0.0000    0.0000   -0.0000    0.0178
                0.0079   2.2523e-006  -9.0009e-007   1.5260e-004   6.3069e+004   1.2544e+001   1.0682e+006    0.0004   -0.0000    0.0000   -0.0000    0.0178

               lamina:  2     
              matName:  (blade-root)
                     s           e11           e22           e12           s11           s22           s12   s11_fcT   s11_fcC   s22_fcT   s22_fcC   s12_fcS
                   (m)         (m/m)         (m/m)         (rad)          (Pa)          (Pa)          (Pa)       (-)       (-)       (-)       (-)       (-)
                0.0000   3.0861e-006  -1.2328e-006   1.5260e-004   8.6420e+004   2.4541e+001   1.0682e+006    0.0006   -0.0000    0.0000   -0.0000    0.0178
                0.0079   2.1314e-006  -8.5176e-007   1.5260e-004   5.9686e+004   1.2439e+001   1.0682e+006    0.0004   -0.0000    0.0000   -0.0000    0.0178

               lamina:  3     
              matName:  (TEP-core)
                     s           e11           e22           e12           s11           s22           s12   s11_fcT   s11_fcC   s22_fcT   s22_fcC   s12_fcS
                   (m)         (m/m)         (m/m)         (rad)          (Pa)          (Pa)          (Pa)       (-)       (-)       (-)       (-)       (-)
                0.0000   2.2703e-006  -9.0655e-007   1.5260e-004   5.7095e+002  -6.4418e+001   3.0521e+003    0.0000   -0.0000    0.0000    0.0000    0.0000
                0.0079   1.3157e-006  -5.2549e-007   1.5260e-004   3.3086e+002  -3.7370e+001   3.0521e+003    0.0000   -0.0000    0.0000    0.0000    0.0000

               lamina:  4     
              matName:  (blade-root)
                     s           e11           e22           e12           s11           s22           s12   s11_fcT   s11_fcC   s22_fcT   s22_fcC   s12_fcS
                   (m)         (m/m)         (m/m)         (rad)          (Pa)          (Pa)          (Pa)       (-)       (-)       (-)       (-)       (-)
                0.0000   1.4321e-006  -5.7134e-007   1.5260e-004   4.0109e+004   2.3104e+001   1.0682e+006    0.0003   -0.0000    0.0000   -0.0000    0.0178
                0.0079   4.7750e-007  -1.9028e-007   1.5260e-004   1.3374e+004   1.1002e+001   1.0682e+006    0.0001   -0.0000    0.0000   -0.0000    0.0178

               lamina:  5     
              matName:  (blade-shell)
                     s           e11           e22           e12           s11           s22           s12   s11_fcT   s11_fcC   s22_fcT   s22_fcC   s12_fcS
                   (m)         (m/m)         (m/m)         (rad)          (Pa)          (Pa)          (Pa)       (-)       (-)       (-)       (-)       (-)
                0.0000   6.1634e-007  -2.4507e-007   1.5260e-004   1.7267e+004   2.2395e+001   1.0682e+006    0.0001   -0.0000    0.0000   -0.0000    0.0178
                0.0079  -4.5913e-007   1.8432e-007   1.5260e-004  -1.2852e+004   1.0293e+001   1.0682e+006    0.0000    0.0001    0.0000   -0.0000    0.0178

            panel:  4     
           lam_num    nPlies        tPly      fibAng     matID  matName
               (-)       (-)         (m)       (deg)       (-)  (-)
                 1         1    0.005000      0.0000         2  (blade-shell)
                 2         1    0.033757      0.0000         1  (blade-root)
                 3         1    0.034682      0.0000         6  (TEP-core)
                 4         1    0.033757      0.0000         1  (blade-root)
                 5         1    0.005000      0.0000         2  (blade-shell)

               lamina:  1     
              matName:  (blade-shell)
                     s           e11           e22           e12           s11           s22           s12   s11_fcT   s11_fcC   s22_fcT   s22_fcC   s12_fcS
                   (m)         (m/m)         (m/m)         (rad)          (Pa)          (Pa)          (Pa)       (-)       (-)       (-)       (-)       (-)
                0.0000   2.2523e-006  -9.0009e-007   1.4881e-004   6.3069e+004   1.2544e+001   1.0416e+006    0.0004   -0.0000    0.0000   -0.0000    0.0174
                0.1068  -1.1411e-005   4.5543e-006   1.4881e-004  -3.1957e+005  -1.5237e+002   1.0416e+006    0.0000    0.0015    0.0000    0.0000    0.0174
                0.4741  -5.6637e-005   2.2608e-005   1.4881e-004  -1.5861e+006  -7.2017e+002   1.0416e+006    0.0000    0.0074    0.0000    0.0000    0.0174
                0.8373  -1.0153e-004   4.0527e-005   1.4872e-004  -2.8433e+006  -1.2820e+003   1.0411e+006    0.0000    0.0133    0.0000    0.0000    0.0174
                1.1931  -1.4546e-004   5.8065e-005   1.4693e-004  -4.0737e+006  -1.8317e+003   1.0285e+006    0.0000    0.0191    0.0000    0.0000    0.0171
                1.5380  -1.8794e-004   7.5020e-005   1.4288e-004  -5.2632e+006  -2.3630e+003   1.0002e+006    0.0000    0.0247    0.0000    0.0000    0.0167
                1.8681  -2.2841e-004   9.1174e-005   1.3672e-004  -6.3965e+006  -2.8690e+003   9.5701e+005    0.0000    0.0300    0.0000    0.0000    0.0160
                2.1795  -2.6645e-004   1.0636e-004   1.2866e-004  -7.4618e+006  -3.3435e+003   9.0062e+005    0.0000    0.0350    0.0000    0.0000    0.0150
                2.4699  -3.0167e-004   1.2042e-004   1.1905e-004  -8.4483e+006  -3.7815e+003   8.3333e+005    0.0000    0.0397    0.0000    0.0000    0.0139
                2.7355  -3.3364e-004   1.3318e-004   1.0828e-004  -9.3435e+006  -4.1772e+003   7.5795e+005    0.0000    0.0439    0.0000    0.0000    0.0126
                2.9743  -3.6211e-004   1.4455e-004   9.6763e-005  -1.0141e+007  -4.5259e+003   6.7734e+005    0.0000    0.0476    0.0000    0.0000    0.0113
                3.1861  -3.8681e-004   1.5441e-004   8.4996e-005  -1.0832e+007  -4.8247e+003   5.9497e+005    0.0000    0.0509    0.0000    0.0000    0.0099
                3.3659  -4.0751e-004   1.6267e-004   7.3431e-005  -1.1412e+007  -5.0668e+003   5.1402e+005    0.0000    0.0536    0.0000    0.0000    0.0086
                3.5267  -4.2427e-004   1.6936e-004   6.2411e-005  -1.1882e+007  -5.2575e+003   4.3688e+005    0.0000    0.0558    0.0000    0.0000    0.0073
                3.6496  -4.3622e-004   1.7413e-004   5.2518e-005  -1.2216e+007  -5.3837e+003   3.6763e+005    0.0000    0.0574    0.0000    0.0000    0.0061
                3.7784  -4.4354e-004   1.7706e-004   4.3281e-005  -1.2421e+007  -5.4646e+003   3.0297e+005    0.0000    0.0583    0.0000    0.0000    0.0050

               lamina:  2     
              matName:  (blade-root)
                     s           e11           e22           e12           s11           s22           s12   s11_fcT   s11_fcC   s22_fcT   s22_fcC   s12_fcS
                   (m)         (m/m)         (m/m)         (rad)          (Pa)          (Pa)          (Pa)       (-)       (-)       (-)       (-)       (-)
                0.0000   2.1314e-006  -8.5176e-007   1.4881e-004   5.9686e+004   1.2439e+001   1.0416e+006    0.0004   -0.0000    0.0000   -0.0000    0.0174
                0.1068  -1.1842e-005   4.7269e-006   1.4881e-004  -3.3165e+005  -1.5274e+002   1.0416e+006    0.0000    0.0016    0.0000    0.0000    0.0174
                0.4741  -5.6759e-005   2.2656e-005   1.4881e-004  -1.5895e+006  -7.2028e+002   1.0416e+006    0.0000    0.0075    0.0000    0.0000    0.0174
                0.8373  -1.0149e-004   4.0512e-005   1.4872e-004  -2.8422e+006  -1.2820e+003   1.0411e+006    0.0000    0.0133    0.0000    0.0000    0.0174
                1.1931  -1.4537e-004   5.8027e-005   1.4693e-004  -4.0711e+006  -1.8316e+003   1.0285e+006    0.0000    0.0191    0.0000    0.0000    0.0171
                1.5380  -1.8779e-004   7.4961e-005   1.4288e-004  -5.2591e+006  -2.3628e+003   1.0002e+006    0.0000    0.0247    0.0000    0.0000    0.0167
                1.8681  -2.2821e-004   9.1094e-005   1.3672e-004  -6.3909e+006  -2.8688e+003   9.5701e+005    0.0000    0.0300    0.0000    0.0000    0.0160
                2.1795  -2.6619e-004   1.0626e-004   1.2866e-004  -7.4546e+006  -3.3432e+003   9.0062e+005    0.0000    0.0350    0.0000    0.0000    0.0150
                2.4699  -3.0135e-004   1.2029e-004   1.1905e-004  -8.4393e+006  -3.7813e+003   8.3333e+005    0.0000    0.0396    0.0000    0.0000    0.0139
                2.7355  -3.3324e-004   1.3302e-004   1.0828e-004  -9.3325e+006  -4.1769e+003   7.5795e+005    0.0000    0.0438    0.0000    0.0000    0.0126
                2.9743  -3.6162e-004   1.4435e-004   9.6763e-005  -1.0127e+007  -4.5255e+003   6.7734e+005    0.0000    0.0475    0.0000    0.0000    0.0113
                3.1861  -3.8621e-004   1.5417e-004   8.4996e-005  -1.0816e+007  -4.8242e+003   5.9497e+005    0.0000    0.0508    0.0000    0.0000    0.0099
                3.3659  -4.0676e-004   1.6237e-004   7.3431e-005  -1.1391e+007  -5.0661e+003   5.1402e+005    0.0000    0.0535    0.0000    0.0000    0.0086
                3.5267  -4.2336e-004   1.6900e-004   6.2411e-005  -1.1856e+007  -5.2567e+003   4.3688e+005    0.0000    0.0557    0.0000    0.0000    0.0073
                3.6496  -4.3511e-004   1.7369e-004   5.2518e-005  -1.2185e+007  -5.3827e+003   3.6763e+005    0.0000    0.0572    0.0000    0.0000    0.0061
                3.7784  -4.4235e-004   1.7658e-004   4.3281e-005  -1.2388e+007  -5.4636e+003   3.0297e+005    0.0000    0.0582    0.0000    0.0000    0.0050

               lamina:  3     
              matName:  (TEP-core)
                     s           e11           e22           e12           s11           s22           s12   s11_fcT   s11_fcC   s22_fcT   s22_fcC   s12_fcS
                   (m)         (m/m)         (m/m)         (rad)          (Pa)          (Pa)          (Pa)       (-)       (-)       (-)       (-)       (-)
                0.0000   1.3157e-006  -5.2549e-007   1.4881e-004   3.3086e+002  -3.7370e+001   2.9761e+003    0.0000   -0.0000    0.0000    0.0000    0.0000
                0.1068  -1.2286e-005   4.9042e-006   1.4881e-004  -3.0898e+003   3.4814e+002   2.9761e+003    0.0000    0.0000    0.0000   -0.0000    0.0000
                0.4741  -5.6884e-005   2.2706e-005   1.4881e-004  -1.4306e+004   1.6117e+003   2.9761e+003    0.0000    0.0000    0.0000   -0.0000    0.0000
                0.8373  -1.0123e-004   4.0409e-005   1.4872e-004  -2.5460e+004   2.8683e+003   2.9744e+003    0.0000    0.0000    0.0000   -0.0000    0.0000
                1.1931  -1.4474e-004   5.7775e-005   1.4693e-004  -3.6401e+004   4.1010e+003   2.9387e+003    0.0000    0.0000    0.0000   -0.0000    0.0000
                1.5380  -1.8679e-004   7.4562e-005   1.4288e-004  -4.6979e+004   5.2926e+003   2.8577e+003    0.0000    0.0000    0.0000   -0.0000    0.0000
                1.8681  -2.2685e-004   9.0553e-005   1.3672e-004  -5.7054e+004   6.4277e+003   2.7343e+003    0.0000    0.0000    0.0000   -0.0000    0.0000
                2.1795  -2.6444e-004   1.0556e-004   1.2866e-004  -6.6506e+004   7.4927e+003   2.5732e+003    0.0000    0.0000    0.0000   -0.0000    0.0000
                2.4699  -2.9917e-004   1.1942e-004   1.1905e-004  -7.5240e+004   8.4767e+003   2.3810e+003    0.0000    0.0000    0.0000   -0.0000    0.0000
                2.7355  -3.3058e-004   1.3196e-004   1.0828e-004  -8.3140e+004   9.3666e+003   2.1656e+003    0.0000    0.0000    0.0000   -0.0000    0.0000
                2.9743  -3.5833e-004   1.4303e-004   9.6763e-005  -9.0120e+004   1.0153e+004   1.9353e+003    0.0000    0.0000    0.0000   -0.0000    0.0000
                3.1861  -3.8219e-004   1.5256e-004   8.4996e-005  -9.6121e+004   1.0829e+004   1.6999e+003    0.0000    0.0000    0.0000   -0.0000    0.0000
                3.3659  -4.0170e-004   1.6035e-004   7.3431e-005  -1.0103e+005   1.1382e+004   1.4686e+003    0.0000    0.0000    0.0000   -0.0000    0.0000
                3.5267  -4.1719e-004   1.6653e-004   6.2411e-005  -1.0492e+005   1.1821e+004   1.2482e+003    0.0000    0.0000    0.0000   -0.0000    0.0000
                3.6496  -4.2766e-004   1.7071e-004   5.2518e-005  -1.0756e+005   1.2118e+004   1.0504e+003    0.0000    0.0000    0.0000   -0.0000    0.0000
                3.7784  -4.3429e-004   1.7336e-004   4.3281e-005  -1.0922e+005   1.2306e+004   8.6563e+002    0.0000    0.0000    0.0000   -0.0000    0.0000

               lamina:  4     
              matName:  (blade-root)
                     s           e11           e22           e12           s11           s22           s12   s11_fcT   s11_fcC   s22_fcT   s22_fcC   s12_fcS
                   (m)         (m/m)         (m/m)         (rad)          (Pa)          (Pa)          (Pa)       (-)       (-)       (-)       (-)       (-)
                0.0000   4.7750e-007  -1.9028e-007   1.4881e-004   1.3374e+004   1.1002e+001   1.0416e+006    0.0001   -0.0000    0.0000   -0.0000    0.0174
                0.1068  -1.2717e-005   5.0768e-006   1.4881e-004  -3.5614e+005  -1.5351e+002   1.0416e+006    0.0000    0.0017    0.0000    0.0000    0.0174
                0.4741  -5.7005e-005   2.2755e-005   1.4881e-004  -1.5964e+006  -7.2049e+002   1.0416e+006    0.0000    0.0075    0.0000    0.0000    0.0174
                0.8373  -1.0097e-004   4.0303e-005   1.4872e-004  -2.8276e+006  -1.2815e+003   1.0411e+006    0.0000    0.0133    0.0000    0.0000    0.0174
                1.1931  -1.4409e-004   5.7515e-005   1.4693e-004  -4.0352e+006  -1.8305e+003   1.0285e+006    0.0000    0.0189    0.0000    0.0000    0.0171
                1.5380  -1.8577e-004   7.4153e-005   1.4288e-004  -5.2025e+006  -2.3611e+003   1.0002e+006    0.0000    0.0244    0.0000    0.0000    0.0167
                1.8681  -2.2546e-004   8.9997e-005   1.3672e-004  -6.3142e+006  -2.8664e+003   9.5701e+005    0.0000    0.0296    0.0000    0.0000    0.0160
                2.1795  -2.6264e-004   1.0484e-004   1.2866e-004  -7.3553e+006  -3.3402e+003   9.0062e+005    0.0000    0.0345    0.0000    0.0000    0.0150
                2.4699  -2.9693e-004   1.1852e-004   1.1905e-004  -8.3155e+006  -3.7774e+003   8.3333e+005    0.0000    0.0390    0.0000    0.0000    0.0139
                2.7355  -3.2783e-004   1.3086e-004   1.0828e-004  -9.1810e+006  -4.1722e+003   7.5795e+005    0.0000    0.0431    0.0000    0.0000    0.0126
                2.9743  -3.5495e-004   1.4168e-004   9.6763e-005  -9.9403e+006  -4.5197e+003   6.7734e+005    0.0000    0.0467    0.0000    0.0000    0.0113
                3.1861  -3.7806e-004   1.5091e-004   8.4996e-005  -1.0588e+007  -4.8171e+003   5.9497e+005    0.0000    0.0497    0.0000    0.0000    0.0099
                3.3659  -3.9650e-004   1.5827e-004   7.3431e-005  -1.1104e+007  -5.0572e+003   5.1402e+005    0.0000    0.0521    0.0000    0.0000    0.0086
                3.5267  -4.1085e-004   1.6399e-004   6.2411e-005  -1.1506e+007  -5.2458e+003   4.3688e+005    0.0000    0.0540    0.0000    0.0000    0.0073
                3.6496  -4.2000e-004   1.6765e-004   5.2518e-005  -1.1762e+007  -5.3696e+003   3.6763e+005    0.0000    0.0552    0.0000    0.0000    0.0061
                3.7784  -4.2600e-004   1.7004e-004   4.3281e-005  -1.1930e+007  -5.4494e+003   3.0297e+005    0.0000    0.0560    0.0000    0.0000    0.0050

               lamina:  5     
              matName:  (blade-shell)
                     s           e11           e22           e12           s11           s22           s12   s11_fcT   s11_fcC   s22_fcT   s22_fcC   s12_fcS
                   (m)         (m/m)         (m/m)         (rad)          (Pa)          (Pa)          (Pa)       (-)       (-)       (-)       (-)       (-)
                0.0000  -4.5913e-007   1.8432e-007   1.4881e-004  -1.2852e+004   1.0293e+001   1.0416e+006    0.0000    0.0001    0.0000   -0.0000    0.0174
                0.1068  -1.2781e-005   5.1023e-006   1.4881e-004  -3.5793e+005  -1.5356e+002   1.0416e+006    0.0000    0.0017    0.0000    0.0000    0.0174
                0.4741  -5.7023e-005   2.2762e-005   1.4881e-004  -1.5969e+006  -7.2051e+002   1.0416e+006    0.0000    0.0075    0.0000    0.0000    0.0174
                0.8373  -1.0071e-004   4.0199e-005   1.4872e-004  -2.8204e+006  -1.2813e+003   1.0411e+006    0.0000    0.0132    0.0000    0.0000    0.0174
                1.1931  -1.4346e-004   5.7262e-005   1.4693e-004  -4.0175e+006  -1.8299e+003   1.0285e+006    0.0000    0.0189    0.0000    0.0000    0.0171
                1.5380  -1.8477e-004   7.3754e-005   1.4288e-004  -5.1746e+006  -2.3602e+003   1.0002e+006    0.0000    0.0243    0.0000    0.0000    0.0167
                1.8681  -2.2411e-004   8.9457e-005   1.3672e-004  -6.2763e+006  -2.8653e+003   9.5701e+005    0.0000    0.0295    0.0000    0.0000    0.0160
                2.1795  -2.6089e-004   1.0414e-004   1.2866e-004  -7.3064e+006  -3.3386e+003   9.0062e+005    0.0000    0.0343    0.0000    0.0000    0.0150
                2.4699  -2.9475e-004   1.1765e-004   1.1905e-004  -8.2544e+006  -3.7755e+003   8.3333e+005    0.0000    0.0388    0.0000    0.0000    0.0139
                2.7355  -3.2517e-004   1.2979e-004   1.0828e-004  -9.1063e+006  -4.1699e+003   7.5795e+005    0.0000    0.0428    0.0000    0.0000    0.0126
                2.9743  -3.5165e-004   1.4036e-004   9.6763e-005  -9.8481e+006  -4.5168e+003   6.7734e+005    0.0000    0.0462    0.0000    0.0000    0.0113
                3.1861  -3.7404e-004   1.4930e-004   8.4996e-005  -1.0475e+007  -4.8136e+003   5.9497e+005    0.0000    0.0492    0.0000    0.0000    0.0099
                3.3659  -3.9144e-004   1.5624e-004   7.3431e-005  -1.0962e+007  -5.0528e+003   5.1402e+005    0.0000    0.0515    0.0000    0.0000    0.0086
                3.5267  -4.0468e-004   1.6153e-004   6.2411e-005  -1.1333e+007  -5.2404e+003   4.3688e+005    0.0000    0.0532    0.0000    0.0000    0.0073
                3.6496  -4.1254e-004   1.6466e-004   5.2518e-005  -1.1553e+007  -5.3631e+003   3.6763e+005    0.0000    0.0542    0.0000    0.0000    0.0061
                3.7784  -4.1794e-004   1.6682e-004   4.3281e-005  -1.1705e+007  -5.4424e+003   3.0297e+005    0.0000    0.0550    0.0000    0.0000    0.0050

  Bottom:  panel  nNode   nLam     xc_St    xc_End         b         t         E_eff         G_eff      nu_eff     density  buckleCrit
            (-)    (-)    (-)       (-)       (-)       (m)       (m)          (Pa)          (Pa)         (-)    (kg/m^3)         (-)
              1     13      5    0.0000    0.3223    3.2286    0.1122   1.9426e+010   4.8423e+009      0.3992   1339.9537      0.0001
              2      6      7    0.3223    0.5357    1.4797    0.1561   3.5102e+010   4.9859e+009      0.3413   1885.2337      0.0006
              3      2      5    0.5357    0.5368    0.0081    0.1122   1.9426e+010   4.8423e+009      0.3992   1339.9537      0.0000
              4     16      5    0.5368    1.0000    3.7129    0.1122   1.9426e+010   4.8423e+009      0.3992   1339.9537      0.0259

            panel:  1     
           lam_num    nPlies        tPly      fibAng     matID  matName
               (-)       (-)         (m)       (deg)       (-)  (-)
                 1         1    0.005000      0.0000         2  (blade-shell)
                 2         1    0.033757      0.0000         1  (blade-root)
                 3         1    0.034682      0.0000         5  (LEP-core)
                 4         1    0.033757      0.0000         1  (blade-root)
                 5         1    0.005000      0.0000         2  (blade-shell)

               lamina:  1     
              matName:  (blade-shell)
                     s           e11           e22           e12           s11           s22           s12   s11_fcT   s11_fcC   s22_fcT   s22_fcC   s12_fcS
                   (m)         (m/m)         (m/m)         (rad)          (Pa)          (Pa)          (Pa)       (-)       (-)       (-)       (-)       (-)
                0.0000   3.8342e-004  -1.5306e-004   3.1060e-005   1.0738e+007   4.6988e+003   2.1742e+005    0.0746   -0.0000    0.0000   -0.0000    0.0036
                0.2231   3.7335e-004  -1.4904e-004   4.2555e-005   1.0456e+007   4.5762e+003   2.9789e+005    0.0726   -0.0000    0.0000   -0.0000    0.0050
                0.4702   3.5778e-004  -1.4282e-004   5.4869e-005   1.0020e+007   4.3909e+003   3.8409e+005    0.0696   -0.0000    0.0000   -0.0000    0.0064
                0.7153   3.3815e-004  -1.3499e-004   6.6511e-005   9.4699e+006   4.1576e+003   4.6558e+005    0.0658   -0.0000    0.0000   -0.0000    0.0078
                0.9714   3.1449e-004  -1.2554e-004   7.7944e-005   8.8072e+006   3.8736e+003   5.4561e+005    0.0612   -0.0000    0.0000   -0.0000    0.0091
                1.2416   2.8693e-004  -1.1454e-004   8.9081e-005   8.0354e+006   3.5410e+003   6.2357e+005    0.0558   -0.0000    0.0000   -0.0000    0.0104
                1.5211   2.5598e-004  -1.0218e-004   9.9503e-005   7.1686e+006   3.1668e+003   6.9652e+005    0.0498   -0.0000    0.0000   -0.0000    0.0116
                1.8110   2.2204e-004  -8.8636e-005   1.0905e-004   6.2183e+006   2.7547e+003   7.6334e+005    0.0432   -0.0000    0.0000   -0.0000    0.0127
                2.1111   1.8543e-004  -7.4022e-005   1.1750e-004   5.1931e+006   2.3102e+003   8.2252e+005    0.0361   -0.0000    0.0000   -0.0000    0.0137
                2.4179   1.4680e-004  -5.8598e-005   1.2459e-004   4.1111e+006   1.8418e+003   8.7212e+005    0.0285   -0.0000    0.0000   -0.0000    0.0145
                2.7322   1.0664e-004  -4.2567e-005   1.3018e-004   2.9864e+006   1.3549e+003   9.1129e+005    0.0207   -0.0000    0.0000   -0.0000    0.0152
                3.0552   6.5865e-005  -2.6290e-005   1.3417e-004   1.8446e+006   8.5620e+002   9.3916e+005    0.0128   -0.0000    0.0000   -0.0000    0.0157
                3.2286   4.4082e-005  -1.7594e-005   1.3557e-004   1.2345e+006   5.9402e+002   9.4899e+005    0.0086   -0.0000    0.0000   -0.0000    0.0158

               lamina:  2     
              matName:  (blade-root)
                     s           e11           e22           e12           s11           s22           s12   s11_fcT   s11_fcC   s22_fcT   s22_fcC   s12_fcS
                   (m)         (m/m)         (m/m)         (rad)          (Pa)          (Pa)          (Pa)       (-)       (-)       (-)       (-)       (-)
                0.0000   3.8220e-004  -1.5257e-004   3.1060e-005   1.0703e+007   4.6978e+003   2.1742e+005    0.0743   -0.0000    0.0000   -0.0000    0.0036
                0.2231   3.7217e-004  -1.4857e-004   4.2555e-005   1.0422e+007   4.5752e+003   2.9789e+005    0.0724   -0.0000    0.0000   -0.0000    0.0050
                0.4702   3.5668e-004  -1.4239e-004   5.4869e-005   9.9889e+006   4.3899e+003   3.8409e+005    0.0694   -0.0000    0.0000   -0.0000    0.0064
                0.7153   3.3718e-004  -1.3460e-004   6.6511e-005   9.4426e+006   4.1568e+003   4.6558e+005    0.0656   -0.0000    0.0000   -0.0000    0.0078
                0.9714   3.1363e-004  -1.2520e-004   7.7944e-005   8.7833e+006   3.8728e+003   5.4561e+005    0.0610   -0.0000    0.0000   -0.0000    0.0091
                1.2416   2.8620e-004  -1.1425e-004   8.9081e-005   8.0150e+006   3.5403e+003   6.2357e+005    0.0557   -0.0000    0.0000   -0.0000    0.0104
                1.5211   2.5539e-004  -1.0195e-004   9.9503e-005   7.1521e+006   3.1663e+003   6.9652e+005    0.0497   -0.0000    0.0000   -0.0000    0.0116
                1.8110   2.2159e-004  -8.8455e-005   1.0905e-004   6.2056e+006   2.7543e+003   7.6334e+005    0.0431   -0.0000    0.0000   -0.0000    0.0127
                2.1111   1.8513e-004  -7.3900e-005   1.1750e-004   5.1845e+006   2.3100e+003   8.2252e+005    0.0360   -0.0000    0.0000   -0.0000    0.0137
                2.4179   1.4665e-004  -5.8540e-005   1.2459e-004   4.1070e+006   1.8416e+003   8.7212e+005    0.0285   -0.0000    0.0000   -0.0000    0.0145
                2.7322   1.0681e-004  -4.2633e-005   1.3018e-004   2.9911e+006   1.3550e+003   9.1129e+005    0.0208   -0.0000    0.0000   -0.0000    0.0152
                3.0552   6.7052e-005  -2.6765e-005   1.3417e-004   1.8778e+006   8.5723e+002   9.3916e+005    0.0130   -0.0000    0.0000   -0.0000    0.0157
                3.2286   4.6051e-005  -1.8381e-005   1.3557e-004   1.2897e+006   5.9573e+002   9.4899e+005    0.0090   -0.0000    0.0000   -0.0000    0.0158

               lamina:  3     
              matName:  (LEP-core)
                     s           e11           e22           e12           s11           s22           s12   s11_fcT   s11_fcC   s22_fcT   s22_fcC   s12_fcS
                   (m)         (m/m)         (m/m)         (rad)          (Pa)          (Pa)          (Pa)       (-)       (-)       (-)       (-)       (-)
                0.0000   3.7395e-004  -1.4927e-004   3.1060e-005   9.4049e+004  -1.0596e+004   6.2120e+002    0.0000   -0.0000    0.0000    0.0000    0.0000
                0.2231   3.6417e-004  -1.4537e-004   4.2555e-005   9.1589e+004  -1.0319e+004   8.5111e+002    0.0000   -0.0000    0.0000    0.0000    0.0000
                0.4702   3.4931e-004  -1.3944e-004   5.4869e-005   8.7851e+004  -9.8980e+003   1.0974e+003    0.0000   -0.0000    0.0000    0.0000    0.0000
                0.7153   3.3059e-004  -1.3197e-004   6.6511e-005   8.3144e+004  -9.3676e+003   1.3302e+003    0.0000   -0.0000    0.0000    0.0000    0.0000
                0.9714   3.0786e-004  -1.2289e-004   7.7944e-005   7.7427e+004  -8.7234e+003   1.5589e+003    0.0000   -0.0000    0.0000    0.0000    0.0000
                1.2416   2.8128e-004  -1.1228e-004   8.9081e-005   7.0743e+004  -7.9703e+003   1.7816e+003    0.0000   -0.0000    0.0000    0.0000    0.0000
                1.5211   2.5140e-004  -1.0035e-004   9.9503e-005   6.3226e+004  -7.1234e+003   1.9901e+003    0.0000   -0.0000    0.0000    0.0000    0.0000
                1.8110   2.1853e-004  -8.7229e-005   1.0905e-004   5.4959e+004  -6.1919e+003   2.1810e+003    0.0000   -0.0000    0.0000    0.0000    0.0000
                2.1111   1.8306e-004  -7.3073e-005   1.1750e-004   4.6040e+004  -5.1870e+003   2.3501e+003    0.0000   -0.0000    0.0000    0.0000    0.0000
                2.4179   1.4567e-004  -5.8148e-005   1.2459e-004   3.6637e+004  -4.1275e+003   2.4918e+003    0.0000   -0.0000    0.0000    0.0000    0.0000
                2.7322   1.0698e-004  -4.2702e-005   1.3018e-004   2.6905e+004  -3.0310e+003   2.6037e+003    0.0000   -0.0000    0.0000    0.0000    0.0000
                3.0552   6.8271e-005  -2.7252e-005   1.3417e-004   1.7170e+004  -1.9345e+003   2.6833e+003    0.0000   -0.0000    0.0000    0.0000    0.0000
                3.2286   4.8073e-005  -1.9190e-005   1.3557e-004   1.2090e+004  -1.3623e+003   2.7114e+003    0.0000   -0.0000    0.0000    0.0000    0.0000

               lamina:  4     
              matName:  (blade-root)
                     s           e11           e22           e12           s11           s22           s12   s11_fcT   s11_fcC   s22_fcT   s22_fcC   s12_fcS
                   (m)         (m/m)         (m/m)         (rad)          (Pa)          (Pa)          (Pa)       (-)       (-)       (-)       (-)       (-)
                0.0000   3.6548e-004  -1.4588e-004   3.1060e-005   1.0235e+007   4.6832e+003   2.1742e+005    0.0711   -0.0000    0.0000   -0.0000    0.0036
                0.2231   3.5596e-004  -1.4209e-004   4.2555e-005   9.9688e+006   4.5611e+003   2.9789e+005    0.0692   -0.0000    0.0000   -0.0000    0.0050
                0.4702   3.4174e-004  -1.3641e-004   5.4869e-005   9.5703e+006   4.3770e+003   3.8409e+005    0.0665   -0.0000    0.0000   -0.0000    0.0064
                0.7153   3.2383e-004  -1.2926e-004   6.6511e-005   9.0690e+006   4.1452e+003   4.6558e+005    0.0630   -0.0000    0.0000   -0.0000    0.0078
                0.9714   3.0193e-004  -1.2052e-004   7.7944e-005   8.4556e+006   3.8626e+003   5.4561e+005    0.0587   -0.0000    0.0000   -0.0000    0.0091
                1.2416   2.7624e-004  -1.1026e-004   8.9081e-005   7.7360e+006   3.5317e+003   6.2357e+005    0.0537   -0.0000    0.0000   -0.0000    0.0104
                1.5211   2.4730e-004  -9.8712e-005   9.9503e-005   6.9256e+006   3.1592e+003   6.9652e+005    0.0481   -0.0000    0.0000   -0.0000    0.0116
                1.8110   2.1538e-004  -8.5970e-005   1.0905e-004   6.0316e+006   2.7489e+003   7.6334e+005    0.0419   -0.0000    0.0000   -0.0000    0.0127
                2.1111   1.8094e-004  -7.2224e-005   1.1750e-004   5.0672e+006   2.3063e+003   8.2252e+005    0.0352   -0.0000    0.0000   -0.0000    0.0137
                2.4179   1.4467e-004  -5.7746e-005   1.2459e-004   4.0514e+006   1.8399e+003   8.7212e+005    0.0281   -0.0000    0.0000   -0.0000    0.0145
                2.7322   1.0714e-004  -4.2768e-005   1.3018e-004   3.0006e+006   1.3553e+003   9.1129e+005    0.0208   -0.0000    0.0000   -0.0000    0.0152
                3.0552   6.9458e-005  -2.7727e-005   1.3417e-004   1.9452e+006   8.5932e+002   9.3916e+005    0.0135   -0.0000    0.0000   -0.0000    0.0157
                3.2286   5.0042e-005  -1.9977e-005   1.3557e-004   1.4014e+006   5.9920e+002   9.4899e+005    0.0097   -0.0000    0.0000   -0.0000    0.0158

               lamina:  5     
              matName:  (blade-shell)
                     s           e11           e22           e12           s11           s22           s12   s11_fcT   s11_fcC   s22_fcT   s22_fcC   s12_fcS
                   (m)         (m/m)         (m/m)         (rad)          (Pa)          (Pa)          (Pa)       (-)       (-)       (-)       (-)       (-)
                0.0000   3.5723e-004  -1.4258e-004   3.1060e-005   1.0004e+007   4.6761e+003   2.1742e+005    0.0695   -0.0000    0.0000   -0.0000    0.0036
                0.2231   3.4797e-004  -1.3889e-004   4.2555e-005   9.7450e+006   4.5541e+003   2.9789e+005    0.0677   -0.0000    0.0000   -0.0000    0.0050
                0.4702   3.3436e-004  -1.3346e-004   5.4869e-005   9.3639e+006   4.3705e+003   3.8409e+005    0.0650   -0.0000    0.0000   -0.0000    0.0064
                0.7153   3.1725e-004  -1.2663e-004   6.6511e-005   8.8848e+006   4.1395e+003   4.6558e+005    0.0617   -0.0000    0.0000   -0.0000    0.0078
                0.9714   2.9616e-004  -1.1821e-004   7.7944e-005   8.2940e+006   3.8576e+003   5.4561e+005    0.0576   -0.0000    0.0000   -0.0000    0.0091
                1.2416   2.7132e-004  -1.0830e-004   8.9081e-005   7.5984e+006   3.5274e+003   6.2357e+005    0.0528   -0.0000    0.0000   -0.0000    0.0104
                1.5211   2.4331e-004  -9.7116e-005   9.9503e-005   6.8139e+006   3.1558e+003   6.9652e+005    0.0473   -0.0000    0.0000   -0.0000    0.0116
                1.8110   2.1231e-004  -8.4744e-005   1.0905e-004   5.9458e+006   2.7463e+003   7.6334e+005    0.0413   -0.0000    0.0000   -0.0000    0.0127
                2.1111   1.7887e-004  -7.1398e-005   1.1750e-004   5.0094e+006   2.3045e+003   8.2252e+005    0.0348   -0.0000    0.0000   -0.0000    0.0137
                2.4179   1.4369e-004  -5.7354e-005   1.2459e-004   4.0240e+006   1.8391e+003   8.7212e+005    0.0279   -0.0000    0.0000   -0.0000    0.0145
                2.7322   1.0717e-004  -4.2778e-005   1.3018e-004   3.0013e+006   1.3553e+003   9.1129e+005    0.0208   -0.0000    0.0000   -0.0000    0.0152
                3.0552   6.9634e-005  -2.7797e-005   1.3417e-004   1.9501e+006   8.5947e+002   9.3916e+005    0.0135   -0.0000    0.0000   -0.0000    0.0157
                3.2286   5.0333e-005  -2.0094e-005   1.3557e-004   1.4096e+006   5.9946e+002   9.4899e+005    0.0098   -0.0000    0.0000   -0.0000    0.0158

            panel:  2     
           lam_num    nPlies        tPly      fibAng     matID  matName
               (-)       (-)         (m)       (deg)       (-)  (-)
                 1         1    0.005000      0.0000         2  (blade-shell)
                 2         1    0.033757      0.0000         1  (blade-root)
                 3         1    0.039306      0.0000         3  (spar-uni)
                 4         1    0.000001      0.0000         4  (spar-core)
                 5         1    0.039306      0.0000         3  (spar-uni)
                 6         1    0.033757      0.0000         1  (blade-root)
                 7         1    0.005000      0.0000         2  (blade-shell)

               lamina:  1     
              matName:  (blade-shell)
                     s           e11           e22           e12           s11           s22           s12   s11_fcT   s11_fcC   s22_fcT   s22_fcC   s12_fcS
                   (m)         (m/m)         (m/m)         (rad)          (Pa)          (Pa)          (Pa)       (-)       (-)       (-)       (-)       (-)
                0.0000   4.0640e-005  -1.3560e-005   9.7284e-005   1.1543e+006   4.1027e+004   6.8099e+005    0.0080   -0.0000    0.0000   -0.0000    0.0113
                0.1548   1.9881e-005  -6.3713e-006   9.8760e-005   5.6629e+005   2.4060e+004   6.9132e+005    0.0039   -0.0000    0.0000   -0.0000    0.0115
                0.4992  -2.3105e-005   8.4479e-006   9.9565e-005  -6.5176e+005  -1.2081e+004   6.9696e+005    0.0000    0.0031    0.0000    0.0000    0.0116
                0.8550  -6.5198e-005   2.2938e-005   9.6920e-005  -1.8447e+006  -4.7797e+004   6.7844e+005    0.0000    0.0087    0.0000    0.0000    0.0113
                1.2231  -1.0606e-004   3.6973e-005   9.0618e-005  -3.0029e+006  -8.2965e+004   6.3432e+005    0.0000    0.0141    0.0000    0.0000    0.0106
                1.4797  -1.3317e-004   4.6271e-005   8.4161e-005  -3.7713e+006  -1.0646e+005   5.8912e+005    0.0000    0.0177    0.0000    0.0000    0.0098

               lamina:  2     
              matName:  (blade-root)
                     s           e11           e22           e12           s11           s22           s12   s11_fcT   s11_fcC   s22_fcT   s22_fcC   s12_fcS
                   (m)         (m/m)         (m/m)         (rad)          (Pa)          (Pa)          (Pa)       (-)       (-)       (-)       (-)       (-)
                0.0000   4.3883e-005  -1.4810e-005   9.7284e-005   1.2454e+006   4.1746e+004   6.8099e+005    0.0086   -0.0000    0.0000   -0.0000    0.0113
                0.1548   2.4212e-005  -8.0405e-006   9.8760e-005   6.8794e+005   2.5020e+004   6.9132e+005    0.0048   -0.0000    0.0000   -0.0000    0.0115
                0.4992  -2.2288e-005   8.1332e-006   9.9565e-005  -6.2883e+005  -1.1900e+004   6.9696e+005    0.0000    0.0030    0.0000    0.0000    0.0116
                0.8550  -6.4201e-005   2.2554e-005   9.6920e-005  -1.8167e+006  -4.7576e+004   6.7844e+005    0.0000    0.0085    0.0000    0.0000    0.0113
                1.2231  -1.0494e-004   3.6539e-005   9.0618e-005  -2.9713e+006  -8.2716e+004   6.3432e+005    0.0000    0.0139    0.0000    0.0000    0.0106
                1.4797  -1.3197e-004   4.5810e-005   8.4161e-005  -3.7377e+006  -1.0620e+005   5.8912e+005    0.0000    0.0175    0.0000    0.0000    0.0098

               lamina:  3     
              matName:  (spar-uni)
                     s           e11           e22           e12           s11           s22           s12   s11_fcT   s11_fcC   s22_fcT   s22_fcC   s12_fcS
                   (m)         (m/m)         (m/m)         (rad)          (Pa)          (Pa)          (Pa)       (-)       (-)       (-)       (-)       (-)
                0.0000   4.7659e-005  -1.6265e-005   9.7284e-005   1.9899e+006  -4.1988e+004   2.9185e+005    0.0020   -0.0000    0.0000    0.0000    0.0097
                0.1548   2.9255e-005  -9.9841e-006   9.8760e-005   1.2215e+006  -2.5774e+004   2.9628e+005    0.0013   -0.0000    0.0000    0.0000    0.0099
                0.4992  -1.6776e-005   6.0086e-006   9.9565e-005  -6.9930e+005   1.8853e+004   2.9870e+005    0.0000    0.0010    0.0000   -0.0000    0.0100
                0.8550  -5.7469e-005   1.9959e-005   9.6920e-005  -2.3981e+006   5.5605e+004   2.9076e+005    0.0000    0.0034    0.0000   -0.0000    0.0097
                1.2231  -9.7340e-005   3.3611e-005   9.0618e-005  -4.0627e+006   9.1371e+004   2.7185e+005    0.0000    0.0058    0.0000   -0.0000    0.0091
                1.4797  -1.2391e-004   4.2704e-005   8.4161e-005  -5.1721e+006   1.1512e+005   2.5248e+005    0.0000    0.0074    0.0000   -0.0000    0.0084

               lamina:  4     
              matName:  (spar-core)
                     s           e11           e22           e12           s11           s22           s12   s11_fcT   s11_fcC   s22_fcT   s22_fcC   s12_fcS
                   (m)         (m/m)         (m/m)         (rad)          (Pa)          (Pa)          (Pa)       (-)       (-)       (-)       (-)       (-)
                0.0000   4.7660e-005  -1.6265e-005   9.7284e-005   1.2223e+004  -5.6218e+002   1.9457e+003    0.0000   -0.0000    0.0000    0.0000    0.0000
                0.1548   2.9255e-005  -9.9842e-006   9.8760e-005   7.5027e+003  -3.4508e+002   1.9752e+003    0.0000   -0.0000    0.0000    0.0000    0.0000
                0.4992  -1.0357e-005   3.5348e-006   9.9565e-005  -2.6562e+003   1.2217e+002   1.9913e+003    0.0000    0.0000    0.0000   -0.0000    0.0000
                0.8550  -4.9630e-005   1.6938e-005   9.6920e-005  -1.2728e+004   5.8542e+002   1.9384e+003    0.0000    0.0000    0.0000   -0.0000    0.0000
                1.2231  -8.8495e-005   3.0202e-005   9.0618e-005  -2.2695e+004   1.0439e+003   1.8124e+003    0.0000    0.0000    0.0000   -0.0000    0.0000
                1.4797  -1.1453e-004   3.9086e-005   8.4161e-005  -2.9372e+004   1.3509e+003   1.6832e+003    0.0000    0.0000    0.0000   -0.0000    0.0000

               lamina:  5     
              matName:  (spar-uni)
                     s           e11           e22           e12           s11           s22           s12   s11_fcT   s11_fcC   s22_fcT   s22_fcC   s12_fcS
                   (m)         (m/m)         (m/m)         (rad)          (Pa)          (Pa)          (Pa)       (-)       (-)       (-)       (-)       (-)
                0.0000   5.1436e-005  -1.7721e-005   9.7284e-005   2.1469e+006  -4.7712e+004   2.9185e+005    0.0022   -0.0000    0.0000    0.0000    0.0097
                0.1548   3.4298e-005  -1.1928e-005   9.8760e-005   1.4311e+006  -3.3416e+004   2.9628e+005    0.0015   -0.0000    0.0000    0.0000    0.0099
                0.4992  -1.0357e-005   3.5347e-006   9.9565e-005  -4.3244e+005   9.1246e+003   2.9870e+005    0.0000    0.0006    0.0000   -0.0000    0.0100
                0.8550  -4.9630e-005   1.6938e-005   9.6920e-005  -2.0722e+006   4.3725e+004   2.9076e+005    0.0000    0.0030    0.0000   -0.0000    0.0097
                1.2231  -8.8494e-005   3.0202e-005   9.0618e-005  -3.6949e+006   7.7964e+004   2.7185e+005    0.0000    0.0053    0.0000   -0.0000    0.0091
                1.4797  -1.1453e-004   3.9086e-005   8.4161e-005  -4.7819e+006   1.0090e+005   2.5248e+005    0.0000    0.0068    0.0000   -0.0000    0.0084

               lamina:  6     
              matName:  (blade-root)
                     s           e11           e22           e12           s11           s22           s12   s11_fcT   s11_fcC   s22_fcT   s22_fcC   s12_fcS
                   (m)         (m/m)         (m/m)         (rad)          (Pa)          (Pa)          (Pa)       (-)       (-)       (-)       (-)       (-)
                0.0000   5.4679e-005  -1.8971e-005   9.7284e-005   1.5487e+006   4.4140e+004   6.8099e+005    0.0108   -0.0000    0.0000   -0.0000    0.0113
                0.1548   3.8628e-005  -1.3597e-005   9.8760e-005   1.0929e+006   2.8218e+004   6.9132e+005    0.0076   -0.0000    0.0000   -0.0000    0.0115
                0.4992  -3.9385e-006  -1.0638e-006   9.9565e-005  -1.1341e+005  -7.8305e+003   6.9696e+005    0.0000    0.0005    0.0000    0.0000    0.0116
                0.8550  -4.1792e-005   1.3917e-005   9.6920e-005  -1.1872e+006  -4.2606e+004   6.7844e+005    0.0000    0.0056    0.0000    0.0000    0.0113
                1.2231  -7.9649e-005   2.6793e-005   9.0618e-005  -2.2610e+006  -7.7107e+004   6.3432e+005    0.0000    0.0106    0.0000    0.0000    0.0106
                1.4797  -1.0514e-004   3.5469e-005   8.4161e-005  -2.9841e+006  -1.0025e+005   5.8912e+005    0.0000    0.0140    0.0000    0.0000    0.0098

               lamina:  7     
              matName:  (blade-shell)
                     s           e11           e22           e12           s11           s22           s12   s11_fcT   s11_fcC   s22_fcT   s22_fcC   s12_fcS
                   (m)         (m/m)         (m/m)         (rad)          (Pa)          (Pa)          (Pa)       (-)       (-)       (-)       (-)       (-)
                0.0000   5.5159e-005  -1.9156e-005   9.7284e-005   1.5622e+006   4.4247e+004   6.8099e+005    0.0108   -0.0000    0.0000   -0.0000    0.0113
                0.1548   3.9270e-005  -1.3844e-005   9.8760e-005   1.1109e+006   2.8360e+004   6.9132e+005    0.0077   -0.0000    0.0000   -0.0000    0.0115
                0.4992   2.3903e-006  -1.3784e-006   9.9565e-005   6.4357e+004  -6.6079e+003   6.9696e+005    0.0004   -0.0000    0.0000    0.0000    0.0116
                0.8550  -3.5060e-005   1.1322e-005   9.6920e-005  -9.9812e+005  -4.1113e+004   6.7844e+005    0.0000    0.0047    0.0000    0.0000    0.0113
                1.2231  -7.2052e-005   2.3865e-005   9.0618e-005  -2.0476e+006  -7.5423e+004   6.3432e+005    0.0000    0.0096    0.0000    0.0000    0.0106
                1.4797  -9.7081e-005   3.2362e-005   8.4161e-005  -2.7577e+006  -9.8460e+004   5.8912e+005    0.0000    0.0129    0.0000    0.0000    0.0098

            panel:  3     
           lam_num    nPlies        tPly      fibAng     matID  matName
               (-)       (-)         (m)       (deg)       (-)  (-)
                 1         1    0.005000      0.0000         2  (blade-shell)
                 2         1    0.033757      0.0000         1  (blade-root)
                 3         1    0.034682      0.0000         6  (TEP-core)
                 4         1    0.033757      0.0000         1  (blade-root)
                 5         1    0.005000      0.0000         2  (blade-shell)

               lamina:  1     
              matName:  (blade-shell)
                     s           e11           e22           e12           s11           s22           s12   s11_fcT   s11_fcC   s22_fcT   s22_fcC   s12_fcS
                   (m)         (m/m)         (m/m)         (rad)          (Pa)          (Pa)          (Pa)       (-)       (-)       (-)       (-)       (-)
                0.0000  -1.2414e-004   4.9560e-005   1.2059e-004  -3.4766e+006  -1.4778e+003   8.4410e+005    0.0000    0.0163    0.0000    0.0000    0.0141
                0.0081  -1.2496e-004   4.9888e-005   1.2045e-004  -3.4996e+006  -1.4882e+003   8.4317e+005    0.0000    0.0164    0.0000    0.0000    0.0141

               lamina:  2     
              matName:  (blade-root)
                     s           e11           e22           e12           s11           s22           s12   s11_fcT   s11_fcC   s22_fcT   s22_fcC   s12_fcS
                   (m)         (m/m)         (m/m)         (rad)          (Pa)          (Pa)          (Pa)       (-)       (-)       (-)       (-)       (-)
                0.0000  -1.2342e-004   4.9270e-005   1.2059e-004  -3.4563e+006  -1.4771e+003   8.4410e+005    0.0000    0.0162    0.0000    0.0000    0.0141
                0.0081  -1.2424e-004   4.9598e-005   1.2045e-004  -3.4793e+006  -1.4876e+003   8.4317e+005    0.0000    0.0163    0.0000    0.0000    0.0141

               lamina:  3     
              matName:  (TEP-core)
                     s           e11           e22           e12           s11           s22           s12   s11_fcT   s11_fcC   s22_fcT   s22_fcC   s12_fcS
                   (m)         (m/m)         (m/m)         (rad)          (Pa)          (Pa)          (Pa)       (-)       (-)       (-)       (-)       (-)
                0.0000  -1.1852e-004   4.7313e-005   1.2059e-004  -2.9809e+004   3.3588e+003   2.4117e+003    0.0000    0.0000    0.0000   -0.0000    0.0000
                0.0081  -1.1935e-004   4.7642e-005   1.2045e-004  -3.0016e+004   3.3821e+003   2.4091e+003    0.0000    0.0000    0.0000   -0.0000    0.0000

               lamina:  4     
              matName:  (blade-root)
                     s           e11           e22           e12           s11           s22           s12   s11_fcT   s11_fcC   s22_fcT   s22_fcC   s12_fcS
                   (m)         (m/m)         (m/m)         (rad)          (Pa)          (Pa)          (Pa)       (-)       (-)       (-)       (-)       (-)
                0.0000  -1.1350e-004   4.5303e-005   1.2059e-004  -3.1785e+006  -1.4685e+003   8.4410e+005    0.0000    0.0149    0.0000    0.0000    0.0141
                0.0081  -1.1432e-004   4.5631e-005   1.2045e-004  -3.2016e+006  -1.4789e+003   8.4317e+005    0.0000    0.0150    0.0000    0.0000    0.0141

               lamina:  5     
              matName:  (blade-shell)
                     s           e11           e22           e12           s11           s22           s12   s11_fcT   s11_fcC   s22_fcT   s22_fcC   s12_fcS
                   (m)         (m/m)         (m/m)         (rad)          (Pa)          (Pa)          (Pa)       (-)       (-)       (-)       (-)       (-)
                0.0000  -1.0861e-004   4.3346e-005   1.2059e-004  -3.0416e+006  -1.4643e+003   8.4410e+005    0.0000    0.0143    0.0000    0.0000    0.0141
                0.0081  -1.0943e-004   4.3675e-005   1.2045e-004  -3.0646e+006  -1.4747e+003   8.4317e+005    0.0000    0.0144    0.0000    0.0000    0.0141

            panel:  4     
           lam_num    nPlies        tPly      fibAng     matID  matName
               (-)       (-)         (m)       (deg)       (-)  (-)
                 1         1    0.005000      0.0000         2  (blade-shell)
                 2         1    0.033757      0.0000         1  (blade-root)
                 3         1    0.034682      0.0000         6  (TEP-core)
                 4         1    0.033757      0.0000         1  (blade-root)
                 5         1    0.005000      0.0000         2  (blade-shell)

               lamina:  1     
              matName:  (blade-shell)
                     s           e11           e22           e12           s11           s22           s12   s11_fcT   s11_fcC   s22_fcT   s22_fcC   s12_fcS
                   (m)         (m/m)         (m/m)         (rad)          (Pa)          (Pa)          (Pa)       (-)       (-)       (-)       (-)       (-)
                0.0000  -1.2496e-004   4.9888e-005   1.2346e-004  -3.4996e+006  -1.4882e+003   8.6422e+005    0.0000    0.0164    0.0000    0.0000    0.0144
                0.1105  -1.3664e-004   5.4547e-005   1.2333e-004  -3.8264e+006  -1.6307e+003   8.6329e+005    0.0000    0.0180    0.0000    0.0000    0.0144
                0.4915  -1.7431e-004   6.9586e-005   1.2333e-004  -4.8816e+006  -2.1044e+003   8.6329e+005    0.0000    0.0229    0.0000    0.0000    0.0144
                0.8692  -2.1068e-004   8.4104e-005   1.2142e-004  -5.9001e+006  -2.5615e+003   8.4992e+005    0.0000    0.0277    0.0000    0.0000    0.0142
                1.2385  -2.4546e-004   9.7989e-005   1.1352e-004  -6.8742e+006  -2.9997e+003   7.9465e+005    0.0000    0.0323    0.0000    0.0000    0.0132
                1.5938  -2.7842e-004   1.1114e-004   1.0374e-004  -7.7970e+006  -3.4155e+003   7.2616e+005    0.0000    0.0366    0.0000    0.0000    0.0121
                1.9306  -3.0924e-004   1.2345e-004   9.2331e-005  -8.6603e+006  -3.8049e+003   6.4632e+005    0.0000    0.0407    0.0000    0.0000    0.0108
                2.2438  -3.3771e-004   1.3481e-004   7.9666e-005  -9.4576e+006  -4.1648e+003   5.5766e+005    0.0000    0.0444    0.0000    0.0000    0.0093
                2.5300  -3.6354e-004   1.4512e-004   6.6152e-005  -1.0181e+007  -4.4907e+003   4.6306e+005    0.0000    0.0478    0.0000    0.0000    0.0077
                2.7857  -3.8647e-004   1.5427e-004   5.2274e-005  -1.0823e+007  -4.7782e+003   3.6592e+005    0.0000    0.0508    0.0000    0.0000    0.0061
                3.0102  -4.0612e-004   1.6212e-004   3.8505e-005  -1.1373e+007  -5.0216e+003   2.6953e+005    0.0000    0.0534    0.0000    0.0000    0.0045
                3.2020  -4.2223e-004   1.6855e-004   2.5328e-005  -1.1825e+007  -5.2173e+003   1.7730e+005    0.0000    0.0555    0.0000    0.0000    0.0030
                3.3613  -4.3454e-004   1.7346e-004   1.3097e-005  -1.2169e+007  -5.3612e+003   9.1682e+004    0.0000    0.0571    0.0000    0.0000    0.0015
                3.4878  -4.4284e-004   1.7678e-004   2.1745e-006  -1.2402e+007  -5.4506e+003   1.5221e+004    0.0000    0.0582    0.0000    0.0000    0.0003
                3.5946  -4.4622e-004   1.7813e-004   7.1907e-006  -1.2496e+007  -5.4838e+003   5.0335e+004    0.0000    0.0587    0.0000    0.0000    0.0008
                3.7129  -4.4415e-004   1.7730e-004   1.4793e-005  -1.2438e+007  -5.4589e+003   1.0355e+005    0.0000    0.0584    0.0000    0.0000    0.0017

               lamina:  2     
              matName:  (blade-root)
                     s           e11           e22           e12           s11           s22           s12   s11_fcT   s11_fcC   s22_fcT   s22_fcC   s12_fcS
                   (m)         (m/m)         (m/m)         (rad)          (Pa)          (Pa)          (Pa)       (-)       (-)       (-)       (-)       (-)
                0.0000  -1.2424e-004   4.9598e-005   1.2346e-004  -3.4793e+006  -1.4876e+003   8.6422e+005    0.0000    0.0163    0.0000    0.0000    0.0144
                0.1105  -1.3587e-004   5.4241e-005   1.2333e-004  -3.8050e+006  -1.6301e+003   8.6329e+005    0.0000    0.0179    0.0000    0.0000    0.0144
                0.4915  -1.7352e-004   6.9268e-005   1.2333e-004  -4.8593e+006  -2.1037e+003   8.6329e+005    0.0000    0.0228    0.0000    0.0000    0.0144
                0.8692  -2.0986e-004   8.3774e-005   1.2142e-004  -5.8770e+006  -2.5607e+003   8.4992e+005    0.0000    0.0276    0.0000    0.0000    0.0142
                1.2385  -2.4462e-004   9.7651e-005   1.1352e-004  -6.8505e+006  -2.9990e+003   7.9465e+005    0.0000    0.0322    0.0000    0.0000    0.0132
                1.5938  -2.7756e-004   1.1080e-004   1.0374e-004  -7.7729e+006  -3.4148e+003   7.2616e+005    0.0000    0.0365    0.0000    0.0000    0.0121
                1.9306  -3.0837e-004   1.2310e-004   9.2331e-005  -8.6359e+006  -3.8042e+003   6.4632e+005    0.0000    0.0405    0.0000    0.0000    0.0108
                2.2438  -3.3683e-004   1.3446e-004   7.9666e-005  -9.4330e+006  -4.1640e+003   5.5766e+005    0.0000    0.0443    0.0000    0.0000    0.0093
                2.5300  -3.6265e-004   1.4476e-004   6.6152e-005  -1.0156e+007  -4.4899e+003   4.6306e+005    0.0000    0.0477    0.0000    0.0000    0.0077
                2.7857  -3.8555e-004   1.5391e-004   5.2274e-005  -1.0797e+007  -4.7774e+003   3.6592e+005    0.0000    0.0507    0.0000    0.0000    0.0061
                3.0102  -4.0516e-004   1.6174e-004   3.8505e-005  -1.1347e+007  -5.0208e+003   2.6953e+005    0.0000    0.0533    0.0000    0.0000    0.0045
                3.2020  -4.2121e-004   1.6814e-004   2.5328e-005  -1.1796e+007  -5.2164e+003   1.7730e+005    0.0000    0.0554    0.0000    0.0000    0.0030
                3.3613  -4.3343e-004   1.7302e-004   1.3097e-005  -1.2138e+007  -5.3602e+003   9.1682e+004    0.0000    0.0570    0.0000    0.0000    0.0015
                3.4878  -4.4161e-004   1.7629e-004   2.1745e-006  -1.2367e+007  -5.4496e+003   1.5221e+004    0.0000    0.0581    0.0000    0.0000    0.0003
                3.5946  -4.4492e-004   1.7761e-004   7.1907e-006  -1.2460e+007  -5.4826e+003   5.0335e+004    0.0000    0.0585    0.0000    0.0000    0.0008
                3.7129  -4.4285e-004   1.7678e-004   1.4793e-005  -1.2402e+007  -5.4577e+003   1.0355e+005    0.0000    0.0582    0.0000    0.0000    0.0017

               lamina:  3     
              matName:  (TEP-core)
                     s           e11           e22           e12           s11           s22           s12   s11_fcT   s11_fcC   s22_fcT   s22_fcC   s12_fcS
                   (m)         (m/m)         (m/m)         (rad)          (Pa)          (Pa)          (Pa)       (-)       (-)       (-)       (-)       (-)
                0.0000  -1.1935e-004   4.7642e-005   1.2346e-004  -3.0016e+004   3.3821e+003   2.4692e+003    0.0000    0.0000    0.0000   -0.0000    0.0000
                0.1105  -1.3070e-004   5.2174e-005   1.2333e-004  -3.2871e+004   3.7038e+003   2.4665e+003    0.0000    0.0000    0.0000   -0.0000    0.0000
                0.4915  -1.6814e-004   6.7120e-005   1.2333e-004  -4.2288e+004   4.7647e+003   2.4665e+003    0.0000    0.0000    0.0000   -0.0000    0.0000
                0.8692  -2.0428e-004   8.1545e-005   1.2142e-004  -5.1377e+004   5.7886e+003   2.4283e+003    0.0000    0.0000    0.0000   -0.0000    0.0000
                1.2385  -2.3891e-004   9.5367e-005   1.1352e-004  -6.0085e+004   6.7698e+003   2.2704e+003    0.0000    0.0000    0.0000   -0.0000    0.0000
                1.5938  -2.7175e-004   1.0847e-004   1.0374e-004  -6.8344e+004   7.7001e+003   2.0747e+003    0.0000    0.0000    0.0000   -0.0000    0.0000
                1.9306  -3.0249e-004   1.2075e-004   9.2331e-005  -7.6076e+004   8.5713e+003   1.8466e+003    0.0000    0.0000    0.0000   -0.0000    0.0000
                2.2438  -3.3090e-004   1.3209e-004   7.9666e-005  -8.3221e+004   9.3761e+003   1.5933e+003    0.0000    0.0000    0.0000   -0.0000    0.0000
                2.5300  -3.5664e-004   1.4236e-004   6.6152e-005  -8.9694e+004   1.0105e+004   1.3230e+003    0.0000    0.0000    0.0000   -0.0000    0.0000
                2.7857  -3.7938e-004   1.5144e-004   5.2274e-005  -9.5414e+004   1.0750e+004   1.0455e+003    0.0000    0.0000    0.0000   -0.0000    0.0000
                3.0102  -3.9870e-004   1.5915e-004   3.8505e-005  -1.0027e+005   1.1297e+004   7.7009e+002    0.0000    0.0000    0.0000   -0.0000    0.0000
                3.2020  -4.1431e-004   1.6538e-004   2.5328e-005  -1.0420e+005   1.1740e+004   5.0657e+002    0.0000    0.0000    0.0000   -0.0000    0.0000
                3.3613  -4.2591e-004   1.7001e-004   1.3097e-005  -1.0712e+005   1.2068e+004   2.6195e+002    0.0000    0.0000    0.0000   -0.0000    0.0000
                3.4878  -4.3329e-004   1.7296e-004   2.1745e-006  -1.0897e+005   1.2277e+004   4.3490e+001    0.0000    0.0000    0.0000   -0.0000    0.0000
                3.5946  -4.3610e-004   1.7408e-004   7.1907e-006  -1.0968e+005   1.2357e+004   1.4381e+002    0.0000    0.0000    0.0000   -0.0000    0.0000
                3.7129  -4.3411e-004   1.7328e-004   1.4793e-005  -1.0918e+005   1.2301e+004   2.9587e+002    0.0000    0.0000    0.0000   -0.0000    0.0000

               lamina:  4     
              matName:  (blade-root)
                     s           e11           e22           e12           s11           s22           s12   s11_fcT   s11_fcC   s22_fcT   s22_fcC   s12_fcS
                   (m)         (m/m)         (m/m)         (rad)          (Pa)          (Pa)          (Pa)       (-)       (-)       (-)       (-)       (-)
                0.0000  -1.1432e-004   4.5631e-005   1.2346e-004  -3.2016e+006  -1.4789e+003   8.6422e+005    0.0000    0.0150    0.0000    0.0000    0.0144
                0.1105  -1.2539e-004   5.0050e-005   1.2333e-004  -3.5116e+006  -1.6210e+003   8.6329e+005    0.0000    0.0165    0.0000    0.0000    0.0144
                0.4915  -1.6262e-004   6.4912e-005   1.2333e-004  -4.5543e+006  -2.0942e+003   8.6329e+005    0.0000    0.0214    0.0000    0.0000    0.0144
                0.8692  -1.9855e-004   7.9254e-005   1.2142e-004  -5.5606e+006  -2.5509e+003   8.4992e+005    0.0000    0.0261    0.0000    0.0000    0.0142
                1.2385  -2.3304e-004   9.3021e-005   1.1352e-004  -6.5264e+006  -2.9889e+003   7.9465e+005    0.0000    0.0306    0.0000    0.0000    0.0132
                1.5938  -2.6578e-004   1.0609e-004   1.0374e-004  -7.4431e+006  -3.4045e+003   7.2616e+005    0.0000    0.0349    0.0000    0.0000    0.0121
                1.9306  -2.9645e-004   1.1833e-004   9.2331e-005  -8.3021e+006  -3.7938e+003   6.4632e+005    0.0000    0.0390    0.0000    0.0000    0.0108
                2.2438  -3.2480e-004   1.2965e-004   7.9666e-005  -9.0961e+006  -4.1535e+003   5.5766e+005    0.0000    0.0427    0.0000    0.0000    0.0093
                2.5300  -3.5046e-004   1.3989e-004   6.6152e-005  -9.8147e+006  -4.4793e+003   4.6306e+005    0.0000    0.0461    0.0000    0.0000    0.0077
                2.7857  -3.7304e-004   1.4890e-004   5.2274e-005  -1.0447e+007  -4.7665e+003   3.6592e+005    0.0000    0.0490    0.0000    0.0000    0.0061
                3.0102  -3.9206e-004   1.5649e-004   3.8505e-005  -1.0980e+007  -5.0094e+003   2.6953e+005    0.0000    0.0515    0.0000    0.0000    0.0045
                3.2020  -4.0722e-004   1.6254e-004   2.5328e-005  -1.1404e+007  -5.2042e+003   1.7730e+005    0.0000    0.0535    0.0000    0.0000    0.0030
                3.3613  -4.1818e-004   1.6692e-004   1.3097e-005  -1.1711e+007  -5.3469e+003   9.1682e+004    0.0000    0.0550    0.0000    0.0000    0.0015
                3.4878  -4.2474e-004   1.6954e-004   2.1745e-006  -1.1895e+007  -5.4349e+003   1.5221e+004    0.0000    0.0558    0.0000    0.0000    0.0003
                3.5946  -4.2704e-004   1.7046e-004   7.1907e-006  -1.1959e+007  -5.4671e+003   5.0335e+004    0.0000    0.0561    0.0000    0.0000    0.0008
                3.7129  -4.2512e-004   1.6969e-004   1.4793e-005  -1.1905e+007  -5.4423e+003   1.0355e+005    0.0000    0.0559    0.0000    0.0000    0.0017

               lamina:  5     
              matName:  (blade-shell)
                     s           e11           e22           e12           s11           s22           s12   s11_fcT   s11_fcC   s22_fcT   s22_fcC   s12_fcS
                   (m)         (m/m)         (m/m)         (rad)          (Pa)          (Pa)          (Pa)       (-)       (-)       (-)       (-)       (-)
                0.0000  -1.0943e-004   4.3675e-005   1.2346e-004  -3.0646e+006  -1.4747e+003   8.6422e+005    0.0000    0.0144    0.0000    0.0000    0.0144
                0.1105  -1.2022e-004   4.7983e-005   1.2333e-004  -3.3669e+006  -1.6165e+003   8.6329e+005    0.0000    0.0158    0.0000    0.0000    0.0144
                0.4915  -1.5725e-004   6.2764e-005   1.2333e-004  -4.4039e+006  -2.0895e+003   8.6329e+005    0.0000    0.0207    0.0000    0.0000    0.0144
                0.8692  -1.9298e-004   7.7025e-005   1.2142e-004  -5.4045e+006  -2.5461e+003   8.4992e+005    0.0000    0.0254    0.0000    0.0000    0.0142
                1.2385  -2.2733e-004   9.0737e-005   1.1352e-004  -6.3665e+006  -2.9840e+003   7.9465e+005    0.0000    0.0299    0.0000    0.0000    0.0132
                1.5938  -2.5996e-004   1.0376e-004   1.0374e-004  -7.2804e+006  -3.3995e+003   7.2616e+005    0.0000    0.0342    0.0000    0.0000    0.0121
                1.9306  -2.9057e-004   1.1598e-004   9.2331e-005  -8.1375e+006  -3.7887e+003   6.4632e+005    0.0000    0.0382    0.0000    0.0000    0.0108
                2.2438  -3.1887e-004   1.2727e-004   7.9666e-005  -8.9299e+006  -4.1484e+003   5.5766e+005    0.0000    0.0419    0.0000    0.0000    0.0093
                2.5300  -3.4445e-004   1.3749e-004   6.6152e-005  -9.6464e+006  -4.4741e+003   4.6306e+005    0.0000    0.0453    0.0000    0.0000    0.0077
                2.7857  -3.6687e-004   1.4643e-004   5.2274e-005  -1.0274e+007  -4.7612e+003   3.6592e+005    0.0000    0.0482    0.0000    0.0000    0.0061
                3.0102  -3.8560e-004   1.5391e-004   3.8505e-005  -1.0799e+007  -5.0038e+003   2.6953e+005    0.0000    0.0507    0.0000    0.0000    0.0045
                3.2020  -4.0032e-004   1.5978e-004   2.5328e-005  -1.1211e+007  -5.1982e+003   1.7730e+005    0.0000    0.0526    0.0000    0.0000    0.0030
                3.3613  -4.1066e-004   1.6391e-004   1.3097e-005  -1.1501e+007  -5.3404e+003   9.1682e+004    0.0000    0.0540    0.0000    0.0000    0.0015
                3.4878  -4.1641e-004   1.6621e-004   2.1745e-006  -1.1662e+007  -5.4277e+003   1.5221e+004    0.0000    0.0547    0.0000    0.0000    0.0003
                3.5946  -4.1822e-004   1.6693e-004   7.1907e-006  -1.1712e+007  -5.4594e+003   5.0335e+004    0.0000    0.0550    0.0000    0.0000    0.0008
                3.7129  -4.1637e-004   1.6619e-004   1.4793e-005  -1.1660e+007  -5.4347e+003   1.0355e+005    0.0000    0.0547    0.0000    0.0000    0.0017

     Web:  panel  nNode   nLam     xc_St    xc_End         b         t         E_eff         G_eff      nu_eff     density  buckleCrit
            (-)    (-)    (-)       (-)       (-)       (m)       (m)          (Pa)          (Pa)         (-)    (kg/m^3)         (-)
              1     10      3    0.3223    0.3223    3.7462    0.0830   7.6445e+008   4.5301e+008      0.4420    257.1084      0.0001
              2     10      3    0.5368    0.5368    3.4130    0.0830   7.6445e+008   4.5301e+008      0.4420    257.1084      0.0002

            panel:  1     
           lam_num    nPlies        tPly      fibAng     matID  matName
               (-)       (-)         (m)       (deg)       (-)  (-)
                 1         1    0.001500      0.0000         7  (web-shell)
                 2         1    0.080000      0.0000         8  (web-core)
                 3         1    0.001500      0.0000         7  (web-shell)

               lamina:  1     
              matName:  (web-shell)
                     s           e11           e22           e12           s11           s22           s12   s11_fcT   s11_fcC   s22_fcT   s22_fcC   s12_fcS
                   (m)         (m/m)         (m/m)         (rad)          (Pa)          (Pa)          (Pa)       (-)       (-)       (-)       (-)       (-)
                0.0000   1.6792e-004  -7.4005e-005   3.0416e-005   2.4437e+006   1.8580e+005   3.6500e+005    0.0170   -0.0000    0.0000   -0.0000    0.0041
                0.4162   1.5396e-004  -6.7834e-005   3.4552e-005   2.2408e+006   1.7070e+005   4.1462e+005    0.0156   -0.0000    0.0000   -0.0000    0.0046
                0.8325   1.4000e-004  -6.1664e-005   3.8342e-005   2.0378e+006   1.5559e+005   4.6010e+005    0.0142   -0.0000    0.0000   -0.0000    0.0051
                1.2487   1.2604e-004  -5.5494e-005   4.1787e-005   1.8348e+006   1.4048e+005   5.0144e+005    0.0127   -0.0000    0.0000   -0.0000    0.0056
                1.6650   1.1208e-004  -4.9323e-005   4.4887e-005   1.6318e+006   1.2538e+005   5.3864e+005    0.0113   -0.0000    0.0000   -0.0000    0.0060
                2.0812   9.8121e-005  -4.3153e-005   4.7641e-005   1.4288e+006   1.1027e+005   5.7170e+005    0.0099   -0.0000    0.0000   -0.0000    0.0064
                2.4975   8.4162e-005  -3.6983e-005   5.0051e-005   1.2258e+006   9.5168e+004   6.0061e+005    0.0085   -0.0000    0.0000   -0.0000    0.0067
                2.9137   7.0203e-005  -3.0812e-005   5.2115e-005   1.0229e+006   8.0062e+004   6.2538e+005    0.0071   -0.0000    0.0000   -0.0000    0.0069
                3.3300   5.6243e-005  -2.4642e-005   5.3834e-005   8.1989e+005   6.4956e+004   6.4601e+005    0.0057   -0.0000    0.0000   -0.0000    0.0072
                3.7462   4.2284e-005  -1.8472e-005   5.5208e-005   6.1691e+005   4.9851e+004   6.6249e+005    0.0043   -0.0000    0.0000   -0.0000    0.0074

               lamina:  2     
              matName:  (web-core)
                     s           e11           e22           e12           s11           s22           s12   s11_fcT   s11_fcC   s22_fcT   s22_fcC   s12_fcS
                   (m)         (m/m)         (m/m)         (rad)          (Pa)          (Pa)          (Pa)       (-)       (-)       (-)       (-)       (-)
                0.0000   1.8052e-004  -8.0016e-005   3.0416e-005   4.4720e+004  -7.3883e+003   6.0833e+002    0.0000   -0.0000    0.0000    0.0000    0.0000
                0.4162   1.6656e-004  -7.3846e-005   3.4552e-005   4.1260e+004  -6.8218e+003   6.9104e+002    0.0000   -0.0000    0.0000    0.0000    0.0000
                0.8325   1.5261e-004  -6.7675e-005   3.8342e-005   3.7801e+004  -6.2553e+003   7.6684e+002    0.0000   -0.0000    0.0000    0.0000    0.0000
                1.2487   1.3865e-004  -6.1505e-005   4.1787e-005   3.4341e+004  -5.6889e+003   8.3574e+002    0.0000   -0.0000    0.0000    0.0000    0.0000
                1.6650   1.2469e-004  -5.5335e-005   4.4887e-005   3.0882e+004  -5.1224e+003   8.9773e+002    0.0000   -0.0000    0.0000    0.0000    0.0000
                2.0812   1.1073e-004  -4.9164e-005   4.7641e-005   2.7422e+004  -4.5560e+003   9.5283e+002    0.0000   -0.0000    0.0000    0.0000    0.0000
                2.4975   9.6769e-005  -4.2994e-005   5.0051e-005   2.3963e+004  -3.9895e+003   1.0010e+003    0.0000   -0.0000    0.0000    0.0000    0.0000
                2.9137   8.2810e-005  -3.6824e-005   5.2115e-005   2.0504e+004  -3.4231e+003   1.0423e+003    0.0000   -0.0000    0.0000    0.0000    0.0000
                3.3300   6.8850e-005  -3.0653e-005   5.3834e-005   1.7044e+004  -2.8566e+003   1.0767e+003    0.0000   -0.0000    0.0000    0.0000    0.0000
                3.7462   5.4891e-005  -2.4483e-005   5.5208e-005   1.3585e+004  -2.2901e+003   1.1042e+003    0.0000   -0.0000    0.0000    0.0000    0.0000

               lamina:  3     
              matName:  (web-shell)
                     s           e11           e22           e12           s11           s22           s12   s11_fcT   s11_fcC   s22_fcT   s22_fcC   s12_fcS
                   (m)         (m/m)         (m/m)         (rad)          (Pa)          (Pa)          (Pa)       (-)       (-)       (-)       (-)       (-)
                0.0000   1.8076e-004  -8.0129e-005   3.0416e-005   2.6263e+006   1.9136e+005   3.6500e+005    0.0182   -0.0000    0.0000   -0.0000    0.0041
                0.4162   1.6680e-004  -7.3958e-005   3.4552e-005   2.4233e+006   1.7625e+005   4.1462e+005    0.0168   -0.0000    0.0000   -0.0000    0.0046
                0.8325   1.5284e-004  -6.7788e-005   3.8342e-005   2.2204e+006   1.6115e+005   4.6010e+005    0.0154   -0.0000    0.0000   -0.0000    0.0051
                1.2487   1.3888e-004  -6.1618e-005   4.1787e-005   2.0174e+006   1.4604e+005   5.0144e+005    0.0140   -0.0000    0.0000   -0.0000    0.0056
                1.6650   1.2492e-004  -5.5447e-005   4.4887e-005   1.8144e+006   1.3094e+005   5.3864e+005    0.0126   -0.0000    0.0000   -0.0000    0.0060
                2.0812   1.1096e-004  -4.9277e-005   4.7641e-005   1.6114e+006   1.1583e+005   5.7170e+005    0.0112   -0.0000    0.0000   -0.0000    0.0064
                2.4975   9.7005e-005  -4.3107e-005   5.0051e-005   1.4084e+006   1.0072e+005   6.0061e+005    0.0098   -0.0000    0.0000   -0.0000    0.0067
                2.9137   8.3046e-005  -3.6936e-005   5.2115e-005   1.2055e+006   8.5619e+004   6.2538e+005    0.0084   -0.0000    0.0000   -0.0000    0.0069
                3.3300   6.9087e-005  -3.0766e-005   5.3834e-005   1.0025e+006   7.0513e+004   6.4601e+005    0.0070   -0.0000    0.0000   -0.0000    0.0072
                3.7462   5.5128e-005  -2.4596e-005   5.5208e-005   7.9949e+005   5.5408e+004   6.6249e+005    0.0056   -0.0000    0.0000   -0.0000    0.0074

            panel:  2     
           lam_num    nPlies        tPly      fibAng     matID  matName
               (-)       (-)         (m)       (deg)       (-)  (-)
                 1         1    0.001500      0.0000         7  (web-shell)
                 2         1    0.080000      0.0000         8  (web-core)
                 3         1    0.001500      0.0000         7  (web-shell)

               lamina:  1     
              matName:  (web-shell)
                     s           e11           e22           e12           s11           s22           s12   s11_fcT   s11_fcC   s22_fcT   s22_fcC   s12_fcS
                   (m)         (m/m)         (m/m)         (rad)          (Pa)          (Pa)          (Pa)       (-)       (-)       (-)       (-)       (-)
                0.0000  -6.2810e-006   3.0041e-006   5.4896e-005  -8.9206e+004  -2.5458e+003   6.5875e+005    0.0000    0.0004    0.0000    0.0000    0.0073
                0.3792  -1.8871e-005   8.5691e-006   5.4760e-005  -2.7227e+005  -1.6169e+004   6.5712e+005    0.0000    0.0013    0.0000    0.0000    0.0073
                0.7585  -3.1460e-005   1.4134e-005   5.4340e-005  -4.5534e+005  -2.9793e+004   6.5208e+005    0.0000    0.0021    0.0000    0.0000    0.0072
                1.1377  -4.4050e-005   1.9699e-005   5.3637e-005  -6.3841e+005  -4.3417e+004   6.4364e+005    0.0000    0.0030    0.0000    0.0000    0.0072
                1.5169  -5.6640e-005   2.5264e-005   5.2650e-005  -8.2147e+005  -5.7040e+004   6.3180e+005    0.0000    0.0039    0.0000    0.0000    0.0070
                1.8961  -6.9229e-005   3.0829e-005   5.1379e-005  -1.0045e+006  -7.0664e+004   6.1655e+005    0.0000    0.0047    0.0000    0.0000    0.0069
                2.2754  -8.1819e-005   3.6394e-005   4.9825e-005  -1.1876e+006  -8.4287e+004   5.9790e+005    0.0000    0.0056    0.0000    0.0000    0.0066
                2.6546  -9.4409e-005   4.1959e-005   4.7987e-005  -1.3707e+006  -9.7911e+004   5.7585e+005    0.0000    0.0064    0.0000    0.0000    0.0064
                3.0338  -1.0700e-004   4.7524e-005   4.5866e-005  -1.5537e+006  -1.1153e+005   5.5039e+005    0.0000    0.0073    0.0000    0.0000    0.0061
                3.4130  -1.1959e-004   5.3089e-005   4.3461e-005  -1.7368e+006  -1.2516e+005   5.2153e+005    0.0000    0.0082    0.0000    0.0000    0.0058

               lamina:  2     
              matName:  (web-core)
                     s           e11           e22           e12           s11           s22           s12   s11_fcT   s11_fcC   s22_fcT   s22_fcC   s12_fcS
                   (m)         (m/m)         (m/m)         (rad)          (Pa)          (Pa)          (Pa)       (-)       (-)       (-)       (-)       (-)
                0.0000   6.5729e-006  -3.1249e-006   5.4896e-005   1.6101e+003  -3.2944e+002   1.0979e+003    0.0000   -0.0000    0.0000    0.0000    0.0000
                0.3792  -1.8634e-005   8.4563e-006   5.4760e-005  -4.5992e+003   8.1888e+002   1.0952e+003    0.0000    0.0000    0.0000   -0.0000    0.0000
                0.7585  -3.1224e-005   1.4021e-005   5.4340e-005  -7.7192e+003   1.3298e+003   1.0868e+003    0.0000    0.0000    0.0000   -0.0000    0.0000
                1.1377  -4.3813e-005   1.9586e-005   5.3637e-005  -1.0839e+004   1.8406e+003   1.0727e+003    0.0000    0.0000    0.0000   -0.0000    0.0000
                1.5169  -5.6403e-005   2.5151e-005   5.2650e-005  -1.3959e+004   2.3515e+003   1.0530e+003    0.0000    0.0000    0.0000   -0.0000    0.0000
                1.8961  -6.8993e-005   3.0716e-005   5.1379e-005  -1.7079e+004   2.8624e+003   1.0276e+003    0.0000    0.0000    0.0000   -0.0000    0.0000
                2.2754  -8.1582e-005   3.6281e-005   4.9825e-005  -2.0199e+004   3.3733e+003   9.9650e+002    0.0000    0.0000    0.0000   -0.0000    0.0000
                2.6546  -9.4172e-005   4.1846e-005   4.7987e-005  -2.3319e+004   3.8842e+003   9.5975e+002    0.0000    0.0000    0.0000   -0.0000    0.0000
                3.0338  -1.0676e-004   4.7411e-005   4.5866e-005  -2.6439e+004   4.3951e+003   9.1732e+002    0.0000    0.0000    0.0000   -0.0000    0.0000
                3.4130  -1.1935e-004   5.2976e-005   4.3461e-005  -2.9560e+004   4.9060e+003   8.6921e+002    0.0000    0.0000    0.0000   -0.0000    0.0000

               lamina:  3     
              matName:  (web-shell)
                     s           e11           e22           e12           s11           s22           s12   s11_fcT   s11_fcC   s22_fcT   s22_fcC   s12_fcS
                   (m)         (m/m)         (m/m)         (rad)          (Pa)          (Pa)          (Pa)       (-)       (-)       (-)       (-)       (-)
                0.0000   6.8095e-006  -3.2377e-006   5.4896e-005   9.6892e+004   3.1178e+003   6.5875e+005    0.0007   -0.0000    0.0000   -0.0000    0.0073
                0.3792  -6.0167e-006   2.4401e-006   5.4760e-005  -8.9538e+004  -1.0608e+004   6.5712e+005    0.0000    0.0004    0.0000    0.0000    0.0073
                0.7585  -1.8606e-005   8.0051e-006   5.4340e-005  -2.7261e+005  -2.4232e+004   6.5208e+005    0.0000    0.0013    0.0000    0.0000    0.0072
                1.1377  -3.1196e-005   1.3570e-005   5.3637e-005  -4.5567e+005  -3.7855e+004   6.4364e+005    0.0000    0.0021    0.0000    0.0000    0.0072
                1.5169  -4.3786e-005   1.9135e-005   5.2650e-005  -6.3874e+005  -5.1479e+004   6.3180e+005    0.0000    0.0030    0.0000    0.0000    0.0070
                1.8961  -5.6375e-005   2.4700e-005   5.1379e-005  -8.2181e+005  -6.5103e+004   6.1655e+005    0.0000    0.0039    0.0000    0.0000    0.0069
                2.2754  -6.8965e-005   3.0265e-005   4.9825e-005  -1.0049e+006  -7.8726e+004   5.9790e+005    0.0000    0.0047    0.0000    0.0000    0.0066
                2.6546  -8.1555e-005   3.5830e-005   4.7987e-005  -1.1879e+006  -9.2350e+004   5.7585e+005    0.0000    0.0056    0.0000    0.0000    0.0064
                3.0338  -9.4144e-005   4.1395e-005   4.5866e-005  -1.3710e+006  -1.0597e+005   5.5039e+005    0.0000    0.0064    0.0000    0.0000    0.0061
                3.4130  -1.0673e-004   4.6960e-005   4.3461e-005  -1.5541e+006  -1.1960e+005   5.2153e+005    0.0000    0.0073    0.0000    0.0000    0.0058

================================================================================
sec        =  10     
zSec       =  14.3000  (m)
nPanelsTop =  5      
nPanelsBot =  5      
nWebs      =  3      

    Top:  panel  nNode   nLam     xc_St    xc_End         b         t         E_eff         G_eff      nu_eff     density  buckleCrit
            (-)    (-)    (-)       (-)       (-)       (m)       (m)          (Pa)          (Pa)         (-)    (kg/m^3)         (-)
              1     13      5    0.0000    0.3093    3.0567    0.1001   1.6367e+010   4.0725e+009      0.3987   1157.9722      0.0001
              2      6      7    0.3093    0.5147    1.4661    0.1532   3.6742e+010   4.5166e+009      0.3271   1893.4434      0.0000
              3      2      5    0.5147    0.5158    0.0077    0.1001   1.6367e+010   4.0725e+009      0.3987   1157.9722      0.0000
              4      7      5    0.5158    0.7800    1.9827    0.1001   1.6367e+010   4.0725e+009      0.3987   1157.9722      0.0110
              5     11      5    0.7800    1.0000    1.9148    0.1001   1.6367e+010   4.0725e+009      0.3987   1157.9722      0.0148

            panel:  1     
           lam_num    nPlies        tPly      fibAng     matID  matName
               (-)       (-)         (m)       (deg)       (-)  (-)
                 1         1    0.005000      0.0000         2  (blade-shell)
                 2         1    0.024046      0.0000         1  (blade-root)
                 3         1    0.041965      0.0000         5  (LEP-core)
                 4         1    0.024046      0.0000         1  (blade-root)
                 5         1    0.005000      0.0000         2  (blade-shell)

               lamina:  1     
              matName:  (blade-shell)
                     s           e11           e22           e12           s11           s22           s12   s11_fcT   s11_fcC   s22_fcT   s22_fcC   s12_fcS
                   (m)         (m/m)         (m/m)         (rad)          (Pa)          (Pa)          (Pa)       (-)       (-)       (-)       (-)       (-)
                0.0000   4.5277e-004  -1.8052e-004   4.0506e-005   1.2681e+007   8.9791e+003   2.8354e+005    0.0881   -0.0000    0.0000   -0.0000    0.0047
                0.2115   4.5923e-004  -1.8309e-004   2.7386e-005   1.2862e+007   9.1072e+003   1.9170e+005    0.0893   -0.0000    0.0000   -0.0000    0.0032
                0.4466   4.6115e-004  -1.8386e-004   1.2663e-005   1.2916e+007   9.1445e+003   8.8643e+004    0.0897   -0.0000    0.0000   -0.0000    0.0015
                0.6832   4.5715e-004  -1.8227e-004   2.1172e-006   1.2804e+007   9.0677e+003   1.4820e+004    0.0889   -0.0000    0.0000   -0.0000    0.0002
                0.9225   4.4711e-004  -1.7826e-004   1.6839e-005   1.2523e+007   8.8733e+003   1.1787e+005    0.0870   -0.0000    0.0000   -0.0000    0.0020
                1.1770   4.3166e-004  -1.7210e-004   3.2075e-005   1.2090e+007   8.5725e+003   2.2452e+005    0.0840   -0.0000    0.0000   -0.0000    0.0037
                1.4417   4.1059e-004  -1.6370e-004   4.7268e-005   1.1500e+007   8.1612e+003   3.3088e+005    0.0799   -0.0000    0.0000   -0.0000    0.0055
                1.7193   3.8420e-004  -1.5318e-004   6.2326e-005   1.0761e+007   7.6429e+003   4.3628e+005    0.0747   -0.0000    0.0000   -0.0000    0.0073
                2.0115   3.5280e-004  -1.4066e-004   7.7029e-005   9.8813e+006   7.0250e+003   5.3921e+005    0.0686   -0.0000    0.0000   -0.0000    0.0090
                2.3160   3.1648e-004  -1.2618e-004   9.0967e-005   8.8639e+006   6.3083e+003   6.3677e+005    0.0616   -0.0000    0.0000   -0.0000    0.0106
                2.6350   2.7575e-004  -1.0994e-004   1.0390e-004   7.7233e+006   5.5013e+003   7.2728e+005    0.0536   -0.0000    0.0000   -0.0000    0.0121
                2.9695   2.3121e-004  -9.2180e-005   1.1551e-004   6.4756e+006   4.6096e+003   8.0855e+005    0.0450   -0.0000    0.0000   -0.0000    0.0135
                3.0567   2.1845e-004  -8.7094e-005   1.1819e-004   6.1184e+006   4.3666e+003   8.2736e+005    0.0425   -0.0000    0.0000   -0.0000    0.0138

               lamina:  2     
              matName:  (blade-root)
                     s           e11           e22           e12           s11           s22           s12   s11_fcT   s11_fcC   s22_fcT   s22_fcC   s12_fcS
                   (m)         (m/m)         (m/m)         (rad)          (Pa)          (Pa)          (Pa)       (-)       (-)       (-)       (-)       (-)
                0.0000   4.5144e-004  -1.7999e-004   4.0506e-005   1.2644e+007   8.9761e+003   2.8354e+005    0.0878   -0.0000    0.0000   -0.0000    0.0047
                0.2115   4.5788e-004  -1.8255e-004   2.7386e-005   1.2824e+007   9.1041e+003   1.9170e+005    0.0891   -0.0000    0.0000   -0.0000    0.0032
                0.4466   4.5979e-004  -1.8331e-004   1.2663e-005   1.2878e+007   9.1414e+003   8.8643e+004    0.0894   -0.0000    0.0000   -0.0000    0.0015
                0.6832   4.5582e-004  -1.8173e-004   2.1172e-006   1.2767e+007   9.0647e+003   1.4820e+004    0.0887   -0.0000    0.0000   -0.0000    0.0002
                0.9225   4.4583e-004  -1.7775e-004   1.6839e-005   1.2487e+007   8.8704e+003   1.1787e+005    0.0867   -0.0000    0.0000   -0.0000    0.0020
                1.1770   4.3046e-004  -1.7162e-004   3.2075e-005   1.2056e+007   8.5698e+003   2.2452e+005    0.0837   -0.0000    0.0000   -0.0000    0.0037
                1.4417   4.0949e-004  -1.6326e-004   4.7268e-005   1.1469e+007   8.1587e+003   3.3088e+005    0.0796   -0.0000    0.0000   -0.0000    0.0055
                1.7193   3.8320e-004  -1.5278e-004   6.2326e-005   1.0733e+007   7.6406e+003   4.3628e+005    0.0745   -0.0000    0.0000   -0.0000    0.0073
                2.0115   3.5192e-004  -1.4031e-004   7.7029e-005   9.8567e+006   7.0230e+003   5.3921e+005    0.0684   -0.0000    0.0000   -0.0000    0.0090
                2.3160   3.1573e-004  -1.2588e-004   9.0967e-005   8.8428e+006   6.3066e+003   6.3677e+005    0.0614   -0.0000    0.0000   -0.0000    0.0106
                2.6350   2.7512e-004  -1.0969e-004   1.0390e-004   7.7057e+006   5.4999e+003   7.2728e+005    0.0535   -0.0000    0.0000   -0.0000    0.0121
                2.9695   2.3066e-004  -9.1962e-005   1.1551e-004   6.4604e+006   4.6084e+003   8.0855e+005    0.0449   -0.0000    0.0000   -0.0000    0.0135
                3.0567   2.1800e-004  -8.6913e-005   1.1819e-004   6.1058e+006   4.3656e+003   8.2736e+005    0.0424   -0.0000    0.0000   -0.0000    0.0138

               lamina:  3     
              matName:  (LEP-core)
                     s           e11           e22           e12           s11           s22           s12   s11_fcT   s11_fcC   s22_fcT   s22_fcC   s12_fcS
                   (m)         (m/m)         (m/m)         (rad)          (Pa)          (Pa)          (Pa)       (-)       (-)       (-)       (-)       (-)
                0.0000   4.4504e-004  -1.7743e-004   4.0506e-005   1.1195e+005  -1.2547e+004   8.1011e+002    0.0000   -0.0000    0.0000    0.0000    0.0000
                0.2115   4.5139e-004  -1.7996e-004   2.7386e-005   1.1354e+005  -1.2726e+004   5.4773e+002    0.0000   -0.0000    0.0000    0.0000    0.0000
                0.4466   4.5325e-004  -1.8070e-004   1.2663e-005   1.1401e+005  -1.2779e+004   2.5326e+002    0.0000   -0.0000    0.0000    0.0000    0.0000
                0.6832   4.4940e-004  -1.7917e-004   2.1172e-006   1.1304e+005  -1.2670e+004   4.2343e+001    0.0000   -0.0000    0.0000    0.0000    0.0000
                0.9225   4.3968e-004  -1.7529e-004   1.6839e-005   1.1060e+005  -1.2396e+004   3.3678e+002    0.0000   -0.0000    0.0000    0.0000    0.0000
                1.1770   4.2468e-004  -1.6931e-004   3.2075e-005   1.0682e+005  -1.1973e+004   6.4150e+002    0.0000   -0.0000    0.0000    0.0000    0.0000
                1.4417   4.0418e-004  -1.6114e-004   4.7268e-005   1.0167e+005  -1.1395e+004   9.4536e+002    0.0000   -0.0000    0.0000    0.0000    0.0000
                1.7193   3.7840e-004  -1.5086e-004   6.2326e-005   9.5183e+004  -1.0668e+004   1.2465e+003    0.0000   -0.0000    0.0000    0.0000    0.0000
                2.0115   3.4769e-004  -1.3862e-004   7.7029e-005   8.7459e+004  -9.8023e+003   1.5406e+003    0.0000   -0.0000    0.0000    0.0000    0.0000
                2.3160   3.1210e-004  -1.2443e-004   9.0967e-005   7.8507e+004  -8.7990e+003   1.8193e+003    0.0000   -0.0000    0.0000    0.0000    0.0000
                2.6350   2.7210e-004  -1.0848e-004   1.0390e-004   6.8444e+004  -7.6710e+003   2.0779e+003    0.0000   -0.0000    0.0000    0.0000    0.0000
                2.9695   2.2804e-004  -9.0915e-005   1.1551e-004   5.7363e+004  -6.4291e+003   2.3101e+003    0.0000   -0.0000    0.0000    0.0000    0.0000
                3.0567   2.1583e-004  -8.6044e-005   1.1819e-004   5.4289e+004  -6.0846e+003   2.3639e+003    0.0000   -0.0000    0.0000    0.0000    0.0000

               lamina:  4     
              matName:  (blade-root)
                     s           e11           e22           e12           s11           s22           s12   s11_fcT   s11_fcC   s22_fcT   s22_fcC   s12_fcS
                   (m)         (m/m)         (m/m)         (rad)          (Pa)          (Pa)          (Pa)       (-)       (-)       (-)       (-)       (-)
                0.0000   4.3387e-004  -1.7296e-004   4.0506e-005   1.2152e+007   8.9362e+003   2.8354e+005    0.0844   -0.0000    0.0000   -0.0000    0.0047
                0.2115   4.4006e-004  -1.7543e-004   2.7386e-005   1.2325e+007   9.0636e+003   1.9170e+005    0.0856   -0.0000    0.0000   -0.0000    0.0032
                0.4466   4.4184e-004  -1.7614e-004   1.2663e-005   1.2375e+007   9.1006e+003   8.8643e+004    0.0859   -0.0000    0.0000   -0.0000    0.0015
                0.6832   4.3820e-004  -1.7469e-004   2.1172e-006   1.2273e+007   9.0246e+003   1.4820e+004    0.0852   -0.0000    0.0000   -0.0000    0.0002
                0.9225   4.2895e-004  -1.7100e-004   1.6839e-005   1.2014e+007   8.8321e+003   1.1787e+005    0.0834   -0.0000    0.0000   -0.0000    0.0020
                1.1770   4.1459e-004  -1.6527e-004   3.2075e-005   1.1612e+007   8.5337e+003   2.2452e+005    0.0806   -0.0000    0.0000   -0.0000    0.0037
                1.4417   3.9491e-004  -1.5743e-004   4.7268e-005   1.1061e+007   8.1255e+003   3.3088e+005    0.0768   -0.0000    0.0000   -0.0000    0.0055
                1.7193   3.7002e-004  -1.4751e-004   6.2326e-005   1.0364e+007   7.6107e+003   4.3628e+005    0.0720   -0.0000    0.0000   -0.0000    0.0073
                2.0115   3.4030e-004  -1.3566e-004   7.7029e-005   9.5313e+006   6.9966e+003   5.3921e+005    0.0662   -0.0000    0.0000   -0.0000    0.0090
                2.3160   3.0578e-004  -1.2190e-004   9.0967e-005   8.5644e+006   6.2840e+003   6.3677e+005    0.0595   -0.0000    0.0000   -0.0000    0.0106
                2.6350   2.6681e-004  -1.0636e-004   1.0390e-004   7.4729e+006   5.4810e+003   7.2728e+005    0.0519   -0.0000    0.0000   -0.0000    0.0121
                2.9695   2.2348e-004  -8.9088e-005   1.1551e-004   6.2591e+006   4.5921e+003   8.0855e+005    0.0435   -0.0000    0.0000   -0.0000    0.0135
                3.0567   2.1203e-004  -8.4526e-005   1.1819e-004   5.9386e+006   4.3520e+003   8.2736e+005    0.0412   -0.0000    0.0000   -0.0000    0.0138

               lamina:  5     
              matName:  (blade-shell)
                     s           e11           e22           e12           s11           s22           s12   s11_fcT   s11_fcC   s22_fcT   s22_fcC   s12_fcS
                   (m)         (m/m)         (m/m)         (rad)          (Pa)          (Pa)          (Pa)       (-)       (-)       (-)       (-)       (-)
                0.0000   4.2747e-004  -1.7040e-004   4.0506e-005   1.1973e+007   8.9216e+003   2.8354e+005    0.0831   -0.0000    0.0000   -0.0000    0.0047
                0.2115   4.3357e-004  -1.7283e-004   2.7386e-005   1.2144e+007   9.0489e+003   1.9170e+005    0.0843   -0.0000    0.0000   -0.0000    0.0032
                0.4466   4.3530e-004  -1.7352e-004   1.2663e-005   1.2192e+007   9.0857e+003   8.8643e+004    0.0847   -0.0000    0.0000   -0.0000    0.0015
                0.6832   4.3179e-004  -1.7212e-004   2.1172e-006   1.2094e+007   9.0100e+003   1.4820e+004    0.0840   -0.0000    0.0000   -0.0000    0.0002
                0.9225   4.2281e-004  -1.6854e-004   1.6839e-005   1.1842e+007   8.8181e+003   1.1787e+005    0.0822   -0.0000    0.0000   -0.0000    0.0020
                1.1770   4.0880e-004  -1.6296e-004   3.2075e-005   1.1450e+007   8.5206e+003   2.2452e+005    0.0795   -0.0000    0.0000   -0.0000    0.0037
                1.4417   3.8960e-004  -1.5531e-004   4.7268e-005   1.0912e+007   8.1135e+003   3.3088e+005    0.0758   -0.0000    0.0000   -0.0000    0.0055
                1.7193   3.6522e-004  -1.4559e-004   6.2326e-005   1.0229e+007   7.5998e+003   4.3628e+005    0.0710   -0.0000    0.0000   -0.0000    0.0073
                2.0115   3.3607e-004  -1.3397e-004   7.7029e-005   9.4127e+006   6.9869e+003   5.3921e+005    0.0654   -0.0000    0.0000   -0.0000    0.0090
                2.3160   3.0216e-004  -1.2045e-004   9.0967e-005   8.4630e+006   6.2757e+003   6.3677e+005    0.0588   -0.0000    0.0000   -0.0000    0.0106
                2.6350   2.6378e-004  -1.0515e-004   1.0390e-004   7.3881e+006   5.4741e+003   7.2728e+005    0.0513   -0.0000    0.0000   -0.0000    0.0121
                2.9695   2.2086e-004  -8.8042e-005   1.1551e-004   6.1858e+006   4.5861e+003   8.0855e+005    0.0430   -0.0000    0.0000   -0.0000    0.0135
                3.0567   2.0986e-004  -8.3657e-005   1.1819e-004   5.8777e+006   4.3471e+003   8.2736e+005    0.0408   -0.0000    0.0000   -0.0000    0.0138

            panel:  2     
           lam_num    nPlies        tPly      fibAng     matID  matName
               (-)       (-)         (m)       (deg)       (-)  (-)
                 1         1    0.005000      0.0000         2  (blade-shell)
                 2         1    0.024046      0.0000         1  (blade-root)
                 3         1    0.047561      0.0000         3  (spar-uni)
                 4         1    0.000001      0.0000         4  (spar-core)
                 5         1    0.047561      0.0000         3  (spar-uni)
                 6         1    0.024046      0.0000         1  (blade-root)
                 7         1    0.005000      0.0000         2  (blade-shell)

               lamina:  1     
              matName:  (blade-shell)
                     s           e11           e22           e12           s11           s22           s12   s11_fcT   s11_fcC   s22_fcT   s22_fcC   s12_fcS
                   (m)         (m/m)         (m/m)         (rad)          (Pa)          (Pa)          (Pa)       (-)       (-)       (-)       (-)       (-)
                0.0000   2.2552e-004  -7.4355e-005   6.7164e-005   6.4110e+006   2.4124e+005   4.7015e+005    0.0445   -0.0000    0.0000   -0.0000    0.0078
                0.2574   1.8914e-004  -6.2389e-005   8.1418e-005   5.3768e+006   2.0191e+005   5.6993e+005    0.0373   -0.0000    0.0000   -0.0000    0.0095
                0.6158   1.3710e-004  -4.5255e-005   9.6971e-005   3.8970e+006   1.4583e+005   6.7879e+005    0.0271   -0.0000    0.0000   -0.0000    0.0113
                0.9840   8.2788e-005  -2.7379e-005   1.0764e-004   2.3530e+006   8.7281e+004   7.5349e+005    0.0163   -0.0000    0.0000   -0.0000    0.0126
                1.3610   2.7543e-005  -9.2365e-006   1.1292e-004   7.8204e+005   2.7097e+004   7.9047e+005    0.0054   -0.0000    0.0000   -0.0000    0.0132
                1.4661   1.0951e-005  -3.7391e-006   1.1337e-004   3.1052e+005   9.7567e+003   7.9360e+005    0.0022   -0.0000    0.0000   -0.0000    0.0132

               lamina:  2     
              matName:  (blade-root)
                     s           e11           e22           e12           s11           s22           s12   s11_fcT   s11_fcC   s22_fcT   s22_fcC   s12_fcS
                   (m)         (m/m)         (m/m)         (rad)          (Pa)          (Pa)          (Pa)       (-)       (-)       (-)       (-)       (-)
                0.0000   2.2468e-004  -7.4042e-005   6.7164e-005   6.3874e+006   2.4088e+005   4.7015e+005    0.0444   -0.0000    0.0000   -0.0000    0.0078
                0.2574   1.8840e-004  -6.2112e-005   8.1418e-005   5.3559e+006   2.0160e+005   5.6993e+005    0.0372   -0.0000    0.0000   -0.0000    0.0095
                0.6158   1.3651e-004  -4.5036e-005   9.6971e-005   3.8805e+006   1.4559e+005   6.7879e+005    0.0269   -0.0000    0.0000   -0.0000    0.0113
                0.9840   8.2359e-005  -2.7220e-005   1.0764e-004   2.3409e+006   8.7102e+004   7.5349e+005    0.0163   -0.0000    0.0000   -0.0000    0.0126
                1.3610   2.7217e-005  -9.1151e-006   1.1292e-004   7.7286e+005   2.6961e+004   7.9047e+005    0.0054   -0.0000    0.0000   -0.0000    0.0132
                1.4661   1.0725e-005  -3.6550e-006   1.1337e-004   3.0416e+005   9.6623e+003   7.9360e+005    0.0021   -0.0000    0.0000   -0.0000    0.0132

               lamina:  3     
              matName:  (spar-uni)
                     s           e11           e22           e12           s11           s22           s12   s11_fcT   s11_fcC   s22_fcT   s22_fcC   s12_fcS
                   (m)         (m/m)         (m/m)         (rad)          (Pa)          (Pa)          (Pa)       (-)       (-)       (-)       (-)       (-)
                0.0000   2.2064e-004  -7.2538e-005   6.7164e-005   9.2237e+006  -1.5466e+005   2.0149e+005    0.0095   -0.0000    0.0000    0.0000    0.0067
                0.2574   1.8483e-004  -6.0781e-005   8.1418e-005   7.7264e+006  -1.2980e+005   2.4426e+005    0.0079   -0.0000    0.0000    0.0000    0.0081
                0.6158   1.3368e-004  -4.3983e-005   9.6971e-005   5.5883e+006  -9.4196e+004   2.9091e+005    0.0057   -0.0000    0.0000    0.0000    0.0097
                0.9840   8.0297e-005  -2.6452e-005   1.0764e-004   3.3565e+006  -5.7050e+004   3.2293e+005    0.0035   -0.0000    0.0000    0.0000    0.0108
                1.3610   2.5649e-005  -8.5310e-006   1.1292e-004   1.0718e+006  -1.9397e+004   3.3877e+005    0.0011   -0.0000    0.0000    0.0000    0.0113
                1.4661   9.6395e-006  -3.2507e-006   1.1337e-004   4.0264e+005  -7.9301e+003   3.4012e+005    0.0004   -0.0000    0.0000    0.0000    0.0113

               lamina:  4     
              matName:  (spar-core)
                     s           e11           e22           e12           s11           s22           s12   s11_fcT   s11_fcC   s22_fcT   s22_fcC   s12_fcS
                   (m)         (m/m)         (m/m)         (rad)          (Pa)          (Pa)          (Pa)       (-)       (-)       (-)       (-)       (-)
                0.0000   2.1266e-004  -6.9564e-005   6.7164e-005   5.4797e+004  -1.6476e+003   1.3433e+003    0.0000   -0.0000    0.0000    0.0000    0.0000
                0.2574   1.7776e-004  -5.8149e-005   8.1418e-005   4.5805e+004  -1.3773e+003   1.6284e+003    0.0000   -0.0000    0.0000    0.0000    0.0000
                0.6158   1.2809e-004  -4.1901e-005   9.6971e-005   3.3006e+004  -9.9242e+002   1.9394e+003    0.0000   -0.0000    0.0000    0.0000    0.0000
                0.9840   7.6219e-005  -2.4932e-005   1.0764e-004   1.9640e+004  -5.9052e+002   2.1528e+003    0.0000   -0.0000    0.0000    0.0000    0.0000
                1.3610   2.2548e-005  -7.3759e-006   1.1292e-004   5.8101e+003  -1.7470e+002   2.2585e+003    0.0000   -0.0000    0.0000    0.0000    0.0000
                1.4661   7.4928e-006  -2.4510e-006   1.1337e-004   1.9307e+003  -5.8053e+001   2.2674e+003    0.0000   -0.0000    0.0000    0.0000    0.0000

               lamina:  5     
              matName:  (spar-uni)
                     s           e11           e22           e12           s11           s22           s12   s11_fcT   s11_fcC   s22_fcT   s22_fcC   s12_fcS
                   (m)         (m/m)         (m/m)         (rad)          (Pa)          (Pa)          (Pa)       (-)       (-)       (-)       (-)       (-)
                0.0000   2.1266e-004  -6.9564e-005   6.7164e-005   8.8913e+006  -1.4404e+005   2.0149e+005    0.0091   -0.0000    0.0000    0.0000    0.0067
                0.2574   1.7776e-004  -5.8149e-005   8.1418e-005   7.4323e+006  -1.2041e+005   2.4426e+005    0.0076   -0.0000    0.0000    0.0000    0.0081
                0.6158   1.2809e-004  -4.1901e-005   9.6971e-005   5.3555e+006  -8.6761e+004   2.9091e+005    0.0055   -0.0000    0.0000    0.0000    0.0097
                0.9840   7.6219e-005  -2.4932e-005   1.0764e-004   3.1867e+006  -5.1626e+004   3.2293e+005    0.0033   -0.0000    0.0000    0.0000    0.0108
                1.3610   2.2548e-005  -7.3759e-006   1.1292e-004   9.4274e+005  -1.5273e+004   3.3877e+005    0.0010   -0.0000    0.0000    0.0000    0.0113
                1.4661   7.4927e-006  -2.4510e-006   1.1337e-004   3.1327e+005  -5.0751e+003   3.4012e+005    0.0003   -0.0000    0.0000    0.0000    0.0113

               lamina:  6     
              matName:  (blade-root)
                     s           e11           e22           e12           s11           s22           s12   s11_fcT   s11_fcC   s22_fcT   s22_fcC   s12_fcS
                   (m)         (m/m)         (m/m)         (rad)          (Pa)          (Pa)          (Pa)       (-)       (-)       (-)       (-)       (-)
                0.0000   2.0467e-004  -6.6590e-005   6.7164e-005   5.8239e+006   2.3252e+005   4.7015e+005    0.0404   -0.0000    0.0000   -0.0000    0.0078
                0.2574   1.7070e-004  -5.5517e-005   8.1418e-005   4.8572e+006   1.9420e+005   5.6993e+005    0.0337   -0.0000    0.0000   -0.0000    0.0095
                0.6158   1.2250e-004  -3.9818e-005   9.6971e-005   3.4859e+006   1.3973e+005   6.7879e+005    0.0242   -0.0000    0.0000   -0.0000    0.0113
                0.9840   7.2140e-005  -2.3413e-005   1.0764e-004   2.0531e+006   8.2827e+004   7.5349e+005    0.0143   -0.0000    0.0000   -0.0000    0.0126
                1.3610   1.9447e-005  -6.2207e-006   1.1292e-004   5.5400e+005   2.3711e+004   7.9047e+005    0.0038   -0.0000    0.0000   -0.0000    0.0132
                1.4661   5.3460e-006  -1.6513e-006   1.1337e-004   1.5265e+005   7.4120e+003   7.9360e+005    0.0011   -0.0000    0.0000   -0.0000    0.0132

               lamina:  7     
              matName:  (blade-shell)
                     s           e11           e22           e12           s11           s22           s12   s11_fcT   s11_fcC   s22_fcT   s22_fcC   s12_fcS
                   (m)         (m/m)         (m/m)         (rad)          (Pa)          (Pa)          (Pa)       (-)       (-)       (-)       (-)       (-)
                0.0000   2.0064e-004  -6.5086e-005   6.7164e-005   5.7102e+006   2.3083e+005   4.7015e+005    0.0397   -0.0000    0.0000   -0.0000    0.0078
                0.2574   1.6712e-004  -5.4186e-005   8.1418e-005   4.7565e+006   1.9270e+005   5.6993e+005    0.0330   -0.0000    0.0000   -0.0000    0.0095
                0.6158   1.1967e-004  -3.8765e-005   9.6971e-005   3.4063e+006   1.3854e+005   6.7879e+005    0.0237   -0.0000    0.0000   -0.0000    0.0113
                0.9840   7.0078e-005  -2.2645e-005   1.0764e-004   1.9950e+006   8.1964e+004   7.5349e+005    0.0139   -0.0000    0.0000   -0.0000    0.0126
                1.3610   1.7879e-005  -5.6367e-006   1.1292e-004   5.0984e+005   2.3055e+004   7.9047e+005    0.0035   -0.0000    0.0000   -0.0000    0.0132
                1.4661   4.2606e-006  -1.2470e-006   1.1337e-004   1.2208e+005   6.9579e+003   7.9360e+005    0.0008   -0.0000    0.0000   -0.0000    0.0132

            panel:  3     
           lam_num    nPlies        tPly      fibAng     matID  matName
               (-)       (-)         (m)       (deg)       (-)  (-)
                 1         1    0.005000      0.0000         2  (blade-shell)
                 2         1    0.024046      0.0000         1  (blade-root)
                 3         1    0.041965      0.0000         6  (TEP-core)
                 4         1    0.024046      0.0000         1  (blade-root)
                 5         1    0.005000      0.0000         2  (blade-shell)

               lamina:  1     
              matName:  (blade-shell)
                     s           e11           e22           e12           s11           s22           s12   s11_fcT   s11_fcC   s22_fcT   s22_fcC   s12_fcS
                   (m)         (m/m)         (m/m)         (rad)          (Pa)          (Pa)          (Pa)       (-)       (-)       (-)       (-)       (-)
                0.0000   9.0509e-006  -3.6097e-006   1.9253e-004   2.5349e+005   1.6230e+002   1.3477e+006    0.0018   -0.0000    0.0000   -0.0000    0.0225
                0.0077   7.9484e-006  -3.1702e-006   1.9254e-004   2.2261e+005   1.3985e+002   1.3478e+006    0.0015   -0.0000    0.0000   -0.0000    0.0225

               lamina:  2     
              matName:  (blade-root)
                     s           e11           e22           e12           s11           s22           s12   s11_fcT   s11_fcC   s22_fcT   s22_fcC   s12_fcS
                   (m)         (m/m)         (m/m)         (rad)          (Pa)          (Pa)          (Pa)       (-)       (-)       (-)       (-)       (-)
                0.0000   8.9293e-006  -3.5611e-006   1.9253e-004   2.5009e+005   1.6202e+002   1.3477e+006    0.0017   -0.0000    0.0000   -0.0000    0.0225
                0.0077   7.8269e-006  -3.1216e-006   1.9254e-004   2.1921e+005   1.3957e+002   1.3478e+006    0.0015   -0.0000    0.0000   -0.0000    0.0225

               lamina:  3     
              matName:  (TEP-core)
                     s           e11           e22           e12           s11           s22           s12   s11_fcT   s11_fcC   s22_fcT   s22_fcC   s12_fcS
                   (m)         (m/m)         (m/m)         (rad)          (Pa)          (Pa)          (Pa)       (-)       (-)       (-)       (-)       (-)
                0.0000   8.3446e-006  -3.3273e-006   1.9253e-004   2.0990e+003  -2.3540e+002   3.8507e+003    0.0000   -0.0000    0.0000    0.0000    0.0000
                0.0077   7.2421e-006  -2.8878e-006   1.9254e-004   1.8217e+003  -2.0432e+002   3.8508e+003    0.0000   -0.0000    0.0000    0.0000    0.0000

               lamina:  4     
              matName:  (blade-root)
                     s           e11           e22           e12           s11           s22           s12   s11_fcT   s11_fcC   s22_fcT   s22_fcC   s12_fcS
                   (m)         (m/m)         (m/m)         (rad)          (Pa)          (Pa)          (Pa)       (-)       (-)       (-)       (-)       (-)
                0.0000   7.3242e-006  -2.9193e-006   1.9253e-004   2.0514e+005   1.5838e+002   1.3477e+006    0.0014   -0.0000    0.0000   -0.0000    0.0225
                0.0077   6.2217e-006  -2.4797e-006   1.9254e-004   1.7426e+005   1.3593e+002   1.3478e+006    0.0012   -0.0000    0.0000   -0.0000    0.0225

               lamina:  5     
              matName:  (blade-shell)
                     s           e11           e22           e12           s11           s22           s12   s11_fcT   s11_fcC   s22_fcT   s22_fcC   s12_fcS
                   (m)         (m/m)         (m/m)         (rad)          (Pa)          (Pa)          (Pa)       (-)       (-)       (-)       (-)       (-)
                0.0000   6.7394e-006  -2.6855e-006   1.9253e-004   1.8877e+005   1.5705e+002   1.3477e+006    0.0013   -0.0000    0.0000   -0.0000    0.0225
                0.0077   5.6370e-006  -2.2459e-006   1.9254e-004   1.5789e+005   1.3460e+002   1.3478e+006    0.0011   -0.0000    0.0000   -0.0000    0.0225

            panel:  4     
           lam_num    nPlies        tPly      fibAng     matID  matName
               (-)       (-)         (m)       (deg)       (-)  (-)
                 1         1    0.005000      0.0000         2  (blade-shell)
                 2         1    0.024046      0.0000         1  (blade-root)
                 3         1    0.041965      0.0000         6  (TEP-core)
                 4         1    0.024046      0.0000         1  (blade-root)
                 5         1    0.005000      0.0000         2  (blade-shell)

               lamina:  1     
              matName:  (blade-shell)
                     s           e11           e22           e12           s11           s22           s12   s11_fcT   s11_fcC   s22_fcT   s22_fcC   s12_fcS
                   (m)         (m/m)         (m/m)         (rad)          (Pa)          (Pa)          (Pa)       (-)       (-)       (-)       (-)       (-)
                0.0000   7.9484e-006  -3.1702e-006   1.8578e-004   2.2261e+005   1.3985e+002   1.3005e+006    0.0015   -0.0000    0.0000   -0.0000    0.0217
                0.2665  -3.0683e-005   1.2231e-005   1.8579e-004  -8.5938e+005  -6.3832e+002   1.3005e+006    0.0000    0.0040    0.0000    0.0000    0.0217
                0.6486  -8.6035e-005   3.4299e-005   1.8579e-004  -2.4097e+006  -1.7572e+003   1.3005e+006    0.0000    0.0113    0.0000    0.0000    0.0217
                1.0262  -1.4075e-004   5.6110e-005   1.8533e-004  -3.9420e+006  -2.8638e+003   1.2973e+006    0.0000    0.0185    0.0000    0.0000    0.0216
                1.3948  -1.9416e-004   7.7404e-005   1.8218e-004  -5.4380e+006  -3.9435e+003   1.2752e+006    0.0000    0.0255    0.0000    0.0000    0.0213
                1.7510  -2.4567e-004   9.7939e-005   1.7617e-004  -6.8806e+006  -4.9854e+003   1.2332e+006    0.0000    0.0323    0.0000    0.0000    0.0206
                1.9827  -2.7908e-004   1.1126e-004   1.6754e-004  -7.8165e+006  -5.6617e+003   1.1727e+006    0.0000    0.0367    0.0000    0.0000    0.0195

               lamina:  2     
              matName:  (blade-root)
                     s           e11           e22           e12           s11           s22           s12   s11_fcT   s11_fcC   s22_fcT   s22_fcC   s12_fcS
                   (m)         (m/m)         (m/m)         (rad)          (Pa)          (Pa)          (Pa)       (-)       (-)       (-)       (-)       (-)
                0.0000   7.8269e-006  -3.1216e-006   1.8578e-004   2.1921e+005   1.3957e+002   1.3005e+006    0.0015   -0.0000    0.0000   -0.0000    0.0217
                0.2665  -3.1082e-005   1.2391e-005   1.8579e-004  -8.7054e+005  -6.3922e+002   1.3005e+006    0.0000    0.0041    0.0000    0.0000    0.0217
                0.6486  -8.6189e-005   3.4360e-005   1.8579e-004  -2.4140e+006  -1.7575e+003   1.3005e+006    0.0000    0.0113    0.0000    0.0000    0.0217
                1.0262  -1.4073e-004   5.6105e-005   1.8533e-004  -3.9417e+006  -2.8638e+003   1.2973e+006    0.0000    0.0185    0.0000    0.0000    0.0216
                1.3948  -1.9410e-004   7.7382e-005   1.8218e-004  -5.4364e+006  -3.9434e+003   1.2752e+006    0.0000    0.0255    0.0000    0.0000    0.0213
                1.7510  -2.4557e-004   9.7901e-005   1.7617e-004  -6.8780e+006  -4.9852e+003   1.2332e+006    0.0000    0.0323    0.0000    0.0000    0.0206
                1.9827  -2.7896e-004   1.1121e-004   1.6754e-004  -7.8132e+006  -5.6615e+003   1.1727e+006    0.0000    0.0367    0.0000    0.0000    0.0195

               lamina:  3     
              matName:  (TEP-core)
                     s           e11           e22           e12           s11           s22           s12   s11_fcT   s11_fcC   s22_fcT   s22_fcC   s12_fcS
                   (m)         (m/m)         (m/m)         (rad)          (Pa)          (Pa)          (Pa)       (-)       (-)       (-)       (-)       (-)
                0.0000   7.2421e-006  -2.8878e-006   1.8578e-004   1.8217e+003  -2.0432e+002   3.7156e+003    0.0000   -0.0000    0.0000    0.0000    0.0000
                0.2665  -3.1777e-005   1.2669e-005   1.8579e-004  -7.9933e+003   8.9589e+002   3.7158e+003    0.0000    0.0000    0.0000   -0.0000    0.0000
                0.6486  -8.6458e-005   3.4468e-005   1.8579e-004  -2.1748e+004   2.4372e+003   3.7158e+003    0.0000    0.0000    0.0000   -0.0000    0.0000
                1.0262  -1.4067e-004   5.6081e-005   1.8533e-004  -3.5385e+004   3.9654e+003   3.7066e+003    0.0000    0.0000    0.0000   -0.0000    0.0000
                1.3948  -1.9383e-004   7.7273e-005   1.8218e-004  -4.8756e+004   5.4640e+003   3.6435e+003    0.0000    0.0000    0.0000   -0.0000    0.0000
                1.7510  -2.4511e-004   9.7718e-005   1.7617e-004  -6.1657e+004   6.9097e+003   3.5234e+003    0.0000    0.0000    0.0000   -0.0000    0.0000
                1.9827  -2.7840e-004   1.1099e-004   1.6754e-004  -7.0029e+004   7.8479e+003   3.3507e+003    0.0000    0.0000    0.0000   -0.0000    0.0000

               lamina:  4     
              matName:  (blade-root)
                     s           e11           e22           e12           s11           s22           s12   s11_fcT   s11_fcC   s22_fcT   s22_fcC   s12_fcS
                   (m)         (m/m)         (m/m)         (rad)          (Pa)          (Pa)          (Pa)       (-)       (-)       (-)       (-)       (-)
                0.0000   6.2217e-006  -2.4797e-006   1.8578e-004   1.7426e+005   1.3593e+002   1.3005e+006    0.0012   -0.0000    0.0000   -0.0000    0.0217
                0.2665  -3.2176e-005   1.2828e-005   1.8579e-004  -9.0117e+005  -6.4171e+002   1.3005e+006    0.0000    0.0042    0.0000    0.0000    0.0217
                0.6486  -8.6611e-005   3.4529e-005   1.8579e-004  -2.4258e+006  -1.7585e+003   1.3005e+006    0.0000    0.0114    0.0000    0.0000    0.0217
                1.0262  -1.4057e-004   5.6038e-005   1.8533e-004  -3.9370e+006  -2.8634e+003   1.2973e+006    0.0000    0.0185    0.0000    0.0000    0.0216
                1.3948  -1.9335e-004   7.7083e-005   1.8218e-004  -5.4155e+006  -3.9417e+003   1.2752e+006    0.0000    0.0254    0.0000    0.0000    0.0213
                1.7510  -2.4432e-004   9.7399e-005   1.7617e-004  -6.8428e+006  -4.9823e+003   1.2332e+006    0.0000    0.0321    0.0000    0.0000    0.0206
                1.9827  -2.7741e-004   1.1059e-004   1.6754e-004  -7.7697e+006  -5.6580e+003   1.1727e+006    0.0000    0.0365    0.0000    0.0000    0.0195

               lamina:  5     
              matName:  (blade-shell)
                     s           e11           e22           e12           s11           s22           s12   s11_fcT   s11_fcC   s22_fcT   s22_fcC   s12_fcS
                   (m)         (m/m)         (m/m)         (rad)          (Pa)          (Pa)          (Pa)       (-)       (-)       (-)       (-)       (-)
                0.0000   5.6370e-006  -2.2459e-006   1.8578e-004   1.5789e+005   1.3460e+002   1.3005e+006    0.0011   -0.0000    0.0000   -0.0000    0.0217
                0.2665  -3.2258e-005   1.2861e-005   1.8579e-004  -9.0349e+005  -6.4190e+002   1.3005e+006    0.0000    0.0042    0.0000    0.0000    0.0217
                0.6486  -8.6643e-005   3.4542e-005   1.8579e-004  -2.4267e+006  -1.7586e+003   1.3005e+006    0.0000    0.0114    0.0000    0.0000    0.0217
                1.0262  -1.4050e-004   5.6014e-005   1.8533e-004  -3.9353e+006  -2.8632e+003   1.2973e+006    0.0000    0.0185    0.0000    0.0000    0.0216
                1.3948  -1.9308e-004   7.6974e-005   1.8218e-004  -5.4079e+006  -3.9410e+003   1.2752e+006    0.0000    0.0254    0.0000    0.0000    0.0213
                1.7510  -2.4386e-004   9.7216e-005   1.7617e-004  -6.8300e+006  -4.9813e+003   1.2332e+006    0.0000    0.0321    0.0000    0.0000    0.0206
                1.9827  -2.7685e-004   1.1037e-004   1.6754e-004  -7.7539e+006  -5.6567e+003   1.1727e+006    0.0000    0.0364    0.0000    0.0000    0.0195

            panel:  5     
           lam_num    nPlies        tPly      fibAng     matID  matName
               (-)       (-)         (m)       (deg)       (-)  (-)
                 1         1    0.005000      0.0000         2  (blade-shell)
                 2         1    0.024046      0.0000         1  (blade-root)
                 3         1    0.041965      0.0000         6  (TEP-core)
                 4         1    0.024046      0.0000         1  (blade-root)
                 5         1    0.005000      0.0000         2  (blade-shell)

               lamina:  1     
              matName:  (blade-shell)
                     s           e11           e22           e12           s11           s22           s12   s11_fcT   s11_fcC   s22_fcT   s22_fcC   s12_fcS
                   (m)         (m/m)         (m/m)         (rad)          (Pa)          (Pa)          (Pa)       (-)       (-)       (-)       (-)       (-)
                0.0000  -2.7908e-004   1.1126e-004   1.5659e-004  -7.8165e+006  -5.6617e+003   1.0962e+006    0.0000    0.0367    0.0000    0.0000    0.0183
                0.1066  -2.9464e-004   1.1746e-004   1.4811e-004  -8.2523e+006  -5.9734e+003   1.0367e+006    0.0000    0.0387    0.0000    0.0000    0.0173
                0.4244  -3.4036e-004   1.3569e-004   1.4032e-004  -9.5328e+006  -6.8986e+003   9.8224e+005    0.0000    0.0448    0.0000    0.0000    0.0164
                0.7177  -3.8251e-004   1.5249e-004   1.3605e-004  -1.0713e+007  -7.7486e+003   9.5237e+005    0.0000    0.0503    0.0000    0.0000    0.0159
                0.9827  -4.2050e-004   1.6764e-004   1.2198e-004  -1.1777e+007  -8.5127e+003   8.5386e+005    0.0000    0.0553    0.0000    0.0000    0.0142
                1.2169  -4.5405e-004   1.8102e-004   1.0720e-004  -1.2717e+007  -9.1821e+003   7.5043e+005    0.0000    0.0597    0.0000    0.0000    0.0125
                1.4198  -4.8286e-004   1.9250e-004   9.2385e-005  -1.3524e+007  -9.7519e+003   6.4669e+005    0.0000    0.0635    0.0000    0.0000    0.0108
                1.5864  -5.0661e-004   2.0197e-004   7.8133e-005  -1.4189e+007  -1.0209e+004   5.4693e+005    0.0000    0.0666    0.0000    0.0000    0.0091
                1.7242  -5.2544e-004   2.0948e-004   6.4920e-005  -1.4716e+007  -1.0559e+004   4.5444e+005    0.0000    0.0691    0.0000    0.0000    0.0076
                1.8184  -5.3868e-004   2.1476e-004   5.3491e-005  -1.5087e+007  -1.0778e+004   3.7444e+005    0.0000    0.0708    0.0000    0.0000    0.0062
                1.9148  -5.4648e-004   2.1787e-004   4.3652e-005  -1.5306e+007  -1.0910e+004   3.0557e+005    0.0000    0.0719    0.0000    0.0000    0.0051

               lamina:  2     
              matName:  (blade-root)
                     s           e11           e22           e12           s11           s22           s12   s11_fcT   s11_fcC   s22_fcT   s22_fcC   s12_fcS
                   (m)         (m/m)         (m/m)         (rad)          (Pa)          (Pa)          (Pa)       (-)       (-)       (-)       (-)       (-)
                0.0000  -2.7896e-004   1.1121e-004   1.5659e-004  -7.8132e+006  -5.6615e+003   1.0962e+006    0.0000    0.0367    0.0000    0.0000    0.0183
                0.1066  -2.9449e-004   1.1740e-004   1.4811e-004  -8.2482e+006  -5.9731e+003   1.0367e+006    0.0000    0.0387    0.0000    0.0000    0.0173
                0.4244  -3.4018e-004   1.3562e-004   1.4032e-004  -9.5278e+006  -6.8982e+003   9.8224e+005    0.0000    0.0447    0.0000    0.0000    0.0164
                0.7177  -3.8228e-004   1.5240e-004   1.3605e-004  -1.0707e+007  -7.7481e+003   9.5237e+005    0.0000    0.0503    0.0000    0.0000    0.0159
                0.9827  -4.2022e-004   1.6753e-004   1.2198e-004  -1.1770e+007  -8.5121e+003   8.5386e+005    0.0000    0.0553    0.0000    0.0000    0.0142
                1.2169  -4.5369e-004   1.8087e-004   1.0720e-004  -1.2707e+007  -9.1813e+003   7.5043e+005    0.0000    0.0597    0.0000    0.0000    0.0125
                1.4198  -4.8241e-004   1.9232e-004   9.2385e-005  -1.3511e+007  -9.7509e+003   6.4669e+005    0.0000    0.0634    0.0000    0.0000    0.0108
                1.5864  -5.0602e-004   2.0174e-004   7.8133e-005  -1.4173e+007  -1.0208e+004   5.4693e+005    0.0000    0.0665    0.0000    0.0000    0.0091
                1.7242  -5.2466e-004   2.0917e-004   6.4920e-005  -1.4695e+007  -1.0557e+004   4.5444e+005    0.0000    0.0690    0.0000    0.0000    0.0076
                1.8184  -5.3762e-004   2.1434e-004   5.3491e-005  -1.5058e+007  -1.0776e+004   3.7444e+005    0.0000    0.0707    0.0000    0.0000    0.0062
                1.9148  -5.4527e-004   2.1739e-004   4.3652e-005  -1.5272e+007  -1.0908e+004   3.0557e+005    0.0000    0.0717    0.0000    0.0000    0.0051

               lamina:  3     
              matName:  (TEP-core)
                     s           e11           e22           e12           s11           s22           s12   s11_fcT   s11_fcC   s22_fcT   s22_fcC   s12_fcS
                   (m)         (m/m)         (m/m)         (rad)          (Pa)          (Pa)          (Pa)       (-)       (-)       (-)       (-)       (-)
                0.0000  -2.7840e-004   1.1099e-004   1.5659e-004  -7.0029e+004   7.8479e+003   3.1319e+003    0.0000    0.0000    0.0000   -0.0000    0.0000
                0.1066  -2.9379e-004   1.1712e-004   1.4811e-004  -7.3901e+004   8.2819e+003   2.9621e+003    0.0000    0.0000    0.0000   -0.0000    0.0000
                0.4244  -3.3932e-004   1.3528e-004   1.4032e-004  -8.5354e+004   9.5654e+003   2.8064e+003    0.0000    0.0000    0.0000   -0.0000    0.0000
                0.7177  -3.8121e-004   1.5197e-004   1.3605e-004  -9.5890e+004   1.0746e+004   2.7210e+003    0.0000    0.0000    0.0000   -0.0000    0.0000
                0.9827  -4.1889e-004   1.6700e-004   1.2198e-004  -1.0537e+005   1.1809e+004   2.4396e+003    0.0000    0.0000    0.0000   -0.0000    0.0000
                1.2169  -4.5200e-004   1.8020e-004   1.0720e-004  -1.1370e+005   1.2742e+004   2.1441e+003    0.0000    0.0000    0.0000   -0.0000    0.0000
                1.4198  -4.8027e-004   1.9147e-004   9.2385e-005  -1.2081e+005   1.3539e+004   1.8477e+003    0.0000    0.0000    0.0000   -0.0000    0.0000
                1.5864  -5.0317e-004   2.0060e-004   7.8133e-005  -1.2657e+005   1.4185e+004   1.5627e+003    0.0000    0.0000    0.0000   -0.0000    0.0000
                1.7242  -5.2092e-004   2.0768e-004   6.4920e-005  -1.3103e+005   1.4685e+004   1.2984e+003    0.0000    0.0000    0.0000   -0.0000    0.0000
                1.8184  -5.3254e-004   2.1231e-004   5.3491e-005  -1.3396e+005   1.5013e+004   1.0698e+003    0.0000    0.0000    0.0000   -0.0000    0.0000
                1.9148  -5.3949e-004   2.1508e-004   4.3652e-005  -1.3570e+005   1.5209e+004   8.7305e+002    0.0000    0.0000    0.0000   -0.0000    0.0000

               lamina:  4     
              matName:  (blade-root)
                     s           e11           e22           e12           s11           s22           s12   s11_fcT   s11_fcC   s22_fcT   s22_fcC   s12_fcS
                   (m)         (m/m)         (m/m)         (rad)          (Pa)          (Pa)          (Pa)       (-)       (-)       (-)       (-)       (-)
                0.0000  -2.7741e-004   1.1059e-004   1.5659e-004  -7.7697e+006  -5.6580e+003   1.0962e+006    0.0000    0.0365    0.0000    0.0000    0.0183
                0.1066  -2.9256e-004   1.1663e-004   1.4811e-004  -8.1942e+006  -5.9687e+003   1.0367e+006    0.0000    0.0385    0.0000    0.0000    0.0173
                0.4244  -3.3782e-004   1.3468e-004   1.4032e-004  -9.4618e+006  -6.8928e+003   9.8224e+005    0.0000    0.0444    0.0000    0.0000    0.0164
                0.7177  -3.7933e-004   1.5122e-004   1.3605e-004  -1.0624e+007  -7.7414e+003   9.5237e+005    0.0000    0.0499    0.0000    0.0000    0.0159
                0.9827  -4.1657e-004   1.6607e-004   1.2198e-004  -1.1667e+007  -8.5038e+003   8.5386e+005    0.0000    0.0548    0.0000    0.0000    0.0142
                1.2169  -4.4904e-004   1.7901e-004   1.0720e-004  -1.2577e+007  -9.1707e+003   7.5043e+005    0.0000    0.0590    0.0000    0.0000    0.0125
                1.4198  -4.7652e-004   1.8997e-004   9.2385e-005  -1.3347e+007  -9.7375e+003   6.4669e+005    0.0000    0.0627    0.0000    0.0000    0.0108
                1.5864  -4.9819e-004   1.9861e-004   7.8133e-005  -1.3953e+007  -1.0190e+004   5.4693e+005    0.0000    0.0655    0.0000    0.0000    0.0091
                1.7242  -5.1440e-004   2.0507e-004   6.4920e-005  -1.4407e+007  -1.0534e+004   4.5444e+005    0.0000    0.0676    0.0000    0.0000    0.0076
                1.8184  -5.2367e-004   2.0876e-004   5.3491e-005  -1.4667e+007  -1.0744e+004   3.7444e+005    0.0000    0.0689    0.0000    0.0000    0.0062
                1.9148  -5.2939e-004   2.1104e-004   4.3652e-005  -1.4827e+007  -1.0872e+004   3.0557e+005    0.0000    0.0696    0.0000    0.0000    0.0051

               lamina:  5     
              matName:  (blade-shell)
                     s           e11           e22           e12           s11           s22           s12   s11_fcT   s11_fcC   s22_fcT   s22_fcC   s12_fcS
                   (m)         (m/m)         (m/m)         (rad)          (Pa)          (Pa)          (Pa)       (-)       (-)       (-)       (-)       (-)
                0.0000  -2.7685e-004   1.1037e-004   1.5659e-004  -7.7539e+006  -5.6567e+003   1.0962e+006    0.0000    0.0364    0.0000    0.0000    0.0183
                0.1066  -2.9186e-004   1.1635e-004   1.4811e-004  -8.1745e+006  -5.9671e+003   1.0367e+006    0.0000    0.0384    0.0000    0.0000    0.0173
                0.4244  -3.3697e-004   1.3433e-004   1.4032e-004  -9.4378e+006  -6.8909e+003   9.8224e+005    0.0000    0.0443    0.0000    0.0000    0.0164
                0.7177  -3.7825e-004   1.5079e-004   1.3605e-004  -1.0594e+007  -7.7389e+003   9.5237e+005    0.0000    0.0497    0.0000    0.0000    0.0159
                0.9827  -4.1523e-004   1.6553e-004   1.2198e-004  -1.1630e+007  -8.5007e+003   8.5386e+005    0.0000    0.0546    0.0000    0.0000    0.0142
                1.2169  -4.4734e-004   1.7833e-004   1.0720e-004  -1.2529e+007  -9.1669e+003   7.5043e+005    0.0000    0.0588    0.0000    0.0000    0.0125
                1.4198  -4.7438e-004   1.8911e-004   9.2385e-005  -1.3286e+007  -9.7327e+003   6.4669e+005    0.0000    0.0624    0.0000    0.0000    0.0108
                1.5864  -4.9534e-004   1.9747e-004   7.8133e-005  -1.3874e+007  -1.0183e+004   5.4693e+005    0.0000    0.0651    0.0000    0.0000    0.0091
                1.7242  -5.1067e-004   2.0358e-004   6.4920e-005  -1.4303e+007  -1.0526e+004   4.5444e+005    0.0000    0.0671    0.0000    0.0000    0.0076
                1.8184  -5.1859e-004   2.0673e-004   5.3491e-005  -1.4525e+007  -1.0732e+004   3.7444e+005    0.0000    0.0682    0.0000    0.0000    0.0062
                1.9148  -5.2360e-004   2.0873e-004   4.3652e-005  -1.4665e+007  -1.0858e+004   3.0557e+005    0.0000    0.0689    0.0000    0.0000    0.0051

  Bottom:  panel  nNode   nLam     xc_St    xc_End         b         t         E_eff         G_eff      nu_eff     density  buckleCrit
            (-)    (-)    (-)       (-)       (-)       (m)       (m)          (Pa)          (Pa)         (-)    (kg/m^3)         (-)
              1     13      5    0.0000    0.3093    3.1317    0.1001   1.6367e+010   4.0725e+009      0.3987   1157.9722      0.0002
              2      6      7    0.3093    0.5147    1.4825    0.1532   3.6742e+010   4.5166e+009      0.3271   1893.4434      0.0008
              3      2      5    0.5147    0.5158    0.0080    0.1001   1.6367e+010   4.0725e+009      0.3987   1157.9722      0.0000
              4      7      5    0.5158    0.7800    2.0617    0.1001   1.6367e+010   4.0725e+009      0.3987   1157.9722      0.0246
              5     11      5    0.7800    1.0000    1.7881    0.1001   1.6367e+010   4.0725e+009      0.3987   1157.9722      0.0159

            panel:  1     
           lam_num    nPlies        tPly      fibAng     matID  matName
               (-)       (-)         (m)       (deg)       (-)  (-)
                 1         1    0.005000      0.0000         2  (blade-shell)
                 2         1    0.024046      0.0000         1  (blade-root)
                 3         1    0.041965      0.0000         5  (LEP-core)
                 4         1    0.024046      0.0000         1  (blade-root)
                 5         1    0.005000      0.0000         2  (blade-shell)

               lamina:  1     
              matName:  (blade-shell)
                     s           e11           e22           e12           s11           s22           s12   s11_fcT   s11_fcC   s22_fcT   s22_fcC   s12_fcS
                   (m)         (m/m)         (m/m)         (rad)          (Pa)          (Pa)          (Pa)       (-)       (-)       (-)       (-)       (-)
                0.0000   4.5243e-004  -1.8038e-004   4.0506e-005   1.2672e+007   8.9853e+003   2.8354e+005    0.0880   -0.0000    0.0000   -0.0000    0.0047
                0.2109   4.4047e-004  -1.7561e-004   5.3336e-005   1.2337e+007   8.7500e+003   3.7335e+005    0.0857   -0.0000    0.0000   -0.0000    0.0062
                0.4487   4.2181e-004  -1.6817e-004   6.7320e-005   1.1814e+007   8.3896e+003   4.7124e+005    0.0820   -0.0000    0.0000   -0.0000    0.0079
                0.6858   3.9828e-004  -1.5879e-004   8.0607e-005   1.1155e+007   7.9354e+003   5.6425e+005    0.0775   -0.0000    0.0000   -0.0000    0.0094
                0.9362   3.6988e-004  -1.4747e-004   9.3772e-005   1.0360e+007   7.3815e+003   6.5640e+005    0.0719   -0.0000    0.0000   -0.0000    0.0109
                1.2037   3.3673e-004  -1.3425e-004   1.0673e-004   9.4310e+006   6.7316e+003   7.4713e+005    0.0655   -0.0000    0.0000   -0.0000    0.0125
                1.4829   2.9948e-004  -1.1940e-004   1.1894e-004   8.3880e+006   6.0001e+003   8.3259e+005    0.0582   -0.0000    0.0000   -0.0000    0.0139
                1.7747   2.5865e-004  -1.0312e-004   1.3016e-004   7.2442e+006   5.1953e+003   9.1112e+005    0.0503   -0.0000    0.0000   -0.0000    0.0152
                2.0784   2.1466e-004  -8.5579e-005   1.4010e-004   6.0121e+006   4.3280e+003   9.8070e+005    0.0418   -0.0000    0.0000   -0.0000    0.0163
                2.3910   1.6829e-004  -6.7091e-005   1.4842e-004   4.7135e+006   3.4147e+003   1.0390e+006    0.0327   -0.0000    0.0000   -0.0000    0.0173
                2.7129   1.2030e-004  -4.7959e-005   1.5494e-004   3.3695e+006   2.4686e+003   1.0846e+006    0.0234   -0.0000    0.0000   -0.0000    0.0181
                3.0464   7.1718e-005  -2.8588e-005   1.5951e-004   2.0087e+006   1.5010e+003   1.1165e+006    0.0139   -0.0000    0.0000   -0.0000    0.0186
                3.1317   5.8686e-005  -2.3392e-005   1.6032e-004   1.6437e+006   1.2595e+003   1.1222e+006    0.0114   -0.0000    0.0000   -0.0000    0.0187

               lamina:  2     
              matName:  (blade-root)
                     s           e11           e22           e12           s11           s22           s12   s11_fcT   s11_fcC   s22_fcT   s22_fcC   s12_fcS
                   (m)         (m/m)         (m/m)         (rad)          (Pa)          (Pa)          (Pa)       (-)       (-)       (-)       (-)       (-)
                0.0000   4.5117e-004  -1.7988e-004   4.0506e-005   1.2636e+007   8.9825e+003   2.8354e+005    0.0878   -0.0000    0.0000   -0.0000    0.0047
                0.2109   4.3926e-004  -1.7513e-004   5.3336e-005   1.2303e+007   8.7473e+003   3.7335e+005    0.0854   -0.0000    0.0000   -0.0000    0.0062
                0.4487   4.2070e-004  -1.6773e-004   6.7320e-005   1.1783e+007   8.3871e+003   4.7124e+005    0.0818   -0.0000    0.0000   -0.0000    0.0079
                0.6858   3.9732e-004  -1.5841e-004   8.0607e-005   1.1128e+007   7.9332e+003   5.6425e+005    0.0773   -0.0000    0.0000   -0.0000    0.0094
                0.9362   3.6905e-004  -1.4713e-004   9.3772e-005   1.0336e+007   7.3796e+003   6.5640e+005    0.0718   -0.0000    0.0000   -0.0000    0.0109
                1.2037   3.3603e-004  -1.3397e-004   1.0673e-004   9.4116e+006   6.7300e+003   7.4713e+005    0.0654   -0.0000    0.0000   -0.0000    0.0125
                1.4829   2.9894e-004  -1.1918e-004   1.1894e-004   8.3727e+006   5.9989e+003   8.3259e+005    0.0581   -0.0000    0.0000   -0.0000    0.0139
                1.7747   2.5825e-004  -1.0296e-004   1.3016e-004   7.2332e+006   5.1944e+003   9.1112e+005    0.0502   -0.0000    0.0000   -0.0000    0.0152
                2.0784   2.1442e-004  -8.5483e-005   1.4010e-004   6.0055e+006   4.3274e+003   9.8070e+005    0.0417   -0.0000    0.0000   -0.0000    0.0163
                2.3910   1.6822e-004  -6.7064e-005   1.4842e-004   4.7116e+006   3.4146e+003   1.0390e+006    0.0327   -0.0000    0.0000   -0.0000    0.0173
                2.7129   1.2086e-004  -4.8181e-005   1.5494e-004   3.3850e+006   2.4698e+003   1.0846e+006    0.0235   -0.0000    0.0000   -0.0000    0.0181
                3.0464   7.2916e-005  -2.9067e-005   1.5951e-004   2.0422e+006   1.5037e+003   1.1165e+006    0.0142   -0.0000    0.0000   -0.0000    0.0186
                3.1317   6.0587e-005  -2.4152e-005   1.6032e-004   1.6969e+006   1.2638e+003   1.1222e+006    0.0118   -0.0000    0.0000   -0.0000    0.0187

               lamina:  3     
              matName:  (LEP-core)
                     s           e11           e22           e12           s11           s22           s12   s11_fcT   s11_fcC   s22_fcT   s22_fcC   s12_fcS
                   (m)         (m/m)         (m/m)         (rad)          (Pa)          (Pa)          (Pa)       (-)       (-)       (-)       (-)       (-)
                0.0000   4.4512e-004  -1.7746e-004   4.0506e-005   1.1197e+005  -1.2549e+004   8.1011e+002    0.0000   -0.0000    0.0000    0.0000    0.0000
                0.2109   4.3343e-004  -1.7280e-004   5.3336e-005   1.0902e+005  -1.2220e+004   1.0667e+003    0.0000   -0.0000    0.0000    0.0000    0.0000
                0.4487   4.1539e-004  -1.6561e-004   6.7320e-005   1.0449e+005  -1.1711e+004   1.3464e+003    0.0000   -0.0000    0.0000    0.0000    0.0000
                0.6858   3.9267e-004  -1.5655e-004   8.0607e-005   9.8772e+004  -1.1070e+004   1.6121e+003    0.0000   -0.0000    0.0000    0.0000    0.0000
                0.9362   3.6505e-004  -1.4554e-004   9.3772e-005   9.1825e+004  -1.0292e+004   1.8754e+003    0.0000   -0.0000    0.0000    0.0000    0.0000
                1.2037   3.3270e-004  -1.3264e-004   1.0673e-004   8.3689e+004  -9.3796e+003   2.1347e+003    0.0000   -0.0000    0.0000    0.0000    0.0000
                1.4829   2.9633e-004  -1.1814e-004   1.1894e-004   7.4538e+004  -8.3539e+003   2.3788e+003    0.0000   -0.0000    0.0000    0.0000    0.0000
                1.7747   2.5635e-004  -1.0220e-004   1.3016e-004   6.4482e+004  -7.2268e+003   2.6032e+003    0.0000   -0.0000    0.0000    0.0000    0.0000
                2.0784   2.1327e-004  -8.5024e-005   1.4010e-004   5.3647e+004  -6.0123e+003   2.8020e+003    0.0000   -0.0000    0.0000    0.0000    0.0000
                2.3910   1.6790e-004  -6.6935e-005   1.4842e-004   4.2233e+004  -4.7330e+003   2.9685e+003    0.0000   -0.0000    0.0000    0.0000    0.0000
                2.7129   1.2183e-004  -4.8568e-005   1.5494e-004   3.0645e+004  -3.4343e+003   3.0988e+003    0.0000   -0.0000    0.0000    0.0000    0.0000
                3.0464   7.5006e-005  -2.9903e-005   1.5951e-004   1.8867e+004  -2.1147e+003   3.1901e+003    0.0000   -0.0000    0.0000    0.0000    0.0000
                3.1317   6.3905e-005  -2.5478e-005   1.6032e-004   1.6075e+004  -1.8020e+003   3.2064e+003    0.0000   -0.0000    0.0000    0.0000    0.0000

               lamina:  4     
              matName:  (blade-root)
                     s           e11           e22           e12           s11           s22           s12   s11_fcT   s11_fcC   s22_fcT   s22_fcC   s12_fcS
                   (m)         (m/m)         (m/m)         (rad)          (Pa)          (Pa)          (Pa)       (-)       (-)       (-)       (-)       (-)
                0.0000   4.3456e-004  -1.7324e-004   4.0506e-005   1.2171e+007   8.9447e+003   2.8354e+005    0.0845   -0.0000    0.0000   -0.0000    0.0047
                0.2109   4.2325e-004  -1.6873e-004   5.3336e-005   1.1854e+007   8.7109e+003   3.7335e+005    0.0823   -0.0000    0.0000   -0.0000    0.0062
                0.4487   4.0612e-004  -1.6190e-004   6.7320e-005   1.1375e+007   8.3539e+003   4.7124e+005    0.0790   -0.0000    0.0000   -0.0000    0.0079
                0.6858   3.8455e-004  -1.5330e-004   8.0607e-005   1.0771e+007   7.9042e+003   5.6425e+005    0.0748   -0.0000    0.0000   -0.0000    0.0094
                0.9362   3.5807e-004  -1.4274e-004   9.3772e-005   1.0029e+007   7.3547e+003   6.5640e+005    0.0696   -0.0000    0.0000   -0.0000    0.0109
                1.2037   3.2689e-004  -1.3032e-004   1.0673e-004   9.1556e+006   6.7092e+003   7.4713e+005    0.0636   -0.0000    0.0000   -0.0000    0.0125
                1.4829   2.9176e-004  -1.1631e-004   1.1894e-004   8.1717e+006   5.9826e+003   8.3259e+005    0.0567   -0.0000    0.0000   -0.0000    0.0139
                1.7747   2.5302e-004  -1.0087e-004   1.3016e-004   7.0867e+006   5.1825e+003   9.1112e+005    0.0492   -0.0000    0.0000   -0.0000    0.0152
                2.0784   2.1127e-004  -8.4223e-005   1.4010e-004   5.9172e+006   4.3203e+003   9.8070e+005    0.0411   -0.0000    0.0000   -0.0000    0.0163
                2.3910   1.6733e-004  -6.6708e-005   1.4842e-004   4.6866e+006   3.4126e+003   1.0390e+006    0.0325   -0.0000    0.0000   -0.0000    0.0173
                2.7129   1.2238e-004  -4.8790e-005   1.5494e-004   3.4277e+006   2.4733e+003   1.0846e+006    0.0238   -0.0000    0.0000   -0.0000    0.0181
                3.0464   7.6204e-005  -3.0382e-005   1.5951e-004   2.1343e+006   1.5112e+003   1.1165e+006    0.0148   -0.0000    0.0000   -0.0000    0.0186
                3.1317   6.5806e-005  -2.6238e-005   1.6032e-004   1.8431e+006   1.2756e+003   1.1222e+006    0.0128   -0.0000    0.0000   -0.0000    0.0187

               lamina:  5     
              matName:  (blade-shell)
                     s           e11           e22           e12           s11           s22           s12   s11_fcT   s11_fcC   s22_fcT   s22_fcC   s12_fcS
                   (m)         (m/m)         (m/m)         (rad)          (Pa)          (Pa)          (Pa)       (-)       (-)       (-)       (-)       (-)
                0.0000   4.2851e-004  -1.7082e-004   4.0506e-005   1.2002e+007   8.9310e+003   2.8354e+005    0.0833   -0.0000    0.0000   -0.0000    0.0047
                0.2109   4.1742e-004  -1.6640e-004   5.3336e-005   1.1691e+007   8.6976e+003   3.7335e+005    0.0812   -0.0000    0.0000   -0.0000    0.0062
                0.4487   4.0081e-004  -1.5978e-004   6.7320e-005   1.1226e+007   8.3419e+003   4.7124e+005    0.0780   -0.0000    0.0000   -0.0000    0.0079
                0.6858   3.7990e-004  -1.5144e-004   8.0607e-005   1.0640e+007   7.8937e+003   5.6425e+005    0.0739   -0.0000    0.0000   -0.0000    0.0094
                0.9362   3.5407e-004  -1.4114e-004   9.3772e-005   9.9169e+006   7.3456e+003   6.5640e+005    0.0689   -0.0000    0.0000   -0.0000    0.0109
                1.2037   3.2356e-004  -1.2898e-004   1.0673e-004   9.0623e+006   6.7016e+003   7.4713e+005    0.0629   -0.0000    0.0000   -0.0000    0.0125
                1.4829   2.8915e-004  -1.1527e-004   1.1894e-004   8.0985e+006   5.9766e+003   8.3259e+005    0.0562   -0.0000    0.0000   -0.0000    0.0139
                1.7747   2.5112e-004  -1.0011e-004   1.3016e-004   7.0334e+006   5.1782e+003   9.1112e+005    0.0488   -0.0000    0.0000   -0.0000    0.0152
                2.0784   2.1012e-004  -8.3765e-005   1.4010e-004   5.8851e+006   4.3177e+003   9.8070e+005    0.0409   -0.0000    0.0000   -0.0000    0.0163
                2.3910   1.6701e-004  -6.6579e-005   1.4842e-004   4.6776e+006   3.4118e+003   1.0390e+006    0.0325   -0.0000    0.0000   -0.0000    0.0173
                2.7129   1.2250e-004  -4.8836e-005   1.5494e-004   3.4309e+006   2.4736e+003   1.0846e+006    0.0238   -0.0000    0.0000   -0.0000    0.0181
                3.0464   7.6453e-005  -3.0482e-005   1.5951e-004   2.1413e+006   1.5118e+003   1.1165e+006    0.0149   -0.0000    0.0000   -0.0000    0.0186
                3.1317   6.6201e-005  -2.6397e-005   1.6032e-004   1.8541e+006   1.2765e+003   1.1222e+006    0.0129   -0.0000    0.0000   -0.0000    0.0187

            panel:  2     
           lam_num    nPlies        tPly      fibAng     matID  matName
               (-)       (-)         (m)       (deg)       (-)  (-)
                 1         1    0.005000      0.0000         2  (blade-shell)
                 2         1    0.024046      0.0000         1  (blade-root)
                 3         1    0.047561      0.0000         3  (spar-uni)
                 4         1    0.000001      0.0000         4  (spar-core)
                 5         1    0.047561      0.0000         3  (spar-uni)
                 6         1    0.024046      0.0000         1  (blade-root)
                 7         1    0.005000      0.0000         2  (blade-shell)

               lamina:  1     
              matName:  (blade-shell)
                     s           e11           e22           e12           s11           s22           s12   s11_fcT   s11_fcC   s22_fcT   s22_fcC   s12_fcS
                   (m)         (m/m)         (m/m)         (rad)          (Pa)          (Pa)          (Pa)       (-)       (-)       (-)       (-)       (-)
                0.0000   5.2849e-005  -1.6811e-005   9.8379e-005   1.5061e+006   6.5872e+004   6.8866e+005    0.0105   -0.0000    0.0000   -0.0000    0.0115
                0.2552   1.5469e-005  -4.4802e-006   1.0169e-004   4.4352e+005   2.5982e+004   7.1186e+005    0.0031   -0.0000    0.0000   -0.0000    0.0119
                0.6131  -3.6088e-005   1.2581e-005   1.0216e-004  -1.0218e+006  -2.8215e+004   7.1515e+005    0.0000    0.0048    0.0000    0.0000    0.0119
                0.9858  -8.5979e-005   2.9038e-005   9.7677e-005  -2.4400e+006  -8.1468e+004   6.8374e+005    0.0000    0.0115    0.0000    0.0000    0.0114
                1.3734  -1.3410e-004   4.4859e-005   8.7882e-005  -3.8084e+006  -1.3365e+005   6.1517e+005    0.0000    0.0179    0.0000    0.0000    0.0103
                1.4825  -1.4805e-004   4.9486e-005   8.4213e-005  -4.2047e+006  -1.4814e+005   5.8949e+005    0.0000    0.0197    0.0000    0.0000    0.0098

               lamina:  2     
              matName:  (blade-root)
                     s           e11           e22           e12           s11           s22           s12   s11_fcT   s11_fcC   s22_fcT   s22_fcC   s12_fcS
                   (m)         (m/m)         (m/m)         (rad)          (Pa)          (Pa)          (Pa)       (-)       (-)       (-)       (-)       (-)
                0.0000   5.6377e-005  -1.8125e-005   9.8379e-005   1.6055e+006   6.7348e+004   6.8866e+005    0.0111   -0.0000    0.0000   -0.0000    0.0115
                0.2552   1.9760e-005  -6.0785e-006   1.0169e-004   5.6438e+005   2.7778e+004   7.1186e+005    0.0039   -0.0000    0.0000   -0.0000    0.0119
                0.6131  -3.4973e-005   1.2166e-005   1.0216e-004  -9.9033e+005  -2.7748e+004   7.1515e+005    0.0000    0.0046    0.0000    0.0000    0.0119
                0.9858  -8.4666e-005   2.8549e-005   9.7677e-005  -2.4030e+006  -8.0919e+004   6.8374e+005    0.0000    0.0113    0.0000    0.0000    0.0114
                1.3734  -1.3268e-004   4.4328e-005   8.7882e-005  -3.7682e+006  -1.3306e+005   6.1517e+005    0.0000    0.0177    0.0000    0.0000    0.0103
                1.4825  -1.4654e-004   4.8921e-005   8.4213e-005  -4.1620e+006  -1.4750e+005   5.8949e+005    0.0000    0.0195    0.0000    0.0000    0.0098

               lamina:  3     
              matName:  (spar-uni)
                     s           e11           e22           e12           s11           s22           s12   s11_fcT   s11_fcC   s22_fcT   s22_fcC   s12_fcS
                   (m)         (m/m)         (m/m)         (rad)          (Pa)          (Pa)          (Pa)       (-)       (-)       (-)       (-)       (-)
                0.0000   6.3357e-005  -2.0725e-005   9.8379e-005   2.6490e+006  -4.2914e+004   2.9514e+005    0.0027   -0.0000    0.0000    0.0000    0.0098
                0.2552   2.8247e-005  -9.2399e-006   1.0169e-004   1.1810e+006  -1.9132e+004   3.0508e+005    0.0012   -0.0000    0.0000    0.0000    0.0102
                0.6131  -2.9606e-005   1.0166e-005   1.0216e-004  -1.2359e+006   2.6980e+004   3.0649e+005    0.0000    0.0018    0.0000   -0.0000    0.0102
                0.9858  -7.8354e-005   2.6198e-005   9.7677e-005  -3.2737e+006   6.1219e+004   2.9303e+005    0.0000    0.0047    0.0000   -0.0000    0.0098
                1.3734  -1.2583e-004   4.1775e-005   8.7882e-005  -5.2584e+006   9.4072e+004   2.6364e+005    0.0000    0.0075    0.0000   -0.0000    0.0088
                1.4825  -1.3924e-004   4.6202e-005   8.4213e-005  -5.8188e+006   1.0373e+005   2.5264e+005    0.0000    0.0083    0.0000   -0.0000    0.0084

               lamina:  4     
              matName:  (spar-core)
                     s           e11           e22           e12           s11           s22           s12   s11_fcT   s11_fcC   s22_fcT   s22_fcC   s12_fcS
                   (m)         (m/m)         (m/m)         (rad)          (Pa)          (Pa)          (Pa)       (-)       (-)       (-)       (-)       (-)
                0.0000   6.3357e-005  -2.0725e-005   9.8379e-005   1.6326e+004  -4.9087e+002   1.9676e+003    0.0000   -0.0000    0.0000    0.0000    0.0000
                0.2552   2.8247e-005  -9.2400e-006   1.0169e-004   7.2785e+003  -2.1885e+002   2.0339e+003    0.0000   -0.0000    0.0000    0.0000    0.0000
                0.6131  -1.8991e-005   6.2121e-006   1.0216e-004  -4.8934e+003   1.4714e+002   2.0433e+003    0.0000    0.0000    0.0000   -0.0000    0.0000
                0.9858  -6.5870e-005   2.1547e-005   9.7677e-005  -1.6973e+004   5.1035e+002   1.9535e+003    0.0000    0.0000    0.0000   -0.0000    0.0000
                1.3734  -1.1227e-004   3.6726e-005   8.7882e-005  -2.8930e+004   8.6987e+002   1.7576e+003    0.0000    0.0000    0.0000   -0.0000    0.0000
                1.4825  -1.2480e-004   4.0823e-005   8.4213e-005  -3.2157e+004   9.6689e+002   1.6843e+003    0.0000    0.0000    0.0000   -0.0000    0.0000

               lamina:  5     
              matName:  (spar-uni)
                     s           e11           e22           e12           s11           s22           s12   s11_fcT   s11_fcC   s22_fcT   s22_fcC   s12_fcS
                   (m)         (m/m)         (m/m)         (rad)          (Pa)          (Pa)          (Pa)       (-)       (-)       (-)       (-)       (-)
                0.0000   7.0336e-005  -2.3325e-005   9.8379e-005   2.9395e+006  -5.2196e+004   2.9514e+005    0.0030   -0.0000    0.0000    0.0000    0.0098
                0.2552   3.6734e-005  -1.2401e-005   1.0169e-004   1.5343e+006  -3.0419e+004   3.0508e+005    0.0016   -0.0000    0.0000    0.0000    0.0102
                0.6131  -1.8990e-005   6.2120e-006   1.0216e-004  -7.9399e+005   1.2863e+004   3.0649e+005    0.0000    0.0011    0.0000   -0.0000    0.0102
                0.9858  -6.5870e-005   2.1547e-005   9.7677e-005  -2.7540e+006   4.4616e+004   2.9303e+005    0.0000    0.0039    0.0000   -0.0000    0.0098
                1.3734  -1.1227e-004   3.6726e-005   8.7882e-005  -4.6942e+006   7.6047e+004   2.6364e+005    0.0000    0.0067    0.0000   -0.0000    0.0088
                1.4825  -1.2480e-004   4.0823e-005   8.4213e-005  -5.2178e+006   8.4529e+004   2.5264e+005    0.0000    0.0074    0.0000   -0.0000    0.0084

               lamina:  6     
              matName:  (blade-root)
                     s           e11           e22           e12           s11           s22           s12   s11_fcT   s11_fcC   s22_fcT   s22_fcC   s12_fcS
                   (m)         (m/m)         (m/m)         (rad)          (Pa)          (Pa)          (Pa)       (-)       (-)       (-)       (-)       (-)
                0.0000   7.3865e-005  -2.4639e-005   9.8379e-005   2.0981e+006   7.4664e+004   6.8866e+005    0.0146   -0.0000    0.0000   -0.0000    0.0115
                0.2552   4.1024e-005  -1.4000e-005   1.0169e-004   1.1634e+006   3.6674e+004   7.1186e+005    0.0081   -0.0000    0.0000   -0.0000    0.0119
                0.6131  -8.3752e-006   2.2578e-006   1.0216e-004  -2.4115e+005  -1.6621e+004   7.1515e+005    0.0000    0.0011    0.0000    0.0000    0.0119
                0.9858  -5.3385e-005   1.6896e-005   9.7677e-005  -1.5219e+006  -6.7832e+004   6.8374e+005    0.0000    0.0071    0.0000    0.0000    0.0114
                1.3734  -9.8719e-005   3.1677e-005   8.7882e-005  -2.8117e+006  -1.1885e+005   6.1517e+005    0.0000    0.0132    0.0000    0.0000    0.0103
                1.4825  -1.1036e-004   3.5444e-005   8.4213e-005  -3.1429e+006  -1.3237e+005   5.8949e+005    0.0000    0.0148    0.0000    0.0000    0.0098

               lamina:  7     
              matName:  (blade-shell)
                     s           e11           e22           e12           s11           s22           s12   s11_fcT   s11_fcC   s22_fcT   s22_fcC   s12_fcS
                   (m)         (m/m)         (m/m)         (rad)          (Pa)          (Pa)          (Pa)       (-)       (-)       (-)       (-)       (-)
                0.0000   7.4598e-005  -2.4913e-005   9.8379e-005   2.1187e+006   7.4971e+004   6.8866e+005    0.0147   -0.0000    0.0000   -0.0000    0.0115
                0.2552   4.1917e-005  -1.4332e-005   1.0169e-004   1.1885e+006   3.7047e+004   7.1186e+005    0.0083   -0.0000    0.0000   -0.0000    0.0119
                0.6131  -3.0083e-006   2.5863e-007   1.0216e-004  -8.9983e+004  -1.4376e+004   7.1515e+005    0.0000    0.0004    0.0000    0.0000    0.0119
                0.9858  -4.7073e-005   1.4545e-005   9.7677e-005  -1.3441e+006  -6.5192e+004   6.8374e+005    0.0000    0.0063    0.0000    0.0000    0.0114
                1.3734  -9.1866e-005   2.9125e-005   8.7882e-005  -2.6186e+006  -1.1598e+005   6.1517e+005    0.0000    0.0123    0.0000    0.0000    0.0103
                1.4825  -1.0306e-004   3.2725e-005   8.4213e-005  -2.9373e+006  -1.2931e+005   5.8949e+005    0.0000    0.0138    0.0000    0.0000    0.0098

            panel:  3     
           lam_num    nPlies        tPly      fibAng     matID  matName
               (-)       (-)         (m)       (deg)       (-)  (-)
                 1         1    0.005000      0.0000         2  (blade-shell)
                 2         1    0.024046      0.0000         1  (blade-root)
                 3         1    0.041965      0.0000         6  (TEP-core)
                 4         1    0.024046      0.0000         1  (blade-root)
                 5         1    0.005000      0.0000         2  (blade-shell)

               lamina:  1     
              matName:  (blade-shell)
                     s           e11           e22           e12           s11           s22           s12   s11_fcT   s11_fcC   s22_fcT   s22_fcC   s12_fcS
                   (m)         (m/m)         (m/m)         (rad)          (Pa)          (Pa)          (Pa)       (-)       (-)       (-)       (-)       (-)
                0.0000  -1.3528e-004   5.3939e-005   1.4301e-004  -3.7888e+006  -2.6067e+003   1.0011e+006    0.0000    0.0178    0.0000    0.0000    0.0167
                0.0080  -1.3620e-004   5.4306e-005   1.4287e-004  -3.8145e+006  -2.6254e+003   1.0001e+006    0.0000    0.0179    0.0000    0.0000    0.0167

               lamina:  2     
              matName:  (blade-root)
                     s           e11           e22           e12           s11           s22           s12   s11_fcT   s11_fcC   s22_fcT   s22_fcC   s12_fcS
                   (m)         (m/m)         (m/m)         (rad)          (Pa)          (Pa)          (Pa)       (-)       (-)       (-)       (-)       (-)
                0.0000  -1.3446e-004   5.3612e-005   1.4301e-004  -3.7659e+006  -2.6048e+003   1.0011e+006    0.0000    0.0177    0.0000    0.0000    0.0167
                0.0080  -1.3538e-004   5.3979e-005   1.4287e-004  -3.7916e+006  -2.6235e+003   1.0001e+006    0.0000    0.0178    0.0000    0.0000    0.0167

               lamina:  3     
              matName:  (TEP-core)
                     s           e11           e22           e12           s11           s22           s12   s11_fcT   s11_fcC   s22_fcT   s22_fcC   s12_fcS
                   (m)         (m/m)         (m/m)         (rad)          (Pa)          (Pa)          (Pa)       (-)       (-)       (-)       (-)       (-)
                0.0000  -1.3053e-004   5.2040e-005   1.4301e-004  -3.2832e+004   3.6806e+003   2.8603e+003    0.0000    0.0000    0.0000   -0.0000    0.0000
                0.0080  -1.3145e-004   5.2406e-005   1.4287e-004  -3.3064e+004   3.7065e+003   2.8574e+003    0.0000    0.0000    0.0000   -0.0000    0.0000

               lamina:  4     
              matName:  (blade-root)
                     s           e11           e22           e12           s11           s22           s12   s11_fcT   s11_fcC   s22_fcT   s22_fcC   s12_fcS
                   (m)         (m/m)         (m/m)         (rad)          (Pa)          (Pa)          (Pa)       (-)       (-)       (-)       (-)       (-)
                0.0000  -1.2366e-004   4.9295e-005   1.4301e-004  -3.4636e+006  -2.5803e+003   1.0011e+006    0.0000    0.0163    0.0000    0.0000    0.0167
                0.0080  -1.2458e-004   4.9662e-005   1.4287e-004  -3.4893e+006  -2.5990e+003   1.0001e+006    0.0000    0.0164    0.0000    0.0000    0.0167

               lamina:  5     
              matName:  (blade-shell)
                     s           e11           e22           e12           s11           s22           s12   s11_fcT   s11_fcC   s22_fcT   s22_fcC   s12_fcS
                   (m)         (m/m)         (m/m)         (rad)          (Pa)          (Pa)          (Pa)       (-)       (-)       (-)       (-)       (-)
                0.0000  -1.1973e-004   4.7723e-005   1.4301e-004  -3.3534e+006  -2.5713e+003   1.0011e+006    0.0000    0.0157    0.0000    0.0000    0.0167
                0.0080  -1.2065e-004   4.8089e-005   1.4287e-004  -3.3792e+006  -2.5901e+003   1.0001e+006    0.0000    0.0159    0.0000    0.0000    0.0167

            panel:  4     
           lam_num    nPlies        tPly      fibAng     matID  matName
               (-)       (-)         (m)       (deg)       (-)  (-)
                 1         1    0.005000      0.0000         2  (blade-shell)
                 2         1    0.024046      0.0000         1  (blade-root)
                 3         1    0.041965      0.0000         6  (TEP-core)
                 4         1    0.024046      0.0000         1  (blade-root)
                 5         1    0.005000      0.0000         2  (blade-shell)

               lamina:  1     
              matName:  (blade-shell)
                     s           e11           e22           e12           s11           s22           s12   s11_fcT   s11_fcC   s22_fcT   s22_fcC   s12_fcS
                   (m)         (m/m)         (m/m)         (rad)          (Pa)          (Pa)          (Pa)       (-)       (-)       (-)       (-)       (-)
                0.0000  -1.3620e-004   5.4306e-005   1.4863e-004  -3.8145e+006  -2.6254e+003   1.0404e+006    0.0000    0.0179    0.0000    0.0000    0.0173
                0.2775  -1.6834e-004   6.7119e-005   1.4849e-004  -4.7147e+006  -3.2752e+003   1.0394e+006    0.0000    0.0221    0.0000    0.0000    0.0173
                0.6772  -2.1310e-004   8.4967e-005   1.4849e-004  -5.9686e+006  -4.1814e+003   1.0394e+006    0.0000    0.0280    0.0000    0.0000    0.0173
                1.0724  -2.5642e-004   1.0223e-004   1.4289e-004  -7.1817e+006  -5.0601e+003   1.0002e+006    0.0000    0.0337    0.0000    0.0000    0.0167
                1.4570  -2.9801e-004   1.1882e-004   1.3269e-004  -8.3467e+006  -5.9055e+003   9.2881e+005    0.0000    0.0392    0.0000    0.0000    0.0155
                1.8252  -3.3760e-004   1.3460e-004   1.2017e-004  -9.4554e+006  -6.7115e+003   8.4120e+005    0.0000    0.0444    0.0000    0.0000    0.0140
                2.0617  -3.6310e-004   1.4477e-004   1.0571e-004  -1.0170e+007  -7.2314e+003   7.3997e+005    0.0000    0.0477    0.0000    0.0000    0.0123

               lamina:  2     
              matName:  (blade-root)
                     s           e11           e22           e12           s11           s22           s12   s11_fcT   s11_fcC   s22_fcT   s22_fcC   s12_fcS
                   (m)         (m/m)         (m/m)         (rad)          (Pa)          (Pa)          (Pa)       (-)       (-)       (-)       (-)       (-)
                0.0000  -1.3538e-004   5.3979e-005   1.4863e-004  -3.7916e+006  -2.6235e+003   1.0404e+006    0.0000    0.0178    0.0000    0.0000    0.0173
                0.2775  -1.6749e-004   6.6782e-005   1.4849e-004  -4.6911e+006  -3.2733e+003   1.0394e+006    0.0000    0.0220    0.0000    0.0000    0.0173
                0.6772  -2.1223e-004   8.4617e-005   1.4849e-004  -5.9441e+006  -4.1794e+003   1.0394e+006    0.0000    0.0279    0.0000    0.0000    0.0173
                1.0724  -2.5552e-004   1.0188e-004   1.4289e-004  -7.1567e+006  -5.0580e+003   1.0002e+006    0.0000    0.0336    0.0000    0.0000    0.0167
                1.4570  -2.9711e-004   1.1846e-004   1.3269e-004  -8.3215e+006  -5.9035e+003   9.2881e+005    0.0000    0.0391    0.0000    0.0000    0.0155
                1.8252  -3.3670e-004   1.3424e-004   1.2017e-004  -9.4302e+006  -6.7095e+003   8.4120e+005    0.0000    0.0443    0.0000    0.0000    0.0140
                2.0617  -3.6220e-004   1.4441e-004   1.0571e-004  -1.0145e+007  -7.2294e+003   7.3997e+005    0.0000    0.0476    0.0000    0.0000    0.0123

               lamina:  3     
              matName:  (TEP-core)
                     s           e11           e22           e12           s11           s22           s12   s11_fcT   s11_fcC   s22_fcT   s22_fcC   s12_fcS
                   (m)         (m/m)         (m/m)         (rad)          (Pa)          (Pa)          (Pa)       (-)       (-)       (-)       (-)       (-)
                0.0000  -1.3145e-004   5.2406e-005   1.4863e-004  -3.3064e+004   3.7065e+003   2.9727e+003    0.0000    0.0000    0.0000   -0.0000    0.0000
                0.2775  -1.6343e-004   6.5159e-005   1.4849e-004  -4.1110e+004   4.6083e+003   2.9698e+003    0.0000    0.0000    0.0000   -0.0000    0.0000
                0.6772  -2.0803e-004   8.2937e-005   1.4849e-004  -5.2328e+004   5.8654e+003   2.9698e+003    0.0000    0.0000    0.0000   -0.0000    0.0000
                1.0724  -2.5123e-004   1.0016e-004   1.4289e-004  -6.3196e+004   7.0833e+003   2.8578e+003    0.0000    0.0000    0.0000   -0.0000    0.0000
                1.4570  -2.9278e-004   1.1672e-004   1.3269e-004  -7.3646e+004   8.2545e+003   2.6538e+003    0.0000    0.0000    0.0000   -0.0000    0.0000
                1.8252  -3.3236e-004   1.3250e-004   1.2017e-004  -8.3603e+004   9.3703e+003   2.4034e+003    0.0000    0.0000    0.0000   -0.0000    0.0000
                2.0617  -3.5788e-004   1.4268e-004   1.0571e-004  -9.0023e+004   1.0090e+004   2.1142e+003    0.0000    0.0000    0.0000   -0.0000    0.0000

               lamina:  4     
              matName:  (blade-root)
                     s           e11           e22           e12           s11           s22           s12   s11_fcT   s11_fcC   s22_fcT   s22_fcC   s12_fcS
                   (m)         (m/m)         (m/m)         (rad)          (Pa)          (Pa)          (Pa)       (-)       (-)       (-)       (-)       (-)
                0.0000  -1.2458e-004   4.9662e-005   1.4863e-004  -3.4893e+006  -2.5990e+003   1.0404e+006    0.0000    0.0164    0.0000    0.0000    0.0173
                0.2775  -1.5635e-004   6.2328e-005   1.4849e-004  -4.3792e+006  -3.2479e+003   1.0394e+006    0.0000    0.0206    0.0000    0.0000    0.0173
                0.6772  -2.0070e-004   8.0006e-005   1.4849e-004  -5.6212e+006  -4.1532e+003   1.0394e+006    0.0000    0.0264    0.0000    0.0000    0.0173
                1.0724  -2.4375e-004   9.7168e-005   1.4289e-004  -6.8269e+006  -5.0313e+003   1.0002e+006    0.0000    0.0321    0.0000    0.0000    0.0167
                1.4570  -2.8522e-004   1.1370e-004   1.3269e-004  -7.9885e+006  -5.8764e+003   9.2881e+005    0.0000    0.0375    0.0000    0.0000    0.0155
                1.8252  -3.2480e-004   1.2948e-004   1.2017e-004  -9.0970e+006  -6.6824e+003   8.4120e+005    0.0000    0.0427    0.0000    0.0000    0.0140
                2.0617  -3.5035e-004   1.3967e-004   1.0571e-004  -9.8126e+006  -7.2025e+003   7.3997e+005    0.0000    0.0461    0.0000    0.0000    0.0123

               lamina:  5     
              matName:  (blade-shell)
                     s           e11           e22           e12           s11           s22           s12   s11_fcT   s11_fcC   s22_fcT   s22_fcC   s12_fcS
                   (m)         (m/m)         (m/m)         (rad)          (Pa)          (Pa)          (Pa)       (-)       (-)       (-)       (-)       (-)
                0.0000  -1.2065e-004   4.8089e-005   1.4863e-004  -3.3792e+006  -2.5901e+003   1.0404e+006    0.0000    0.0159    0.0000    0.0000    0.0173
                0.2775  -1.5229e-004   6.0705e-005   1.4849e-004  -4.2655e+006  -3.2387e+003   1.0394e+006    0.0000    0.0200    0.0000    0.0000    0.0173
                0.6772  -1.9650e-004   7.8326e-005   1.4849e-004  -5.5035e+006  -4.1437e+003   1.0394e+006    0.0000    0.0258    0.0000    0.0000    0.0173
                1.0724  -2.3946e-004   9.5453e-005   1.4289e-004  -6.7068e+006  -5.0215e+003   1.0002e+006    0.0000    0.0315    0.0000    0.0000    0.0167
                1.4570  -2.8089e-004   1.1197e-004   1.3269e-004  -7.8672e+006  -5.8666e+003   9.2881e+005    0.0000    0.0369    0.0000    0.0000    0.0155
                1.8252  -3.2046e-004   1.2775e-004   1.2017e-004  -8.9757e+006  -6.6726e+003   8.4120e+005    0.0000    0.0421    0.0000    0.0000    0.0140
                2.0617  -3.4603e-004   1.3794e-004   1.0571e-004  -9.6917e+006  -7.1926e+003   7.3997e+005    0.0000    0.0455    0.0000    0.0000    0.0123

            panel:  5     
           lam_num    nPlies        tPly      fibAng     matID  matName
               (-)       (-)         (m)       (deg)       (-)  (-)
                 1         1    0.005000      0.0000         2  (blade-shell)
                 2         1    0.024046      0.0000         1  (blade-root)
                 3         1    0.041965      0.0000         6  (TEP-core)
                 4         1    0.024046      0.0000         1  (blade-root)
                 5         1    0.005000      0.0000         2  (blade-shell)

               lamina:  1     
              matName:  (blade-shell)
                     s           e11           e22           e12           s11           s22           s12   s11_fcT   s11_fcC   s22_fcT   s22_fcC   s12_fcS
                   (m)         (m/m)         (m/m)         (rad)          (Pa)          (Pa)          (Pa)       (-)       (-)       (-)       (-)       (-)
                0.0000  -3.6310e-004   1.4477e-004   8.9773e-005  -1.0170e+007  -7.2314e+003   6.2841e+005    0.0000    0.0477    0.0000    0.0000    0.0105
                0.1099  -3.7488e-004   1.4946e-004   7.8457e-005  -1.0500e+007  -7.4729e+003   5.4920e+005    0.0000    0.0493    0.0000    0.0000    0.0092
                0.4292  -4.0960e-004   1.6330e-004   8.3322e-005  -1.1472e+007  -8.1819e+003   5.8325e+005    0.0000    0.0539    0.0000    0.0000    0.0097
                0.7179  -4.4138e-004   1.7597e-004   7.7775e-005  -1.2362e+007  -8.8314e+003   5.4443e+005    0.0000    0.0580    0.0000    0.0000    0.0091
                0.9735  -4.6982e-004   1.8731e-004   6.0618e-005  -1.3159e+007  -9.4113e+003   4.2432e+005    0.0000    0.0618    0.0000    0.0000    0.0071
                1.1942  -4.9448e-004   1.9714e-004   4.3747e-005  -1.3849e+007  -9.9114e+003   3.0623e+005    0.0000    0.0650    0.0000    0.0000    0.0051
                1.3784  -5.1498e-004   2.0532e-004   2.7734e-005  -1.4424e+007  -1.0322e+004   1.9413e+005    0.0000    0.0677    0.0000    0.0000    0.0032
                1.5250  -5.3102e-004   2.1171e-004   1.3088e-005  -1.4873e+007  -1.0634e+004   9.1614e+004    0.0000    0.0698    0.0000    0.0000    0.0015
                1.6319  -5.4245e-004   2.1627e-004   2.8490e-007  -1.5193e+007  -1.0837e+004   1.9943e+003    0.0000    0.0713    0.0000    0.0000    0.0000
                1.7042  -5.4840e-004   2.1864e-004   1.0269e-005  -1.5359e+007  -1.0924e+004   7.1882e+004    0.0000    0.0721    0.0000    0.0000    0.0012
                1.7881  -5.4719e-004   2.1816e-004   1.8144e-005  -1.5326e+007  -1.0898e+004   1.2701e+005    0.0000    0.0720    0.0000    0.0000    0.0021

               lamina:  2     
              matName:  (blade-root)
                     s           e11           e22           e12           s11           s22           s12   s11_fcT   s11_fcC   s22_fcT   s22_fcC   s12_fcS
                   (m)         (m/m)         (m/m)         (rad)          (Pa)          (Pa)          (Pa)       (-)       (-)       (-)       (-)       (-)
                0.0000  -3.6220e-004   1.4441e-004   8.9773e-005  -1.0145e+007  -7.2294e+003   6.2841e+005    0.0000    0.0476    0.0000    0.0000    0.0105
                0.1099  -3.7399e-004   1.4910e-004   7.8457e-005  -1.0475e+007  -7.4708e+003   5.4920e+005    0.0000    0.0492    0.0000    0.0000    0.0092
                0.4292  -4.0872e-004   1.6295e-004   8.3322e-005  -1.1447e+007  -8.1799e+003   5.8325e+005    0.0000    0.0537    0.0000    0.0000    0.0097
                0.7179  -4.4052e-004   1.7563e-004   7.7775e-005  -1.2338e+007  -8.8295e+003   5.4443e+005    0.0000    0.0579    0.0000    0.0000    0.0091
                0.9735  -4.6896e-004   1.8696e-004   6.0618e-005  -1.3135e+007  -9.4094e+003   4.2432e+005    0.0000    0.0617    0.0000    0.0000    0.0071
                1.1942  -4.9360e-004   1.9679e-004   4.3747e-005  -1.3825e+007  -9.9094e+003   3.0623e+005    0.0000    0.0649    0.0000    0.0000    0.0051
                1.3784  -5.1407e-004   2.0495e-004   2.7734e-005  -1.4398e+007  -1.0320e+004   1.9413e+005    0.0000    0.0676    0.0000    0.0000    0.0032
                1.5250  -5.3003e-004   2.1131e-004   1.3088e-005  -1.4845e+007  -1.0632e+004   9.1614e+004    0.0000    0.0697    0.0000    0.0000    0.0015
                1.6319  -5.4129e-004   2.1580e-004   2.8490e-007  -1.5160e+007  -1.0834e+004   1.9943e+003    0.0000    0.0712    0.0000    0.0000    0.0000
                1.7042  -5.4705e-004   2.1810e-004   1.0269e-005  -1.5322e+007  -1.0921e+004   7.1882e+004    0.0000    0.0719    0.0000    0.0000    0.0012
                1.7881  -5.4584e-004   2.1762e-004   1.8144e-005  -1.5288e+007  -1.0894e+004   1.2701e+005    0.0000    0.0718    0.0000    0.0000    0.0021

               lamina:  3     
              matName:  (TEP-core)
                     s           e11           e22           e12           s11           s22           s12   s11_fcT   s11_fcC   s22_fcT   s22_fcC   s12_fcS
                   (m)         (m/m)         (m/m)         (rad)          (Pa)          (Pa)          (Pa)       (-)       (-)       (-)       (-)       (-)
                0.0000  -3.5788e-004   1.4268e-004   8.9773e-005  -9.0023e+004   1.0090e+004   1.7955e+003    0.0000    0.0000    0.0000   -0.0000    0.0000
                0.1099  -3.6971e-004   1.4739e-004   7.8457e-005  -9.2998e+004   1.0423e+004   1.5691e+003    0.0000    0.0000    0.0000   -0.0000    0.0000
                0.4292  -4.0450e-004   1.6126e-004   8.3322e-005  -1.0175e+005   1.1404e+004   1.6664e+003    0.0000    0.0000    0.0000   -0.0000    0.0000
                0.7179  -4.3636e-004   1.7396e-004   7.7775e-005  -1.0976e+005   1.2302e+004   1.5555e+003    0.0000    0.0000    0.0000   -0.0000    0.0000
                0.9735  -4.6482e-004   1.8531e-004   6.0618e-005  -1.1692e+005   1.3104e+004   1.2124e+003    0.0000    0.0000    0.0000   -0.0000    0.0000
                1.1942  -4.8941e-004   1.9511e-004   4.3747e-005  -1.2311e+005   1.3797e+004   8.7495e+002    0.0000    0.0000    0.0000   -0.0000    0.0000
                1.3784  -5.0970e-004   2.0320e-004   2.7734e-005  -1.2821e+005   1.4369e+004   5.5467e+002    0.0000    0.0000    0.0000   -0.0000    0.0000
                1.5250  -5.2527e-004   2.0941e-004   1.3088e-005  -1.3213e+005   1.4808e+004   2.6176e+002    0.0000    0.0000    0.0000   -0.0000    0.0000
                1.6319  -5.3573e-004   2.1358e-004   2.8490e-007  -1.3476e+005   1.5103e+004   5.6980e+000    0.0000    0.0000    0.0000   -0.0000    0.0000
                1.7042  -5.4058e-004   2.1552e-004   1.0269e-005  -1.3598e+005   1.5240e+004   2.0538e+002    0.0000    0.0000    0.0000   -0.0000    0.0000
                1.7881  -5.3932e-004   2.1501e-004   1.8144e-005  -1.3566e+005   1.5205e+004   3.6289e+002    0.0000    0.0000    0.0000   -0.0000    0.0000

               lamina:  4     
              matName:  (blade-root)
                     s           e11           e22           e12           s11           s22           s12   s11_fcT   s11_fcC   s22_fcT   s22_fcC   s12_fcS
                   (m)         (m/m)         (m/m)         (rad)          (Pa)          (Pa)          (Pa)       (-)       (-)       (-)       (-)       (-)
                0.0000  -3.5035e-004   1.3967e-004   8.9773e-005  -9.8126e+006  -7.2025e+003   6.2841e+005    0.0000    0.0461    0.0000    0.0000    0.0105
                0.1099  -3.6225e-004   1.4441e-004   7.8457e-005  -1.0146e+007  -7.4442e+003   5.4920e+005    0.0000    0.0476    0.0000    0.0000    0.0092
                0.4292  -3.9713e-004   1.5831e-004   8.3322e-005  -1.1123e+007  -8.1535e+003   5.8325e+005    0.0000    0.0522    0.0000    0.0000    0.0097
                0.7179  -4.2909e-004   1.7106e-004   7.7775e-005  -1.2018e+007  -8.8035e+003   5.4443e+005    0.0000    0.0564    0.0000    0.0000    0.0091
                0.9735  -4.5759e-004   1.8242e-004   6.0618e-005  -1.2816e+007  -9.3835e+003   4.2432e+005    0.0000    0.0602    0.0000    0.0000    0.0071
                1.1942  -4.8209e-004   1.9219e-004   4.3747e-005  -1.3503e+007  -9.8833e+003   3.0623e+005    0.0000    0.0634    0.0000    0.0000    0.0051
                1.3784  -5.0206e-004   2.0015e-004   2.7734e-005  -1.4062e+007  -1.0293e+004   1.9413e+005    0.0000    0.0660    0.0000    0.0000    0.0032
                1.5250  -5.1695e-004   2.0608e-004   1.3088e-005  -1.4479e+007  -1.0602e+004   9.1614e+004    0.0000    0.0680    0.0000    0.0000    0.0015
                1.6319  -5.2603e-004   2.0970e-004   2.8490e-007  -1.4733e+007  -1.0800e+004   1.9943e+003    0.0000    0.0692    0.0000    0.0000    0.0000
                1.7042  -5.2929e-004   2.1100e-004   1.0269e-005  -1.4824e+007  -1.0880e+004   7.1882e+004    0.0000    0.0696    0.0000    0.0000    0.0012
                1.7881  -5.2796e-004   2.1047e-004   1.8144e-005  -1.4787e+007  -1.0854e+004   1.2701e+005    0.0000    0.0694    0.0000    0.0000    0.0021

               lamina:  5     
              matName:  (blade-shell)
                     s           e11           e22           e12           s11           s22           s12   s11_fcT   s11_fcC   s22_fcT   s22_fcC   s12_fcS
                   (m)         (m/m)         (m/m)         (rad)          (Pa)          (Pa)          (Pa)       (-)       (-)       (-)       (-)       (-)
                0.0000  -3.4603e-004   1.3794e-004   8.9773e-005  -9.6917e+006  -7.1926e+003   6.2841e+005    0.0000    0.0455    0.0000    0.0000    0.0105
                0.1099  -3.5798e-004   1.4270e-004   7.8457e-005  -1.0026e+007  -7.4345e+003   5.4920e+005    0.0000    0.0471    0.0000    0.0000    0.0092
                0.4292  -3.9290e-004   1.5663e-004   8.3322e-005  -1.1004e+007  -8.1439e+003   5.8325e+005    0.0000    0.0517    0.0000    0.0000    0.0097
                0.7179  -4.2493e-004   1.6940e-004   7.7775e-005  -1.1902e+007  -8.7941e+003   5.4443e+005    0.0000    0.0559    0.0000    0.0000    0.0091
                0.9735  -4.5346e-004   1.8077e-004   6.0618e-005  -1.2701e+007  -9.3741e+003   4.2432e+005    0.0000    0.0596    0.0000    0.0000    0.0071
                1.1942  -4.7790e-004   1.9051e-004   4.3747e-005  -1.3385e+007  -9.8737e+003   3.0623e+005    0.0000    0.0628    0.0000    0.0000    0.0051
                1.3784  -4.9769e-004   1.9840e-004   2.7734e-005  -1.3939e+007  -1.0283e+004   1.9413e+005    0.0000    0.0654    0.0000    0.0000    0.0032
                1.5250  -5.1218e-004   2.0418e-004   1.3088e-005  -1.4345e+007  -1.0591e+004   9.1614e+004    0.0000    0.0673    0.0000    0.0000    0.0015
                1.6319  -5.2047e-004   2.0748e-004   2.8490e-007  -1.4578e+007  -1.0787e+004   1.9943e+003    0.0000    0.0684    0.0000    0.0000    0.0000
                1.7042  -5.2281e-004   2.0841e-004   1.0269e-005  -1.4643e+007  -1.0866e+004   7.1882e+004    0.0000    0.0687    0.0000    0.0000    0.0012
                1.7881  -5.2144e-004   2.0786e-004   1.8144e-005  -1.4605e+007  -1.0839e+004   1.2701e+005    0.0000    0.0686    0.0000    0.0000    0.0021

     Web:  panel  nNode   nLam     xc_St    xc_End         b         t         E_eff         G_eff      nu_eff     density  buckleCrit
            (-)    (-)    (-)       (-)       (-)       (m)       (m)          (Pa)          (Pa)         (-)    (kg/m^3)         (-)
              1     10      3    0.3093    0.3093    3.4957    0.0830   7.6445e+008   4.5301e+008      0.4420    257.1084      0.0001
              2     10      3    0.5158    0.5158    3.1145    0.0830   7.6445e+008   4.5301e+008      0.4420    257.1084      0.0002
              3     10      3    0.7800    0.7800    1.7174    0.0830   7.6445e+008   4.5301e+008      0.4420    257.1084      0.0001

            panel:  1     
           lam_num    nPlies        tPly      fibAng     matID  matName
               (-)       (-)         (m)       (deg)       (-)  (-)
                 1         1    0.001500      0.0000         7  (web-shell)
                 2         1    0.080000      0.0000         8  (web-core)
                 3         1    0.001500      0.0000         7  (web-shell)

               lamina:  1     
              matName:  (web-shell)
                     s           e11           e22           e12           s11           s22           s12   s11_fcT   s11_fcC   s22_fcT   s22_fcC   s12_fcS
                   (m)         (m/m)         (m/m)         (rad)          (Pa)          (Pa)          (Pa)       (-)       (-)       (-)       (-)       (-)
                0.0000   2.0414e-004  -8.9980e-005   4.4796e-005   2.9709e+006   2.2571e+005   5.3755e+005    0.0206   -0.0000    0.0000   -0.0000    0.0060
                0.3884   1.8779e-004  -8.2750e-005   4.9445e-005   2.7330e+006   2.0801e+005   5.9334e+005    0.0190   -0.0000    0.0000   -0.0000    0.0066
                0.7768   1.7143e-004  -7.5521e-005   5.3720e-005   2.4952e+006   1.9031e+005   6.4464e+005    0.0173   -0.0000    0.0000   -0.0000    0.0072
                1.1652   1.5508e-004  -6.8291e-005   5.7621e-005   2.2574e+006   1.7261e+005   6.9145e+005    0.0157   -0.0000    0.0000   -0.0000    0.0077
                1.5537   1.3872e-004  -6.1061e-005   6.1148e-005   2.0196e+006   1.5492e+005   7.3377e+005    0.0140   -0.0000    0.0000   -0.0000    0.0082
                1.9421   1.2237e-004  -5.3832e-005   6.4301e-005   1.7817e+006   1.3722e+005   7.7161e+005    0.0124   -0.0000    0.0000   -0.0000    0.0086
                2.3305   1.0601e-004  -4.6602e-005   6.7080e-005   1.5439e+006   1.1952e+005   8.0497e+005    0.0107   -0.0000    0.0000   -0.0000    0.0089
                2.7189   8.9654e-005  -3.9373e-005   6.9486e-005   1.3061e+006   1.0182e+005   8.3383e+005    0.0091   -0.0000    0.0000   -0.0000    0.0093
                3.1073   7.3299e-005  -3.2143e-005   7.1517e-005   1.0682e+006   8.4120e+004   8.5821e+005    0.0074   -0.0000    0.0000   -0.0000    0.0095
                3.4957   5.6943e-005  -2.4913e-005   7.3175e-005   8.3042e+005   6.6422e+004   8.7810e+005    0.0058   -0.0000    0.0000   -0.0000    0.0098

               lamina:  2     
              matName:  (web-core)
                     s           e11           e22           e12           s11           s22           s12   s11_fcT   s11_fcC   s22_fcT   s22_fcC   s12_fcS
                   (m)         (m/m)         (m/m)         (rad)          (Pa)          (Pa)          (Pa)       (-)       (-)       (-)       (-)       (-)
                0.0000   2.1893e-004  -9.7031e-005   4.4796e-005   5.4235e+004  -8.9576e+003   8.9592e+002    0.0000   -0.0000    0.0000    0.0000    0.0000
                0.3884   2.0257e-004  -8.9801e-005   4.9445e-005   5.0181e+004  -8.2939e+003   9.8889e+002    0.0000   -0.0000    0.0000    0.0000    0.0000
                0.7768   1.8622e-004  -8.2571e-005   5.3720e-005   4.6128e+004  -7.6302e+003   1.0744e+003    0.0000   -0.0000    0.0000    0.0000    0.0000
                1.1652   1.6986e-004  -7.5342e-005   5.7621e-005   4.2075e+004  -6.9665e+003   1.1524e+003    0.0000   -0.0000    0.0000    0.0000    0.0000
                1.5537   1.5351e-004  -6.8112e-005   6.1148e-005   3.8021e+004  -6.3028e+003   1.2230e+003    0.0000   -0.0000    0.0000    0.0000    0.0000
                1.9421   1.3715e-004  -6.0883e-005   6.4301e-005   3.3968e+004  -5.6391e+003   1.2860e+003    0.0000   -0.0000    0.0000    0.0000    0.0000
                2.3305   1.2080e-004  -5.3653e-005   6.7080e-005   2.9915e+004  -4.9754e+003   1.3416e+003    0.0000   -0.0000    0.0000    0.0000    0.0000
                2.7189   1.0444e-004  -4.6423e-005   6.9486e-005   2.5861e+004  -4.3117e+003   1.3897e+003    0.0000   -0.0000    0.0000    0.0000    0.0000
                3.1073   8.8086e-005  -3.9194e-005   7.1517e-005   2.1808e+004  -3.6480e+003   1.4303e+003    0.0000   -0.0000    0.0000    0.0000    0.0000
                3.4957   7.1730e-005  -3.1964e-005   7.3175e-005   1.7755e+004  -2.9843e+003   1.4635e+003    0.0000   -0.0000    0.0000    0.0000    0.0000

               lamina:  3     
              matName:  (web-shell)
                     s           e11           e22           e12           s11           s22           s12   s11_fcT   s11_fcC   s22_fcT   s22_fcC   s12_fcS
                   (m)         (m/m)         (m/m)         (rad)          (Pa)          (Pa)          (Pa)       (-)       (-)       (-)       (-)       (-)
                0.0000   2.1921e-004  -9.7163e-005   4.4796e-005   3.1850e+006   2.3223e+005   5.3755e+005    0.0221   -0.0000    0.0000   -0.0000    0.0060
                0.3884   2.0285e-004  -8.9933e-005   4.9445e-005   2.9472e+006   2.1453e+005   5.9334e+005    0.0205   -0.0000    0.0000   -0.0000    0.0066
                0.7768   1.8650e-004  -8.2704e-005   5.3720e-005   2.7094e+006   1.9683e+005   6.4464e+005    0.0188   -0.0000    0.0000   -0.0000    0.0072
                1.1652   1.7014e-004  -7.5474e-005   5.7621e-005   2.4715e+006   1.7913e+005   6.9145e+005    0.0172   -0.0000    0.0000   -0.0000    0.0077
                1.5537   1.5379e-004  -6.8244e-005   6.1148e-005   2.2337e+006   1.6143e+005   7.3377e+005    0.0155   -0.0000    0.0000   -0.0000    0.0082
                1.9421   1.3743e-004  -6.1015e-005   6.4301e-005   1.9959e+006   1.4373e+005   7.7161e+005    0.0139   -0.0000    0.0000   -0.0000    0.0086
                2.3305   1.2107e-004  -5.3785e-005   6.7080e-005   1.7581e+006   1.2604e+005   8.0497e+005    0.0122   -0.0000    0.0000   -0.0000    0.0089
                2.7189   1.0472e-004  -4.6555e-005   6.9486e-005   1.5202e+006   1.0834e+005   8.3383e+005    0.0106   -0.0000    0.0000   -0.0000    0.0093
                3.1073   8.8363e-005  -3.9326e-005   7.1517e-005   1.2824e+006   9.0638e+004   8.5821e+005    0.0089   -0.0000    0.0000   -0.0000    0.0095
                3.4957   7.2007e-005  -3.2096e-005   7.3175e-005   1.0446e+006   7.2939e+004   8.7810e+005    0.0073   -0.0000    0.0000   -0.0000    0.0098

            panel:  2     
           lam_num    nPlies        tPly      fibAng     matID  matName
               (-)       (-)         (m)       (deg)       (-)  (-)
                 1         1    0.001500      0.0000         7  (web-shell)
                 2         1    0.080000      0.0000         8  (web-core)
                 3         1    0.001500      0.0000         7  (web-shell)

               lamina:  1     
              matName:  (web-shell)
                     s           e11           e22           e12           s11           s22           s12   s11_fcT   s11_fcC   s22_fcT   s22_fcC   s12_fcS
                   (m)         (m/m)         (m/m)         (rad)          (Pa)          (Pa)          (Pa)       (-)       (-)       (-)       (-)       (-)
                0.0000  -1.5893e-006   9.6965e-007   7.3242e-005  -2.0616e+004   3.3871e+003   8.7890e+005    0.0000    0.0001    0.0000   -0.0000    0.0098
                0.3461  -1.6009e-005   7.3436e-006   7.3219e-005  -2.3029e+005  -1.2337e+004   8.7862e+005    0.0000    0.0011    0.0000    0.0000    0.0098
                0.6921  -3.0429e-005   1.3718e-005   7.2902e-005  -4.3997e+005  -2.7941e+004   8.7482e+005    0.0000    0.0021    0.0000    0.0000    0.0097
                1.0382  -4.4848e-005   2.0091e-005   7.2292e-005  -6.4965e+005  -4.3545e+004   8.6750e+005    0.0000    0.0031    0.0000    0.0000    0.0096
                1.3842  -5.9268e-005   2.6465e-005   7.1388e-005  -8.5933e+005  -5.9149e+004   8.5665e+005    0.0000    0.0040    0.0000    0.0000    0.0095
                1.7303  -7.3688e-005   3.2839e-005   7.0190e-005  -1.0690e+006  -7.4753e+004   8.4228e+005    0.0000    0.0050    0.0000    0.0000    0.0094
                2.0763  -8.8108e-005   3.9213e-005   6.8698e-005  -1.2787e+006  -9.0357e+004   8.2438e+005    0.0000    0.0060    0.0000    0.0000    0.0092
                2.4224  -1.0253e-004   4.5587e-005   6.6913e-005  -1.4884e+006  -1.0596e+005   8.0296e+005    0.0000    0.0070    0.0000    0.0000    0.0089
                2.7684  -1.1695e-004   5.1961e-005   6.4834e-005  -1.6980e+006  -1.2156e+005   7.7801e+005    0.0000    0.0080    0.0000    0.0000    0.0086
                3.1145  -1.3137e-004   5.8335e-005   6.2462e-005  -1.9077e+006  -1.3717e+005   7.4954e+005    0.0000    0.0090    0.0000    0.0000    0.0083

               lamina:  2     
              matName:  (web-core)
                     s           e11           e22           e12           s11           s22           s12   s11_fcT   s11_fcC   s22_fcT   s22_fcC   s12_fcS
                   (m)         (m/m)         (m/m)         (rad)          (Pa)          (Pa)          (Pa)       (-)       (-)       (-)       (-)       (-)
                0.0000   1.3489e-005  -6.2202e-006   7.3242e-005   3.3210e+003  -6.2097e+002   1.4648e+003    0.0000   -0.0000    0.0000    0.0000    0.0000
                0.3461  -1.5731e-005   7.2113e-006   7.3219e-005  -3.8766e+003   7.1195e+002   1.4644e+003    0.0000    0.0000    0.0000   -0.0000    0.0000
                0.6921  -3.0151e-005   1.3585e-005   7.2902e-005  -7.4502e+003   1.2971e+003   1.4580e+003    0.0000    0.0000    0.0000   -0.0000    0.0000
                1.0382  -4.4571e-005   1.9959e-005   7.2292e-005  -1.1024e+004   1.8822e+003   1.4458e+003    0.0000    0.0000    0.0000   -0.0000    0.0000
                1.3842  -5.8991e-005   2.6333e-005   7.1388e-005  -1.4597e+004   2.4674e+003   1.4278e+003    0.0000    0.0000    0.0000   -0.0000    0.0000
                1.7303  -7.3410e-005   3.2707e-005   7.0190e-005  -1.8171e+004   3.0525e+003   1.4038e+003    0.0000    0.0000    0.0000   -0.0000    0.0000
                2.0763  -8.7830e-005   3.9081e-005   6.8698e-005  -2.1745e+004   3.6377e+003   1.3740e+003    0.0000    0.0000    0.0000   -0.0000    0.0000
                2.4224  -1.0225e-004   4.5455e-005   6.6913e-005  -2.5318e+004   4.2228e+003   1.3383e+003    0.0000    0.0000    0.0000   -0.0000    0.0000
                2.7684  -1.1667e-004   5.1829e-005   6.4834e-005  -2.8892e+004   4.8080e+003   1.2967e+003    0.0000    0.0000    0.0000   -0.0000    0.0000
                3.1145  -1.3109e-004   5.8203e-005   6.2462e-005  -3.2465e+004   5.3931e+003   1.2492e+003    0.0000    0.0000    0.0000   -0.0000    0.0000

               lamina:  3     
              matName:  (web-shell)
                     s           e11           e22           e12           s11           s22           s12   s11_fcT   s11_fcC   s22_fcT   s22_fcC   s12_fcS
                   (m)         (m/m)         (m/m)         (rad)          (Pa)          (Pa)          (Pa)       (-)       (-)       (-)       (-)       (-)
                0.0000   1.3767e-005  -6.3526e-006   7.3242e-005   1.9769e+005   9.9108e+003   8.7890e+005    0.0014   -0.0000    0.0000   -0.0000    0.0098
                0.3461  -9.3025e-007   1.5370e-007   7.3219e-005  -1.5930e+004  -5.8132e+003   8.7862e+005    0.0000    0.0001    0.0000    0.0000    0.0098
                0.6921  -1.5350e-005   6.5276e-006   7.2902e-005  -2.2561e+005  -2.1417e+004   8.7482e+005    0.0000    0.0011    0.0000    0.0000    0.0097
                1.0382  -2.9770e-005   1.2902e-005   7.2292e-005  -4.3529e+005  -3.7021e+004   8.6750e+005    0.0000    0.0020    0.0000    0.0000    0.0096
                1.3842  -4.4189e-005   1.9276e-005   7.1388e-005  -6.4496e+005  -5.2625e+004   8.5665e+005    0.0000    0.0030    0.0000    0.0000    0.0095
                1.7303  -5.8609e-005   2.5649e-005   7.0190e-005  -8.5464e+005  -6.8229e+004   8.4228e+005    0.0000    0.0040    0.0000    0.0000    0.0094
                2.0763  -7.3029e-005   3.2023e-005   6.8698e-005  -1.0643e+006  -8.3833e+004   8.2438e+005    0.0000    0.0050    0.0000    0.0000    0.0092
                2.4224  -8.7449e-005   3.8397e-005   6.6913e-005  -1.2740e+006  -9.9437e+004   8.0296e+005    0.0000    0.0060    0.0000    0.0000    0.0089
                2.7684  -1.0187e-004   4.4771e-005   6.4834e-005  -1.4837e+006  -1.1504e+005   7.7801e+005    0.0000    0.0070    0.0000    0.0000    0.0086
                3.1145  -1.1629e-004   5.1145e-005   6.2462e-005  -1.6934e+006  -1.3064e+005   7.4954e+005    0.0000    0.0080    0.0000    0.0000    0.0083

            panel:  3     
           lam_num    nPlies        tPly      fibAng     matID  matName
               (-)       (-)         (m)       (deg)       (-)  (-)
                 1         1    0.001500      0.0000         7  (web-shell)
                 2         1    0.080000      0.0000         8  (web-core)
                 3         1    0.001500      0.0000         7  (web-shell)

               lamina:  1     
              matName:  (web-shell)
                     s           e11           e22           e12           s11           s22           s12   s11_fcT   s11_fcC   s22_fcT   s22_fcC   s12_fcS
                   (m)         (m/m)         (m/m)         (rad)          (Pa)          (Pa)          (Pa)       (-)       (-)       (-)       (-)       (-)
                0.0000  -2.8495e-004   1.2623e-004   8.4387e-005  -4.1411e+006  -3.0337e+005   1.0126e+006    0.0000    0.0194    0.0000    0.0000    0.0113
                0.1908  -2.9296e-004   1.2977e-004   8.1227e-005  -4.2575e+006  -3.1204e+005   9.7473e+005    0.0000    0.0200    0.0000    0.0000    0.0108
                0.3816  -3.0097e-004   1.3331e-004   7.7978e-005  -4.3740e+006  -3.2071e+005   9.3574e+005    0.0000    0.0205    0.0000    0.0000    0.0104
                0.5725  -3.0898e-004   1.3685e-004   7.4639e-005  -4.4904e+006  -3.2937e+005   8.9567e+005    0.0000    0.0211    0.0000    0.0000    0.0100
                0.7633  -3.1699e-004   1.4039e-004   7.1210e-005  -4.6069e+006  -3.3804e+005   8.5452e+005    0.0000    0.0216    0.0000    0.0000    0.0095
                0.9541  -3.2500e-004   1.4393e-004   6.7691e-005  -4.7234e+006  -3.4671e+005   8.1229e+005    0.0000    0.0222    0.0000    0.0000    0.0090
                1.1449  -3.3301e-004   1.4747e-004   6.4082e-005  -4.8398e+006  -3.5538e+005   7.6899e+005    0.0000    0.0227    0.0000    0.0000    0.0085
                1.3357  -3.4102e-004   1.5101e-004   6.0383e-005  -4.9563e+006  -3.6404e+005   7.2460e+005    0.0000    0.0233    0.0000    0.0000    0.0081
                1.5265  -3.4903e-004   1.5455e-004   5.6595e-005  -5.0728e+006  -3.7271e+005   6.7913e+005    0.0000    0.0238    0.0000    0.0000    0.0075
                1.7174  -3.5704e-004   1.5809e-004   5.2716e-005  -5.1892e+006  -3.8138e+005   6.3259e+005    0.0000    0.0244    0.0000    0.0000    0.0070

               lamina:  2     
              matName:  (web-core)
                     s           e11           e22           e12           s11           s22           s12   s11_fcT   s11_fcC   s22_fcT   s22_fcC   s12_fcS
                   (m)         (m/m)         (m/m)         (rad)          (Pa)          (Pa)          (Pa)       (-)       (-)       (-)       (-)       (-)
                0.0000  -2.8468e-004   1.2609e-004   8.4387e-005  -7.0528e+004   1.1626e+004   1.6877e+003    0.0000    0.0000    0.0000   -0.0000    0.0000
                0.1908  -2.9269e-004   1.2963e-004   8.1227e-005  -7.2513e+004   1.1951e+004   1.6245e+003    0.0000    0.0000    0.0000   -0.0000    0.0000
                0.3816  -3.0070e-004   1.3317e-004   7.7978e-005  -7.4498e+004   1.2276e+004   1.5596e+003    0.0000    0.0000    0.0000   -0.0000    0.0000
                0.5725  -3.0871e-004   1.3671e-004   7.4639e-005  -7.6483e+004   1.2601e+004   1.4928e+003    0.0000    0.0000    0.0000   -0.0000    0.0000
                0.7633  -3.1671e-004   1.4025e-004   7.1210e-005  -7.8468e+004   1.2926e+004   1.4242e+003    0.0000    0.0000    0.0000   -0.0000    0.0000
                0.9541  -3.2472e-004   1.4379e-004   6.7691e-005  -8.0453e+004   1.3251e+004   1.3538e+003    0.0000    0.0000    0.0000   -0.0000    0.0000
                1.1449  -3.3273e-004   1.4734e-004   6.4082e-005  -8.2438e+004   1.3576e+004   1.2816e+003    0.0000    0.0000    0.0000   -0.0000    0.0000
                1.3357  -3.4074e-004   1.5088e-004   6.0383e-005  -8.4423e+004   1.3901e+004   1.2077e+003    0.0000    0.0000    0.0000   -0.0000    0.0000
                1.5265  -3.4875e-004   1.5442e-004   5.6595e-005  -8.6408e+004   1.4226e+004   1.1319e+003    0.0000    0.0000    0.0000   -0.0000    0.0000
                1.7174  -3.5676e-004   1.5796e-004   5.2716e-005  -8.8393e+004   1.4551e+004   1.0543e+003    0.0000    0.0000    0.0000   -0.0000    0.0000

               lamina:  3     
              matName:  (web-shell)
                     s           e11           e22           e12           s11           s22           s12   s11_fcT   s11_fcC   s22_fcT   s22_fcC   s12_fcS
                   (m)         (m/m)         (m/m)         (rad)          (Pa)          (Pa)          (Pa)       (-)       (-)       (-)       (-)       (-)
                0.0000  -2.6989e-004   1.1904e-004   8.4387e-005  -3.9268e+006  -2.9685e+005   1.0126e+006    0.0000    0.0184    0.0000    0.0000    0.0113
                0.1908  -2.7790e-004   1.2258e-004   8.1227e-005  -4.0433e+006  -3.0552e+005   9.7473e+005    0.0000    0.0190    0.0000    0.0000    0.0108
                0.3816  -2.8590e-004   1.2612e-004   7.7978e-005  -4.1598e+006  -3.1419e+005   9.3574e+005    0.0000    0.0195    0.0000    0.0000    0.0104
                0.5725  -2.9391e-004   1.2966e-004   7.4639e-005  -4.2762e+006  -3.2286e+005   8.9567e+005    0.0000    0.0201    0.0000    0.0000    0.0100
                0.7633  -3.0192e-004   1.3320e-004   7.1210e-005  -4.3927e+006  -3.3152e+005   8.5452e+005    0.0000    0.0206    0.0000    0.0000    0.0095
                0.9541  -3.0993e-004   1.3674e-004   6.7691e-005  -4.5092e+006  -3.4019e+005   8.1229e+005    0.0000    0.0212    0.0000    0.0000    0.0090
                1.1449  -3.1794e-004   1.4028e-004   6.4082e-005  -4.6256e+006  -3.4886e+005   7.6899e+005    0.0000    0.0217    0.0000    0.0000    0.0085
                1.3357  -3.2595e-004   1.4382e-004   6.0383e-005  -4.7421e+006  -3.5752e+005   7.2460e+005    0.0000    0.0223    0.0000    0.0000    0.0081
                1.5265  -3.3396e-004   1.4736e-004   5.6595e-005  -4.8585e+006  -3.6619e+005   6.7913e+005    0.0000    0.0228    0.0000    0.0000    0.0075
                1.7174  -3.4197e-004   1.5090e-004   5.2716e-005  -4.9750e+006  -3.7486e+005   6.3259e+005    0.0000    0.0234    0.0000    0.0000    0.0070

================================================================================
sec        =  11     
zSec       =  16.2000  (m)
nPanelsTop =  5      
nPanelsBot =  5      
nWebs      =  3      

    Top:  panel  nNode   nLam     xc_St    xc_End         b         t         E_eff         G_eff      nu_eff     density  buckleCrit
            (-)    (-)    (-)       (-)       (-)       (m)       (m)          (Pa)          (Pa)         (-)    (kg/m^3)         (-)
              1     13      5    0.0000    0.3004    2.9881    0.0891   1.2880e+010   3.1952e+009      0.3978    950.5842      0.0001
              2      5      7    0.3004    0.4996    1.4691    0.1506   3.8275e+010   4.0763e+009      0.3137   1901.1448      0.0000
              3      3      5    0.4996    0.5006    0.0055    0.0891   1.2880e+010   3.1952e+009      0.3978    950.5842      0.0000
              4      7      5    0.5006    0.7519    1.9348    0.0891   1.2880e+010   3.1952e+009      0.3978    950.5842      0.0203
              5     11      5    0.7519    1.0000    2.0738    0.0891   1.2880e+010   3.1952e+009      0.3978    950.5842      0.0333

            panel:  1     
           lam_num    nPlies        tPly      fibAng     matID  matName
               (-)       (-)         (m)       (deg)       (-)  (-)
                 1         1    0.005000      0.0000         2  (blade-shell)
                 2         1    0.015260      0.0000         1  (blade-root)
                 3         1    0.048555      0.0000         5  (LEP-core)
                 4         1    0.015260      0.0000         1  (blade-root)
                 5         1    0.005000      0.0000         2  (blade-shell)

               lamina:  1     
              matName:  (blade-shell)
                     s           e11           e22           e12           s11           s22           s12   s11_fcT   s11_fcC   s22_fcT   s22_fcC   s12_fcS
                   (m)         (m/m)         (m/m)         (rad)          (Pa)          (Pa)          (Pa)       (-)       (-)       (-)       (-)       (-)
                0.0000   5.6936e-004  -2.2652e-004   5.4519e-005   1.5950e+007   1.8700e+004   3.8163e+005    0.1108   -0.0000    0.0000   -0.0000    0.0064
                0.2013   5.7635e-004  -2.2930e-004   3.8705e-005   1.6145e+007   1.8930e+004   2.7094e+005    0.1121   -0.0000    0.0000   -0.0000    0.0045
                0.4315   5.7761e-004  -2.2980e-004   2.0494e-005   1.6181e+007   1.8971e+004   1.4346e+005    0.1124   -0.0000    0.0000   -0.0000    0.0024
                0.6596   5.7103e-004  -2.2718e-004   2.5310e-006   1.5996e+007   1.8760e+004   1.7717e+004    0.1111   -0.0000    0.0000   -0.0000    0.0003
                0.8942   5.5684e-004  -2.2153e-004   1.5626e-005   1.5599e+007   1.8303e+004   1.0938e+005    0.1083   -0.0000    0.0000   -0.0000    0.0018
                1.1460   5.3570e-004  -2.1312e-004   3.4506e-005   1.5007e+007   1.7619e+004   2.4154e+005    0.1042   -0.0000    0.0000   -0.0000    0.0040
                1.4096   5.0734e-004  -2.0184e-004   5.3399e-005   1.4212e+007   1.6699e+004   3.7379e+005    0.0987   -0.0000    0.0000   -0.0000    0.0062
                1.6885   4.7218e-004  -1.8785e-004   7.2183e-005   1.3227e+007   1.5552e+004   5.0528e+005    0.0919   -0.0000    0.0000   -0.0000    0.0084
                1.9837   4.3060e-004  -1.7131e-004   9.0528e-005   1.2062e+007   1.4194e+004   6.3370e+005    0.0838   -0.0000    0.0000   -0.0000    0.0106
                2.2936   3.8272e-004  -1.5226e-004   1.0789e-004   1.0721e+007   1.2627e+004   7.5523e+005    0.0745   -0.0000    0.0000   -0.0000    0.0126
                2.6199   3.2923e-004  -1.3098e-004   1.2391e-004   9.2227e+006   1.0869e+004   8.6735e+005    0.0640   -0.0000    0.0000   -0.0000    0.0145
                2.9638   2.7081e-004  -1.0774e-004   1.3814e-004   7.5863e+006   8.9325e+003   9.6695e+005    0.0527   -0.0000    0.0000   -0.0000    0.0161
                2.9881   2.6557e-004  -1.0565e-004   1.3904e-004   7.4394e+006   8.7856e+003   9.7326e+005    0.0517   -0.0000    0.0000   -0.0000    0.0162

               lamina:  2     
              matName:  (blade-root)
                     s           e11           e22           e12           s11           s22           s12   s11_fcT   s11_fcC   s22_fcT   s22_fcC   s12_fcS
                   (m)         (m/m)         (m/m)         (rad)          (Pa)          (Pa)          (Pa)       (-)       (-)       (-)       (-)       (-)
                0.0000   5.6790e-004  -2.2593e-004   5.4519e-005   1.5909e+007   1.8692e+004   3.8163e+005    0.1105   -0.0000    0.0000   -0.0000    0.0064
                0.2013   5.7487e-004  -2.2871e-004   3.8705e-005   1.6104e+007   1.8922e+004   2.7094e+005    0.1118   -0.0000    0.0000   -0.0000    0.0045
                0.4315   5.7613e-004  -2.2920e-004   2.0494e-005   1.6139e+007   1.8963e+004   1.4346e+005    0.1121   -0.0000    0.0000   -0.0000    0.0024
                0.6596   5.6958e-004  -2.2660e-004   2.5310e-006   1.5956e+007   1.8752e+004   1.7717e+004    0.1108   -0.0000    0.0000   -0.0000    0.0003
                0.8942   5.5547e-004  -2.2098e-004   1.5626e-005   1.5560e+007   1.8296e+004   1.0938e+005    0.1081   -0.0000    0.0000   -0.0000    0.0018
                1.1460   5.3442e-004  -2.1261e-004   3.4506e-005   1.4971e+007   1.7612e+004   2.4154e+005    0.1040   -0.0000    0.0000   -0.0000    0.0040
                1.4096   5.0619e-004  -2.0138e-004   5.3399e-005   1.4180e+007   1.6693e+004   3.7379e+005    0.0985   -0.0000    0.0000   -0.0000    0.0062
                1.6885   4.7114e-004  -1.8744e-004   7.2183e-005   1.3198e+007   1.5547e+004   5.0528e+005    0.0917   -0.0000    0.0000   -0.0000    0.0084
                1.9837   4.2970e-004  -1.7095e-004   9.0528e-005   1.2037e+007   1.4189e+004   6.3370e+005    0.0836   -0.0000    0.0000   -0.0000    0.0106
                2.2936   3.8197e-004  -1.5196e-004   1.0789e-004   1.0700e+007   1.2622e+004   7.5523e+005    0.0743   -0.0000    0.0000   -0.0000    0.0126
                2.6199   3.2861e-004  -1.3073e-004   1.2391e-004   9.2054e+006   1.0866e+004   8.6735e+005    0.0639   -0.0000    0.0000   -0.0000    0.0145
                2.9638   2.7027e-004  -1.0752e-004   1.3814e-004   7.5711e+006   8.9295e+003   9.6695e+005    0.0526   -0.0000    0.0000   -0.0000    0.0161
                2.9881   2.6514e-004  -1.0548e-004   1.3904e-004   7.4274e+006   8.7832e+003   9.7326e+005    0.0516   -0.0000    0.0000   -0.0000    0.0162

               lamina:  3     
              matName:  (LEP-core)
                     s           e11           e22           e12           s11           s22           s12   s11_fcT   s11_fcC   s22_fcT   s22_fcC   s12_fcS
                   (m)         (m/m)         (m/m)         (rad)          (Pa)          (Pa)          (Pa)       (-)       (-)       (-)       (-)       (-)
                0.0000   5.6344e-004  -2.2415e-004   5.4519e-005   1.4177e+005  -1.5748e+004   1.0904e+003    0.0000   -0.0000    0.0000    0.0000    0.0000
                0.2013   5.7036e-004  -2.2690e-004   3.8705e-005   1.4351e+005  -1.5941e+004   7.7411e+002    0.0000   -0.0000    0.0000    0.0000    0.0000
                0.4315   5.7160e-004  -2.2740e-004   2.0494e-005   1.4382e+005  -1.5976e+004   4.0989e+002    0.0000   -0.0000    0.0000    0.0000    0.0000
                0.6596   5.6518e-004  -2.2484e-004   2.5310e-006   1.4221e+005  -1.5796e+004   5.0619e+001    0.0000   -0.0000    0.0000    0.0000    0.0000
                0.8942   5.5128e-004  -2.1931e-004   1.5626e-005   1.3871e+005  -1.5408e+004   3.1251e+002    0.0000   -0.0000    0.0000    0.0000    0.0000
                1.1460   5.3053e-004  -2.1106e-004   3.4506e-005   1.3349e+005  -1.4828e+004   6.9012e+002    0.0000   -0.0000    0.0000    0.0000    0.0000
                1.4096   5.0265e-004  -1.9997e-004   5.3399e-005   1.2648e+005  -1.4048e+004   1.0680e+003    0.0000   -0.0000    0.0000    0.0000    0.0000
                1.6885   4.6799e-004  -1.8618e-004   7.2183e-005   1.1775e+005  -1.3080e+004   1.4437e+003    0.0000   -0.0000    0.0000    0.0000    0.0000
                1.9837   4.2696e-004  -1.6985e-004   9.0528e-005   1.0743e+005  -1.1933e+004   1.8106e+003    0.0000   -0.0000    0.0000    0.0000    0.0000
                2.2936   3.7966e-004  -1.5104e-004   1.0789e-004   9.5528e+004  -1.0611e+004   2.1578e+003    0.0000   -0.0000    0.0000    0.0000    0.0000
                2.6199   3.2672e-004  -1.2997e-004   1.2391e-004   8.2207e+004  -9.1310e+003   2.4781e+003    0.0000   -0.0000    0.0000    0.0000    0.0000
                2.9638   2.6861e-004  -1.0686e-004   1.3814e-004   6.7587e+004  -7.5071e+003   2.7627e+003    0.0000   -0.0000    0.0000    0.0000    0.0000
                2.9881   2.6384e-004  -1.0496e-004   1.3904e-004   6.6385e+004  -7.3734e+003   2.7807e+003    0.0000   -0.0000    0.0000    0.0000    0.0000

               lamina:  4     
              matName:  (blade-root)
                     s           e11           e22           e12           s11           s22           s12   s11_fcT   s11_fcC   s22_fcT   s22_fcC   s12_fcS
                   (m)         (m/m)         (m/m)         (rad)          (Pa)          (Pa)          (Pa)       (-)       (-)       (-)       (-)       (-)
                0.0000   5.4927e-004  -2.1849e-004   5.4519e-005   1.5387e+007   1.8590e+004   3.8163e+005    0.1069   -0.0000    0.0000   -0.0000    0.0064
                0.2013   5.5601e-004  -2.2117e-004   3.8705e-005   1.5576e+007   1.8818e+004   2.7094e+005    0.1082   -0.0000    0.0000   -0.0000    0.0045
                0.4315   5.5720e-004  -2.2164e-004   2.0494e-005   1.5609e+007   1.8858e+004   1.4346e+005    0.1084   -0.0000    0.0000   -0.0000    0.0024
                0.6596   5.5116e-004  -2.1924e-004   2.5310e-006   1.5440e+007   1.8651e+004   1.7717e+004    0.1072   -0.0000    0.0000   -0.0000    0.0003
                0.8942   5.3797e-004  -2.1399e-004   1.5626e-005   1.5070e+007   1.8199e+004   1.0938e+005    0.1047   -0.0000    0.0000   -0.0000    0.0018
                1.1460   5.1813e-004  -2.0610e-004   3.4506e-005   1.4515e+007   1.7522e+004   2.4154e+005    0.1008   -0.0000    0.0000   -0.0000    0.0040
                1.4096   4.9141e-004  -1.9547e-004   5.3399e-005   1.3766e+007   1.6611e+004   3.7379e+005    0.0956   -0.0000    0.0000   -0.0000    0.0062
                1.6885   4.5795e-004  -1.8216e-004   7.2183e-005   1.2829e+007   1.5474e+004   5.0528e+005    0.0891   -0.0000    0.0000   -0.0000    0.0084
                1.9837   4.1824e-004  -1.6637e-004   9.0528e-005   1.1716e+007   1.4126e+004   6.3370e+005    0.0814   -0.0000    0.0000   -0.0000    0.0106
                2.2936   3.7232e-004  -1.4810e-004   1.0789e-004   1.0430e+007   1.2569e+004   7.5523e+005    0.0724   -0.0000    0.0000   -0.0000    0.0126
                2.6199   3.2071e-004  -1.2757e-004   1.2391e-004   8.9841e+006   1.0822e+004   8.6735e+005    0.0624   -0.0000    0.0000   -0.0000    0.0145
                2.9638   2.6334e-004  -1.0475e-004   1.3814e-004   7.3772e+006   8.8914e+003   9.6695e+005    0.0512   -0.0000    0.0000   -0.0000    0.0161
                2.9881   2.5968e-004  -1.0330e-004   1.3904e-004   7.2746e+006   8.7532e+003   9.7326e+005    0.0505   -0.0000    0.0000   -0.0000    0.0162

               lamina:  5     
              matName:  (blade-shell)
                     s           e11           e22           e12           s11           s22           s12   s11_fcT   s11_fcC   s22_fcT   s22_fcC   s12_fcS
                   (m)         (m/m)         (m/m)         (rad)          (Pa)          (Pa)          (Pa)       (-)       (-)       (-)       (-)       (-)
                0.0000   5.4481e-004  -2.1671e-004   5.4519e-005   1.5262e+007   1.8565e+004   3.8163e+005    0.1060   -0.0000    0.0000   -0.0000    0.0064
                0.2013   5.5150e-004  -2.1936e-004   3.8705e-005   1.5449e+007   1.8793e+004   2.7094e+005    0.1073   -0.0000    0.0000   -0.0000    0.0045
                0.4315   5.5267e-004  -2.1983e-004   2.0494e-005   1.5482e+007   1.8833e+004   1.4346e+005    0.1075   -0.0000    0.0000   -0.0000    0.0024
                0.6596   5.4675e-004  -2.1748e-004   2.5310e-006   1.5317e+007   1.8627e+004   1.7717e+004    0.1064   -0.0000    0.0000   -0.0000    0.0003
                0.8942   5.3378e-004  -2.1232e-004   1.5626e-005   1.4953e+007   1.8176e+004   1.0938e+005    0.1038   -0.0000    0.0000   -0.0000    0.0018
                1.1460   5.1424e-004  -2.0455e-004   3.4506e-005   1.4406e+007   1.7501e+004   2.4154e+005    0.1000   -0.0000    0.0000   -0.0000    0.0040
                1.4096   4.8788e-004  -1.9406e-004   5.3399e-005   1.3667e+007   1.6592e+004   3.7379e+005    0.0949   -0.0000    0.0000   -0.0000    0.0062
                1.6885   4.5479e-004  -1.8090e-004   7.2183e-005   1.2740e+007   1.5457e+004   5.0528e+005    0.0885   -0.0000    0.0000   -0.0000    0.0084
                1.9837   4.1550e-004  -1.6527e-004   9.0528e-005   1.1640e+007   1.4111e+004   6.3370e+005    0.0808   -0.0000    0.0000   -0.0000    0.0106
                2.2936   3.7002e-004  -1.4718e-004   1.0789e-004   1.0365e+007   1.2557e+004   7.5523e+005    0.0720   -0.0000    0.0000   -0.0000    0.0126
                2.6199   3.1882e-004  -1.2682e-004   1.2391e-004   8.9312e+006   1.0812e+004   8.6735e+005    0.0620   -0.0000    0.0000   -0.0000    0.0145
                2.9638   2.6169e-004  -1.0409e-004   1.3814e-004   7.3308e+006   8.8823e+003   9.6695e+005    0.0509   -0.0000    0.0000   -0.0000    0.0161
                2.9881   2.5838e-004  -1.0278e-004   1.3904e-004   7.2381e+006   8.7460e+003   9.7326e+005    0.0503   -0.0000    0.0000   -0.0000    0.0162

            panel:  2     
           lam_num    nPlies        tPly      fibAng     matID  matName
               (-)       (-)         (m)       (deg)       (-)  (-)
                 1         1    0.005000      0.0000         2  (blade-shell)
                 2         1    0.015260      0.0000         1  (blade-root)
                 3         1    0.055029      0.0000         3  (spar-uni)
                 4         1    0.000002      0.0000         4  (spar-core)
                 5         1    0.055029      0.0000         3  (spar-uni)
                 6         1    0.015260      0.0000         1  (blade-root)
                 7         1    0.005000      0.0000         2  (blade-shell)

               lamina:  1     
              matName:  (blade-shell)
                     s           e11           e22           e12           s11           s22           s12   s11_fcT   s11_fcC   s22_fcT   s22_fcC   s12_fcS
                   (m)         (m/m)         (m/m)         (rad)          (Pa)          (Pa)          (Pa)       (-)       (-)       (-)       (-)       (-)
                0.0000   2.7358e-004  -8.6360e-005   6.0369e-005   7.8007e+006   3.5108e+005   4.2258e+005    0.0542   -0.0000    0.0000   -0.0000    0.0070
                0.3307   2.1473e-004  -6.7836e-005   8.5398e-005   6.1223e+006   2.7475e+005   5.9778e+005    0.0425   -0.0000    0.0000   -0.0000    0.0100
                0.7007   1.4671e-004  -4.6387e-005   1.0599e-004   4.1828e+006   1.8714e+005   7.4192e+005    0.0290   -0.0000    0.0000   -0.0000    0.0124
                1.0814   7.6102e-005  -2.4129e-005   1.1890e-004   2.1693e+006   9.6055e+004   8.3231e+005    0.0151   -0.0000    0.0000   -0.0000    0.0139
                1.4691   5.0985e-006  -1.8037e-006   1.2333e-004   1.4419e+005   3.5865e+003   8.6331e+005    0.0010   -0.0000    0.0000   -0.0000    0.0144

               lamina:  2     
              matName:  (blade-root)
                     s           e11           e22           e12           s11           s22           s12   s11_fcT   s11_fcC   s22_fcT   s22_fcC   s12_fcS
                   (m)         (m/m)         (m/m)         (rad)          (Pa)          (Pa)          (Pa)       (-)       (-)       (-)       (-)       (-)
                0.0000   2.7269e-004  -8.6044e-005   6.0369e-005   7.7755e+006   3.5047e+005   4.2258e+005    0.0540   -0.0000    0.0000   -0.0000    0.0070
                0.3307   2.1394e-004  -6.7558e-005   8.5398e-005   6.1001e+006   2.7421e+005   5.9778e+005    0.0424   -0.0000    0.0000   -0.0000    0.0100
                0.7007   1.4611e-004  -4.6175e-005   1.0599e-004   4.1659e+006   1.8673e+005   7.4192e+005    0.0289   -0.0000    0.0000   -0.0000    0.0124
                1.0814   7.5684e-005  -2.3980e-005   1.1890e-004   2.1575e+006   9.5767e+004   8.3231e+005    0.0150   -0.0000    0.0000   -0.0000    0.0139
                1.4691   4.7680e-006  -1.6865e-006   1.2333e-004   1.3485e+005   3.3590e+003   8.6331e+005    0.0009   -0.0000    0.0000   -0.0000    0.0144

               lamina:  3     
              matName:  (spar-uni)
                     s           e11           e22           e12           s11           s22           s12   s11_fcT   s11_fcC   s22_fcT   s22_fcC   s12_fcS
                   (m)         (m/m)         (m/m)         (rad)          (Pa)          (Pa)          (Pa)       (-)       (-)       (-)       (-)       (-)
                0.0000   2.6997e-004  -8.5079e-005   6.0369e-005   1.1300e+007  -1.3640e+005   1.8111e+005    0.0116   -0.0000    0.0000    0.0000    0.0060
                0.3307   2.1154e-004  -6.6707e-005   8.5398e-005   8.8548e+006  -1.0745e+005   2.5619e+005    0.0091   -0.0000    0.0000    0.0000    0.0085
                0.7007   1.4429e-004  -4.5527e-005   1.0599e-004   6.0395e+006  -7.3693e+004   3.1797e+005    0.0062   -0.0000    0.0000    0.0000    0.0106
                1.0814   7.4406e-005  -2.3527e-005   1.1890e-004   3.1142e+006  -3.8718e+004   3.5670e+005    0.0032   -0.0000    0.0000    0.0000    0.0119
                1.4691   3.7594e-006  -1.3287e-006   1.2333e-004   1.5678e+005  -3.9681e+003   3.6999e+005    0.0002   -0.0000    0.0000    0.0000    0.0123

               lamina:  4     
              matName:  (spar-core)
                     s           e11           e22           e12           s11           s22           s12   s11_fcT   s11_fcC   s22_fcT   s22_fcC   s12_fcS
                   (m)         (m/m)         (m/m)         (rad)          (Pa)          (Pa)          (Pa)       (-)       (-)       (-)       (-)       (-)
                0.0000   2.6016e-004  -8.1599e-005   6.0369e-005   6.7337e+004  -1.0148e+003   1.2074e+003    0.0000   -0.0000    0.0000    0.0000    0.0000
                0.3307   2.0290e-004  -6.3639e-005   8.5398e-005   5.2516e+004  -7.9143e+002   1.7080e+003    0.0000   -0.0000    0.0000    0.0000    0.0000
                0.7007   1.3771e-004  -4.3192e-005   1.0599e-004   3.5643e+004  -5.3714e+002   2.1198e+003    0.0000   -0.0000    0.0000    0.0000    0.0000
                1.0814   6.9800e-005  -2.1893e-005   1.1890e-004   1.8066e+004  -2.7227e+002   2.3780e+003    0.0000   -0.0000    0.0000    0.0000    0.0000
                1.4691   1.2225e-007  -3.8345e-008   1.2333e-004   3.1641e+001  -4.7747e-001   2.4666e+003    0.0000   -0.0000    0.0000    0.0000    0.0000

               lamina:  5     
              matName:  (spar-uni)
                     s           e11           e22           e12           s11           s22           s12   s11_fcT   s11_fcC   s22_fcT   s22_fcC   s12_fcS
                   (m)         (m/m)         (m/m)         (rad)          (Pa)          (Pa)          (Pa)       (-)       (-)       (-)       (-)       (-)
                0.0000   2.6016e-004  -8.1599e-005   6.0369e-005   1.0891e+007  -1.2586e+005   1.8111e+005    0.0112   -0.0000    0.0000    0.0000    0.0060
                0.3307   2.0290e-004  -6.3639e-005   8.5398e-005   8.4942e+006  -9.8156e+004   2.5619e+005    0.0087   -0.0000    0.0000    0.0000    0.0085
                0.7007   1.3771e-004  -4.3192e-005   1.0599e-004   5.7650e+006  -6.6619e+004   3.1797e+005    0.0059   -0.0000    0.0000    0.0000    0.0106
                1.0814   6.9800e-005  -2.1893e-005   1.1890e-004   2.9222e+006  -3.3767e+004   3.5670e+005    0.0030   -0.0000    0.0000    0.0000    0.0119
                1.4691  -3.5150e-006   1.2520e-006   1.2333e-004  -1.4655e+005   3.8498e+003   3.6999e+005    0.0000    0.0002    0.0000   -0.0000    0.0123

               lamina:  6     
              matName:  (blade-root)
                     s           e11           e22           e12           s11           s22           s12   s11_fcT   s11_fcC   s22_fcT   s22_fcC   s12_fcS
                   (m)         (m/m)         (m/m)         (rad)          (Pa)          (Pa)          (Pa)       (-)       (-)       (-)       (-)       (-)
                0.0000   2.5035e-004  -7.8119e-005   6.0369e-005   7.1438e+006   3.3509e+005   4.2258e+005    0.0496   -0.0000    0.0000   -0.0000    0.0070
                0.3307   1.9425e-004  -6.0571e-005   8.5398e-005   5.5433e+006   2.6065e+005   5.9778e+005    0.0385   -0.0000    0.0000   -0.0000    0.0100
                0.7007   1.3112e-004  -4.0857e-005   1.0599e-004   3.7420e+006   1.7641e+005   7.4192e+005    0.0260   -0.0000    0.0000   -0.0000    0.0124
                1.0814   6.5194e-005  -2.0259e-005   1.1890e-004   1.8608e+006   8.8545e+004   8.3231e+005    0.0129   -0.0000    0.0000   -0.0000    0.0139
                1.4691  -4.5236e-006   1.6098e-006   1.2333e-004  -1.2788e+005  -3.0379e+003   8.6331e+005    0.0000    0.0006    0.0000    0.0000    0.0144

               lamina:  7     
              matName:  (blade-shell)
                     s           e11           e22           e12           s11           s22           s12   s11_fcT   s11_fcC   s22_fcT   s22_fcC   s12_fcS
                   (m)         (m/m)         (m/m)         (rad)          (Pa)          (Pa)          (Pa)       (-)       (-)       (-)       (-)       (-)
                0.0000   2.4763e-004  -7.7154e-005   6.0369e-005   7.0669e+006   3.3322e+005   4.2258e+005    0.0491   -0.0000    0.0000   -0.0000    0.0070
                0.3307   1.9185e-004  -5.9721e-005   8.5398e-005   5.4755e+006   2.5900e+005   5.9778e+005    0.0380   -0.0000    0.0000   -0.0000    0.0100
                0.7007   1.2930e-004  -4.0209e-005   1.0599e-004   3.6904e+006   1.7516e+005   7.4192e+005    0.0256   -0.0000    0.0000   -0.0000    0.0124
                1.0814   6.3917e-005  -1.9806e-005   1.1890e-004   1.8247e+006   8.7666e+004   8.3231e+005    0.0127   -0.0000    0.0000   -0.0000    0.0139
                1.4691  -4.8541e-006   1.7271e-006   1.2333e-004  -1.3722e+005  -3.2654e+003   8.6331e+005    0.0000    0.0006    0.0000    0.0000    0.0144

            panel:  3     
           lam_num    nPlies        tPly      fibAng     matID  matName
               (-)       (-)         (m)       (deg)       (-)  (-)
                 1         1    0.005000      0.0000         2  (blade-shell)
                 2         1    0.015260      0.0000         1  (blade-root)
                 3         1    0.048555      0.0000         6  (TEP-core)
                 4         1    0.015260      0.0000         1  (blade-root)
                 5         1    0.005000      0.0000         2  (blade-shell)

               lamina:  1     
              matName:  (blade-shell)
                     s           e11           e22           e12           s11           s22           s12   s11_fcT   s11_fcC   s22_fcT   s22_fcC   s12_fcS
                   (m)         (m/m)         (m/m)         (rad)          (Pa)          (Pa)          (Pa)       (-)       (-)       (-)       (-)       (-)
                0.0000   2.1280e-006  -8.4910e-007   2.6598e-004   5.9595e+004   3.1729e+001   1.8619e+006    0.0004   -0.0000    0.0000   -0.0000    0.0310
                0.0019   1.4357e-006  -5.7308e-007   2.6598e-004   4.0207e+004   1.8183e+001   1.8619e+006    0.0003   -0.0000    0.0000   -0.0000    0.0310
                0.0055   5.4430e-007  -2.1804e-007   2.6598e-004   1.5239e+004  -5.3935e+000   1.8619e+006    0.0001   -0.0000    0.0000    0.0000    0.0310

               lamina:  2     
              matName:  (blade-root)
                     s           e11           e22           e12           s11           s22           s12   s11_fcT   s11_fcC   s22_fcT   s22_fcC   s12_fcS
                   (m)         (m/m)         (m/m)         (rad)          (Pa)          (Pa)          (Pa)       (-)       (-)       (-)       (-)       (-)
                0.0000   1.9694e-006  -7.8573e-007   2.6598e-004   5.5155e+004   3.0856e+001   1.8619e+006    0.0004   -0.0000    0.0000   -0.0000    0.0310
                0.0019   1.3158e-006  -5.2516e-007   2.6598e-004   3.6849e+004   1.7524e+001   1.8619e+006    0.0003   -0.0000    0.0000   -0.0000    0.0310
                0.0055   4.5159e-007  -1.8099e-007   2.6598e-004   1.2642e+004  -6.9504e+000   1.8619e+006    0.0001   -0.0000    0.0000    0.0000    0.0310

               lamina:  3     
              matName:  (TEP-core)
                     s           e11           e22           e12           s11           s22           s12   s11_fcT   s11_fcC   s22_fcT   s22_fcC   s12_fcS
                   (m)         (m/m)         (m/m)         (rad)          (Pa)          (Pa)          (Pa)       (-)       (-)       (-)       (-)       (-)
                0.0000   1.4854e-006  -5.9232e-007   2.6598e-004   3.7364e+002  -4.1912e+001   5.3197e+003    0.0000   -0.0000    0.0000    0.0000    0.0000
                0.0019   9.4979e-007  -3.7890e-007   2.6598e-004   2.3889e+002  -2.6846e+001   5.3197e+003    0.0000   -0.0000    0.0000    0.0000    0.0000
                0.0055  -7.3172e-007   2.9191e-007   2.6598e-004  -1.8404e+002   2.0683e+001   5.3197e+003    0.0000    0.0000    0.0000   -0.0000    0.0000

               lamina:  4     
              matName:  (blade-root)
                     s           e11           e22           e12           s11           s22           s12   s11_fcT   s11_fcC   s22_fcT   s22_fcC   s12_fcS
                   (m)         (m/m)         (m/m)         (rad)          (Pa)          (Pa)          (Pa)       (-)       (-)       (-)       (-)       (-)
                0.0000  -5.3839e-007   2.1648e-007   2.6598e-004  -1.5068e+004   1.9721e+001   1.8619e+006    0.0000    0.0001    0.0000   -0.0000    0.0310
                0.0019  -5.8071e-007   2.3275e-007   2.6598e-004  -1.6257e+004   9.1027e+000   1.8619e+006    0.0000    0.0001    0.0000   -0.0000    0.0310
                0.0055  -1.0147e-006   4.0499e-007   2.6598e-004  -2.8417e+004  -1.3461e+001   1.8619e+006    0.0000    0.0001    0.0000    0.0000    0.0310

               lamina:  5     
              matName:  (blade-shell)
                     s           e11           e22           e12           s11           s22           s12   s11_fcT   s11_fcC   s22_fcT   s22_fcC   s12_fcS
                   (m)         (m/m)         (m/m)         (rad)          (Pa)          (Pa)          (Pa)       (-)       (-)       (-)       (-)       (-)
                0.0000  -6.9695e-007   2.7985e-007   2.6598e-004  -1.9508e+004   1.7058e+001   1.8619e+006    0.0000    0.0001    0.0000   -0.0000    0.0310
                0.0019  -7.0062e-007   2.8067e-007   2.6598e-004  -1.9615e+004   7.0890e+000   1.8619e+006    0.0000    0.0001    0.0000   -0.0000    0.0310
                0.0055  -1.1074e-006   4.4204e-007   2.6598e-004  -3.1013e+004  -1.3971e+001   1.8619e+006    0.0000    0.0001    0.0000    0.0000    0.0310

            panel:  4     
           lam_num    nPlies        tPly      fibAng     matID  matName
               (-)       (-)         (m)       (deg)       (-)  (-)
                 1         1    0.005000      0.0000         2  (blade-shell)
                 2         1    0.015260      0.0000         1  (blade-root)
                 3         1    0.048555      0.0000         6  (TEP-core)
                 4         1    0.015260      0.0000         1  (blade-root)
                 5         1    0.005000      0.0000         2  (blade-shell)

               lamina:  1     
              matName:  (blade-shell)
                     s           e11           e22           e12           s11           s22           s12   s11_fcT   s11_fcC   s22_fcT   s22_fcC   s12_fcS
                   (m)         (m/m)         (m/m)         (rad)          (Pa)          (Pa)          (Pa)       (-)       (-)       (-)       (-)       (-)
                0.0000   5.4430e-007  -2.1804e-007   2.5238e-004   1.5239e+004  -5.3935e+000   1.7667e+006    0.0001   -0.0000    0.0000    0.0000    0.0294
                0.3911  -7.0369e-005   2.7992e-005   2.5043e-004  -1.9713e+006  -2.3698e+003   1.7530e+006    0.0000    0.0093    0.0000    0.0000    0.0292
                0.7858  -1.4213e-004   5.6538e-005   2.4453e-004  -3.9815e+006  -4.7607e+003   1.7117e+006    0.0000    0.0187    0.0000    0.0000    0.0285
                1.1756  -2.1294e-004   8.4709e-005   2.3482e-004  -5.9652e+006  -7.1222e+003   1.6438e+006    0.0000    0.0280    0.0000    0.0000    0.0274
                1.5552  -2.8183e-004   1.1211e-004   2.2167e-004  -7.8950e+006  -9.4202e+003   1.5517e+006    0.0000    0.0371    0.0000    0.0000    0.0259
                1.9209  -3.4802e-004   1.3844e-004   2.0554e-004  -9.7492e+006  -1.1632e+004   1.4388e+006    0.0000    0.0458    0.0000    0.0000    0.0240
                1.9348  -3.5076e-004   1.3954e-004   2.0486e-004  -9.8261e+006  -1.1717e+004   1.4340e+006    0.0000    0.0461    0.0000    0.0000    0.0239

               lamina:  2     
              matName:  (blade-root)
                     s           e11           e22           e12           s11           s22           s12   s11_fcT   s11_fcC   s22_fcT   s22_fcC   s12_fcS
                   (m)         (m/m)         (m/m)         (rad)          (Pa)          (Pa)          (Pa)       (-)       (-)       (-)       (-)       (-)
                0.0000   4.5159e-007  -1.8099e-007   2.5238e-004   1.2642e+004  -6.9504e+000   1.7667e+006    0.0001   -0.0000    0.0000    0.0000    0.0294
                0.3911  -7.0556e-005   2.8067e-005   2.5043e-004  -1.9765e+006  -2.3708e+003   1.7530e+006    0.0000    0.0093    0.0000    0.0000    0.0292
                0.7858  -1.4215e-004   5.6548e-005   2.4453e-004  -3.9822e+006  -4.7608e+003   1.7117e+006    0.0000    0.0187    0.0000    0.0000    0.0285
                1.1756  -2.1291e-004   8.4696e-005   2.3482e-004  -5.9643e+006  -7.1220e+003   1.6438e+006    0.0000    0.0280    0.0000    0.0000    0.0274
                1.5552  -2.8177e-004   1.1209e-004   2.2167e-004  -7.8932e+006  -9.4199e+003   1.5517e+006    0.0000    0.0371    0.0000    0.0000    0.0259
                1.9209  -3.4793e-004   1.3841e-004   2.0554e-004  -9.7468e+006  -1.1631e+004   1.4388e+006    0.0000    0.0458    0.0000    0.0000    0.0240
                1.9348  -3.5065e-004   1.3949e-004   2.0486e-004  -9.8230e+006  -1.1716e+004   1.4340e+006    0.0000    0.0461    0.0000    0.0000    0.0239

               lamina:  3     
              matName:  (TEP-core)
                     s           e11           e22           e12           s11           s22           s12   s11_fcT   s11_fcC   s22_fcT   s22_fcC   s12_fcS
                   (m)         (m/m)         (m/m)         (rad)          (Pa)          (Pa)          (Pa)       (-)       (-)       (-)       (-)       (-)
                0.0000  -7.3172e-007   2.9191e-007   2.5238e-004  -1.8404e+002   2.0683e+001   5.0476e+003    0.0000    0.0000    0.0000   -0.0000    0.0000
                0.3911  -7.1153e-005   2.8305e-005   2.5043e-004  -1.7903e+004   1.9884e+003   5.0085e+003    0.0000    0.0000    0.0000   -0.0000    0.0000
                0.7858  -1.4223e-004   5.6578e-005   2.4453e-004  -3.5787e+004   3.9743e+003   4.8906e+003    0.0000    0.0000    0.0000   -0.0000    0.0000
                1.1756  -2.1281e-004   8.4658e-005   2.3482e-004  -5.3548e+004   5.9467e+003   4.6964e+003    0.0000    0.0000    0.0000   -0.0000    0.0000
                1.5552  -2.8156e-004   1.1201e-004   2.2167e-004  -7.0846e+004   7.8678e+003   4.4334e+003    0.0000    0.0000    0.0000   -0.0000    0.0000
                1.9209  -3.4767e-004   1.3830e-004   2.0554e-004  -8.7480e+004   9.7151e+003   4.1108e+003    0.0000    0.0000    0.0000   -0.0000    0.0000
                1.9348  -3.5031e-004   1.3935e-004   2.0486e-004  -8.8144e+004   9.7889e+003   4.0972e+003    0.0000    0.0000    0.0000   -0.0000    0.0000

               lamina:  4     
              matName:  (blade-root)
                     s           e11           e22           e12           s11           s22           s12   s11_fcT   s11_fcC   s22_fcT   s22_fcC   s12_fcS
                   (m)         (m/m)         (m/m)         (rad)          (Pa)          (Pa)          (Pa)       (-)       (-)       (-)       (-)       (-)
                0.0000  -1.0147e-006   4.0499e-007   2.5238e-004  -2.8417e+004  -1.3461e+001   1.7667e+006    0.0000    0.0001    0.0000    0.0000    0.0294
                0.3911  -7.1340e-005   2.8380e-005   2.5043e-004  -1.9985e+006  -2.3751e+003   1.7530e+006    0.0000    0.0094    0.0000    0.0000    0.0292
                0.7858  -1.4225e-004   5.6588e-005   2.4453e-004  -3.9850e+006  -4.7614e+003   1.7117e+006    0.0000    0.0187    0.0000    0.0000    0.0285
                1.1756  -2.1251e-004   8.4536e-005   2.3482e-004  -5.9531e+006  -7.1198e+003   1.6438e+006    0.0000    0.0279    0.0000    0.0000    0.0274
                1.5552  -2.8092e-004   1.1175e-004   2.2167e-004  -7.8696e+006  -9.4152e+003   1.5517e+006    0.0000    0.0369    0.0000    0.0000    0.0259
                1.9209  -3.4684e-004   1.3797e-004   2.0554e-004  -9.7161e+006  -1.1625e+004   1.4388e+006    0.0000    0.0456    0.0000    0.0000    0.0240
                1.9348  -3.4922e-004   1.3892e-004   2.0486e-004  -9.7829e+006  -1.1708e+004   1.4340e+006    0.0000    0.0459    0.0000    0.0000    0.0239

               lamina:  5     
              matName:  (blade-shell)
                     s           e11           e22           e12           s11           s22           s12   s11_fcT   s11_fcC   s22_fcT   s22_fcC   s12_fcS
                   (m)         (m/m)         (m/m)         (rad)          (Pa)          (Pa)          (Pa)       (-)       (-)       (-)       (-)       (-)
                0.0000  -1.1074e-006   4.4204e-007   2.5238e-004  -3.1013e+004  -1.3971e+001   1.7667e+006    0.0000    0.0001    0.0000    0.0000    0.0294
                0.3911  -7.1402e-005   2.8405e-005   2.5043e-004  -2.0002e+006  -2.3755e+003   1.7530e+006    0.0000    0.0094    0.0000    0.0000    0.0292
                0.7858  -1.4226e-004   5.6591e-005   2.4453e-004  -3.9852e+006  -4.7614e+003   1.7117e+006    0.0000    0.0187    0.0000    0.0000    0.0285
                1.1756  -2.1241e-004   8.4498e-005   2.3482e-004  -5.9504e+006  -7.1193e+003   1.6438e+006    0.0000    0.0279    0.0000    0.0000    0.0274
                1.5552  -2.8072e-004   1.1167e-004   2.2167e-004  -7.8639e+006  -9.4141e+003   1.5517e+006    0.0000    0.0369    0.0000    0.0000    0.0259
                1.9209  -3.4658e-004   1.3787e-004   2.0554e-004  -9.7088e+006  -1.1624e+004   1.4388e+006    0.0000    0.0456    0.0000    0.0000    0.0240
                1.9348  -3.4888e-004   1.3878e-004   2.0486e-004  -9.7733e+006  -1.1706e+004   1.4340e+006    0.0000    0.0459    0.0000    0.0000    0.0239

            panel:  5     
           lam_num    nPlies        tPly      fibAng     matID  matName
               (-)       (-)         (m)       (deg)       (-)  (-)
                 1         1    0.005000      0.0000         2  (blade-shell)
                 2         1    0.015260      0.0000         1  (blade-root)
                 3         1    0.048555      0.0000         6  (TEP-core)
                 4         1    0.015260      0.0000         1  (blade-root)
                 5         1    0.005000      0.0000         2  (blade-shell)

               lamina:  1     
              matName:  (blade-shell)
                     s           e11           e22           e12           s11           s22           s12   s11_fcT   s11_fcC   s22_fcT   s22_fcC   s12_fcS
                   (m)         (m/m)         (m/m)         (rad)          (Pa)          (Pa)          (Pa)       (-)       (-)       (-)       (-)       (-)
                0.0000  -3.5076e-004   1.3954e-004   1.8959e-004  -9.8261e+006  -1.1717e+004   1.3272e+006    0.0000    0.0461    0.0000    0.0000    0.0221
                0.3321  -4.1074e-004   1.6339e-004   1.7190e-004  -1.1506e+007  -1.3722e+004   1.2033e+006    0.0000    0.0540    0.0000    0.0000    0.0201
                0.6552  -4.6915e-004   1.8663e-004   1.5201e-004  -1.3143e+007  -1.5671e+004   1.0641e+006    0.0000    0.0617    0.0000    0.0000    0.0177
                0.9516  -5.2266e-004   2.0792e-004   1.3144e-004  -1.4642e+007  -1.7455e+004   9.2011e+005    0.0000    0.0687    0.0000    0.0000    0.0153
                1.2175  -5.7061e-004   2.2699e-004   1.1112e-004  -1.5985e+007  -1.9051e+004   7.7782e+005    0.0000    0.0750    0.0000    0.0000    0.0130
                1.4500  -6.1256e-004   2.4368e-004   9.1886e-005  -1.7160e+007  -2.0443e+004   6.4320e+005    0.0000    0.0806    0.0000    0.0000    0.0107
                1.6475  -6.4814e-004   2.5784e-004   7.4492e-005  -1.8157e+007  -2.1616e+004   5.2144e+005    0.0000    0.0852    0.0000    0.0000    0.0087
                1.8065  -6.7701e-004   2.6932e-004   5.9788e-005  -1.8965e+007  -2.2551e+004   4.1852e+005    0.0000    0.0890    0.0000    0.0000    0.0070
                1.9299  -6.9914e-004   2.7813e-004   4.7963e-005  -1.9585e+007  -2.3249e+004   3.3574e+005    0.0000    0.0919    0.0000    0.0000    0.0056
                2.0040  -7.1428e-004   2.8416e-004   4.0689e-005  -2.0009e+007  -2.3659e+004   2.8483e+005    0.0000    0.0939    0.0000    0.0000    0.0047
                2.0738  -7.2266e-004   2.8750e-004   3.3757e-005  -2.0244e+007  -2.3879e+004   2.3630e+005    0.0000    0.0950    0.0000    0.0000    0.0039

               lamina:  2     
              matName:  (blade-root)
                     s           e11           e22           e12           s11           s22           s12   s11_fcT   s11_fcC   s22_fcT   s22_fcC   s12_fcS
                   (m)         (m/m)         (m/m)         (rad)          (Pa)          (Pa)          (Pa)       (-)       (-)       (-)       (-)       (-)
                0.0000  -3.5065e-004   1.3949e-004   1.8959e-004  -9.8230e+006  -1.1716e+004   1.3272e+006    0.0000    0.0461    0.0000    0.0000    0.0221
                0.3321  -4.1062e-004   1.6334e-004   1.7190e-004  -1.1503e+007  -1.3721e+004   1.2033e+006    0.0000    0.0540    0.0000    0.0000    0.0201
                0.6552  -4.6900e-004   1.8657e-004   1.5201e-004  -1.3138e+007  -1.5670e+004   1.0641e+006    0.0000    0.0617    0.0000    0.0000    0.0177
                0.9516  -5.2248e-004   2.0784e-004   1.3144e-004  -1.4636e+007  -1.7454e+004   9.2011e+005    0.0000    0.0687    0.0000    0.0000    0.0153
                1.2175  -5.7039e-004   2.2690e-004   1.1112e-004  -1.5979e+007  -1.9050e+004   7.7782e+005    0.0000    0.0750    0.0000    0.0000    0.0130
                1.4500  -6.1229e-004   2.4357e-004   9.1886e-005  -1.7152e+007  -2.0441e+004   6.4320e+005    0.0000    0.0805    0.0000    0.0000    0.0107
                1.6475  -6.4779e-004   2.5770e-004   7.4492e-005  -1.8147e+007  -2.1614e+004   5.2144e+005    0.0000    0.0852    0.0000    0.0000    0.0087
                1.8065  -6.7653e-004   2.6913e-004   5.9788e-005  -1.8952e+007  -2.2548e+004   4.1852e+005    0.0000    0.0890    0.0000    0.0000    0.0070
                1.9299  -6.9849e-004   2.7787e-004   4.7963e-005  -1.9567e+007  -2.3245e+004   3.3574e+005    0.0000    0.0919    0.0000    0.0000    0.0056
                2.0040  -7.1325e-004   2.8375e-004   4.0689e-005  -1.9980e+007  -2.3653e+004   2.8483e+005    0.0000    0.0938    0.0000    0.0000    0.0047
                2.0738  -7.2139e-004   2.8699e-004   3.3757e-005  -2.0208e+007  -2.3872e+004   2.3630e+005    0.0000    0.0949    0.0000    0.0000    0.0039

               lamina:  3     
              matName:  (TEP-core)
                     s           e11           e22           e12           s11           s22           s12   s11_fcT   s11_fcC   s22_fcT   s22_fcC   s12_fcS
                   (m)         (m/m)         (m/m)         (rad)          (Pa)          (Pa)          (Pa)       (-)       (-)       (-)       (-)       (-)
                0.0000  -3.5031e-004   1.3935e-004   1.8959e-004  -8.8144e+004   9.7889e+003   3.7919e+003    0.0000    0.0000    0.0000   -0.0000    0.0000
                0.3321  -4.1023e-004   1.6319e-004   1.7190e-004  -1.0322e+005   1.1463e+004   3.4380e+003    0.0000    0.0000    0.0000   -0.0000    0.0000
                0.6552  -4.6853e-004   1.8638e-004   1.5201e-004  -1.1789e+005   1.3092e+004   3.0402e+003    0.0000    0.0000    0.0000   -0.0000    0.0000
                0.9516  -5.2192e-004   2.0762e-004   1.3144e-004  -1.3132e+005   1.4584e+004   2.6289e+003    0.0000    0.0000    0.0000   -0.0000    0.0000
                1.2175  -5.6972e-004   2.2664e-004   1.1112e-004  -1.4335e+005   1.5920e+004   2.2223e+003    0.0000    0.0000    0.0000   -0.0000    0.0000
                1.4500  -6.1146e-004   2.4324e-004   9.1886e-005  -1.5385e+005   1.7086e+004   1.8377e+003    0.0000    0.0000    0.0000   -0.0000    0.0000
                1.6475  -6.4674e-004   2.5728e-004   7.4492e-005  -1.6273e+005   1.8073e+004   1.4898e+003    0.0000    0.0000    0.0000   -0.0000    0.0000
                1.8065  -6.7510e-004   2.6856e-004   5.9788e-005  -1.6987e+005   1.8865e+004   1.1958e+003    0.0000    0.0000    0.0000   -0.0000    0.0000
                1.9299  -6.9653e-004   2.7708e-004   4.7963e-005  -1.7526e+005   1.9465e+004   9.5925e+002    0.0000    0.0000    0.0000   -0.0000    0.0000
                2.0040  -7.1009e-004   2.8248e-004   4.0689e-005  -1.7867e+005   1.9845e+004   8.1379e+002    0.0000    0.0000    0.0000   -0.0000    0.0000
                2.0738  -7.1750e-004   2.8543e-004   3.3757e-005  -1.8053e+005   2.0052e+004   6.7514e+002    0.0000    0.0000    0.0000   -0.0000    0.0000

               lamina:  4     
              matName:  (blade-root)
                     s           e11           e22           e12           s11           s22           s12   s11_fcT   s11_fcC   s22_fcT   s22_fcC   s12_fcS
                   (m)         (m/m)         (m/m)         (rad)          (Pa)          (Pa)          (Pa)       (-)       (-)       (-)       (-)       (-)
                0.0000  -3.4922e-004   1.3892e-004   1.8959e-004  -9.7829e+006  -1.1708e+004   1.3272e+006    0.0000    0.0459    0.0000    0.0000    0.0221
                0.3321  -4.0902e-004   1.6271e-004   1.7190e-004  -1.1458e+007  -1.3712e+004   1.2033e+006    0.0000    0.0538    0.0000    0.0000    0.0201
                0.6552  -4.6704e-004   1.8579e-004   1.5201e-004  -1.3083e+007  -1.5659e+004   1.0641e+006    0.0000    0.0614    0.0000    0.0000    0.0177
                0.9516  -5.2013e-004   2.0691e-004   1.3144e-004  -1.4571e+007  -1.7441e+004   9.2011e+005    0.0000    0.0684    0.0000    0.0000    0.0153
                1.2175  -5.6759e-004   2.2579e-004   1.1112e-004  -1.5900e+007  -1.9035e+004   7.7782e+005    0.0000    0.0746    0.0000    0.0000    0.0130
                1.4500  -6.0881e-004   2.4218e-004   9.1886e-005  -1.7055e+007  -2.0422e+004   6.4320e+005    0.0000    0.0801    0.0000    0.0000    0.0107
                1.6475  -6.4339e-004   2.5594e-004   7.4492e-005  -1.8024e+007  -2.1590e+004   5.2144e+005    0.0000    0.0846    0.0000    0.0000    0.0087
                1.8065  -6.7052e-004   2.6673e-004   5.9788e-005  -1.8784e+007  -2.2515e+004   4.1852e+005    0.0000    0.0882    0.0000    0.0000    0.0070
                1.9299  -6.9026e-004   2.7458e-004   4.7963e-005  -1.9337e+007  -2.3200e+004   3.3574e+005    0.0000    0.0908    0.0000    0.0000    0.0056
                2.0040  -7.0005e-004   2.7847e-004   4.0689e-005  -1.9611e+007  -2.3581e+004   2.8483e+005    0.0000    0.0921    0.0000    0.0000    0.0047
                2.0738  -7.0511e-004   2.8048e-004   3.3757e-005  -1.9753e+007  -2.3783e+004   2.3630e+005    0.0000    0.0927    0.0000    0.0000    0.0039

               lamina:  5     
              matName:  (blade-shell)
                     s           e11           e22           e12           s11           s22           s12   s11_fcT   s11_fcC   s22_fcT   s22_fcC   s12_fcS
                   (m)         (m/m)         (m/m)         (rad)          (Pa)          (Pa)          (Pa)       (-)       (-)       (-)       (-)       (-)
                0.0000  -3.4888e-004   1.3878e-004   1.8959e-004  -9.7733e+006  -1.1706e+004   1.3272e+006    0.0000    0.0459    0.0000    0.0000    0.0221
                0.3321  -4.0863e-004   1.6255e-004   1.7190e-004  -1.1447e+007  -1.3710e+004   1.2033e+006    0.0000    0.0537    0.0000    0.0000    0.0201
                0.6552  -4.6657e-004   1.8560e-004   1.5201e-004  -1.3070e+007  -1.5656e+004   1.0641e+006    0.0000    0.0614    0.0000    0.0000    0.0177
                0.9516  -5.1957e-004   2.0668e-004   1.3144e-004  -1.4555e+007  -1.7438e+004   9.2011e+005    0.0000    0.0683    0.0000    0.0000    0.0153
                1.2175  -5.6693e-004   2.2552e-004   1.1112e-004  -1.5882e+007  -1.9031e+004   7.7782e+005    0.0000    0.0746    0.0000    0.0000    0.0130
                1.4500  -6.0798e-004   2.4185e-004   9.1886e-005  -1.7032e+007  -2.0418e+004   6.4320e+005    0.0000    0.0800    0.0000    0.0000    0.0107
                1.6475  -6.4234e-004   2.5552e-004   7.4492e-005  -1.7994e+007  -2.1584e+004   5.2144e+005    0.0000    0.0845    0.0000    0.0000    0.0087
                1.8065  -6.6908e-004   2.6615e-004   5.9788e-005  -1.8743e+007  -2.2508e+004   4.1852e+005    0.0000    0.0880    0.0000    0.0000    0.0070
                1.9299  -6.8830e-004   2.7379e-004   4.7963e-005  -1.9282e+007  -2.3189e+004   3.3574e+005    0.0000    0.0905    0.0000    0.0000    0.0056
                2.0040  -6.9690e-004   2.7721e-004   4.0689e-005  -1.9523e+007  -2.3563e+004   2.8483e+005    0.0000    0.0917    0.0000    0.0000    0.0047
                2.0738  -7.0122e-004   2.7893e-004   3.3757e-005  -1.9644e+007  -2.3761e+004   2.3630e+005    0.0000    0.0922    0.0000    0.0000    0.0039

  Bottom:  panel  nNode   nLam     xc_St    xc_End         b         t         E_eff         G_eff      nu_eff     density  buckleCrit
            (-)    (-)    (-)       (-)       (-)       (m)       (m)          (Pa)          (Pa)         (-)    (kg/m^3)         (-)
              1     13      5    0.0000    0.3004    3.0690    0.0891   1.2880e+010   3.1952e+009      0.3978    950.5842      0.0003
              2      5      7    0.3004    0.4996    1.4886    0.1506   3.8275e+010   4.0763e+009      0.3137   1901.1448      0.0006
              3      3      5    0.4996    0.5006    0.0055    0.0891   1.2880e+010   3.1952e+009      0.3978    950.5842      0.0000
              4      7      5    0.5006    0.7519    2.0273    0.0891   1.2880e+010   3.1952e+009      0.3978    950.5842      0.0391
              5     11      5    0.7519    1.0000    1.9640    0.0891   1.2880e+010   3.1952e+009      0.3978    950.5842      0.0323

            panel:  1     
           lam_num    nPlies        tPly      fibAng     matID  matName
               (-)       (-)         (m)       (deg)       (-)  (-)
                 1         1    0.005000      0.0000         2  (blade-shell)
                 2         1    0.015260      0.0000         1  (blade-root)
                 3         1    0.048555      0.0000         5  (LEP-core)
                 4         1    0.015260      0.0000         1  (blade-root)
                 5         1    0.005000      0.0000         2  (blade-shell)

               lamina:  1     
              matName:  (blade-shell)
                     s           e11           e22           e12           s11           s22           s12   s11_fcT   s11_fcC   s22_fcT   s22_fcC   s12_fcS
                   (m)         (m/m)         (m/m)         (rad)          (Pa)          (Pa)          (Pa)       (-)       (-)       (-)       (-)       (-)
                0.0000   5.6907e-004  -2.2640e-004   5.4519e-005   1.5941e+007   1.8711e+004   3.8163e+005    0.1107   -0.0000    0.0000   -0.0000    0.0064
                0.2013   5.5494e-004  -2.2078e-004   7.0053e-005   1.5546e+007   1.8251e+004   4.9037e+005    0.1080   -0.0000    0.0000   -0.0000    0.0082
                0.4318   5.3225e-004  -2.1175e-004   8.7271e-005   1.4910e+007   1.7523e+004   6.1090e+005    0.1035   -0.0000    0.0000   -0.0000    0.0102
                0.6628   5.0326e-004  -2.0021e-004   1.0373e-004   1.4098e+007   1.6592e+004   7.2612e+005    0.0979   -0.0000    0.0000   -0.0000    0.0121
                0.9094   4.6788e-004  -1.8614e-004   1.2024e-004   1.3107e+007   1.5445e+004   8.4168e+005    0.0910   -0.0000    0.0000   -0.0000    0.0140
                1.1753   4.2628e-004  -1.6959e-004   1.3665e-004   1.1942e+007   1.4091e+004   9.5656e+005    0.0829   -0.0000    0.0000   -0.0000    0.0159
                1.4549   3.7933e-004  -1.5091e-004   1.5223e-004   1.0626e+007   1.2560e+004   1.0656e+006    0.0738   -0.0000    0.0000   -0.0000    0.0178
                1.7489   3.2765e-004  -1.3035e-004   1.6663e-004   9.1786e+006   1.0870e+004   1.1664e+006    0.0637   -0.0000    0.0000   -0.0000    0.0194
                2.0566   2.7180e-004  -1.0813e-004   1.7946e-004   7.6141e+006   9.0439e+003   1.2562e+006    0.0529   -0.0000    0.0000   -0.0000    0.0209
                2.3746   2.1287e-004  -8.4681e-005   1.9022e-004   5.9632e+006   7.1178e+003   1.3315e+006    0.0414   -0.0000    0.0000   -0.0000    0.0222
                2.7036   1.5178e-004  -6.0375e-005   1.9866e-004   4.2518e+006   5.1181e+003   1.3906e+006    0.0295   -0.0000    0.0000   -0.0000    0.0232
                3.0468   8.9813e-005  -3.5723e-005   2.0456e-004   2.5160e+006   3.0700e+003   1.4319e+006    0.0175   -0.0000    0.0000   -0.0000    0.0239
                3.0690   8.4549e-005  -3.3627e-005   2.0484e-004   2.3685e+006   2.9352e+003   1.4339e+006    0.0164   -0.0000    0.0000   -0.0000    0.0239

               lamina:  2     
              matName:  (blade-root)
                     s           e11           e22           e12           s11           s22           s12   s11_fcT   s11_fcC   s22_fcT   s22_fcC   s12_fcS
                   (m)         (m/m)         (m/m)         (rad)          (Pa)          (Pa)          (Pa)       (-)       (-)       (-)       (-)       (-)
                0.0000   5.6769e-004  -2.2585e-004   5.4519e-005   1.5903e+007   1.8704e+004   3.8163e+005    0.1104   -0.0000    0.0000   -0.0000    0.0064
                0.2013   5.5361e-004  -2.2025e-004   7.0053e-005   1.5508e+007   1.8244e+004   4.9037e+005    0.1077   -0.0000    0.0000   -0.0000    0.0082
                0.4318   5.3105e-004  -2.1127e-004   8.7271e-005   1.4876e+007   1.7516e+004   6.1090e+005    0.1033   -0.0000    0.0000   -0.0000    0.0102
                0.6628   5.0222e-004  -1.9980e-004   1.0373e-004   1.4069e+007   1.6586e+004   7.2612e+005    0.0977   -0.0000    0.0000   -0.0000    0.0121
                0.9094   4.6699e-004  -1.8578e-004   1.2024e-004   1.3082e+007   1.5440e+004   8.4168e+005    0.0908   -0.0000    0.0000   -0.0000    0.0140
                1.1753   4.2555e-004  -1.6929e-004   1.3665e-004   1.1921e+007   1.4087e+004   9.5656e+005    0.0828   -0.0000    0.0000   -0.0000    0.0159
                1.4549   3.7877e-004  -1.5068e-004   1.5223e-004   1.0611e+007   1.2557e+004   1.0656e+006    0.0737   -0.0000    0.0000   -0.0000    0.0178
                1.7489   3.2725e-004  -1.3018e-004   1.6663e-004   9.1673e+006   1.0868e+004   1.1664e+006    0.0637   -0.0000    0.0000   -0.0000    0.0194
                2.0566   2.7157e-004  -1.0804e-004   1.7946e-004   7.6077e+006   9.0426e+003   1.2562e+006    0.0528   -0.0000    0.0000   -0.0000    0.0209
                2.3746   2.1283e-004  -8.4665e-005   1.9022e-004   5.9621e+006   7.1176e+003   1.3315e+006    0.0414   -0.0000    0.0000   -0.0000    0.0222
                2.7036   1.5228e-004  -6.0574e-005   1.9866e-004   4.2658e+006   5.1209e+003   1.3906e+006    0.0296   -0.0000    0.0000   -0.0000    0.0232
                3.0468   9.0679e-005  -3.6070e-005   2.0456e-004   2.5402e+006   3.0748e+003   1.4319e+006    0.0176   -0.0000    0.0000   -0.0000    0.0239
                3.0690   8.5987e-005  -3.4201e-005   2.0484e-004   2.4088e+006   2.9432e+003   1.4339e+006    0.0167   -0.0000    0.0000   -0.0000    0.0239

               lamina:  3     
              matName:  (LEP-core)
                     s           e11           e22           e12           s11           s22           s12   s11_fcT   s11_fcC   s22_fcT   s22_fcC   s12_fcS
                   (m)         (m/m)         (m/m)         (rad)          (Pa)          (Pa)          (Pa)       (-)       (-)       (-)       (-)       (-)
                0.0000   5.6349e-004  -2.2417e-004   5.4519e-005   1.4178e+005  -1.5749e+004   1.0904e+003    0.0000   -0.0000    0.0000    0.0000    0.0000
                0.2013   5.4957e-004  -2.1863e-004   7.0053e-005   1.3828e+005  -1.5360e+004   1.4011e+003    0.0000   -0.0000    0.0000    0.0000    0.0000
                0.4318   5.2739e-004  -2.0981e-004   8.7271e-005   1.3270e+005  -1.4740e+004   1.7454e+003    0.0000   -0.0000    0.0000    0.0000    0.0000
                0.6628   4.9905e-004  -1.9853e-004   1.0373e-004   1.2557e+005  -1.3948e+004   2.0746e+003    0.0000   -0.0000    0.0000    0.0000    0.0000
                0.9094   4.6428e-004  -1.8470e-004   1.2024e-004   1.1682e+005  -1.2976e+004   2.4048e+003    0.0000   -0.0000    0.0000    0.0000    0.0000
                1.1753   4.2332e-004  -1.6840e-004   1.3665e-004   1.0651e+005  -1.1831e+004   2.7330e+003    0.0000   -0.0000    0.0000    0.0000    0.0000
                1.4549   3.7704e-004  -1.4999e-004   1.5223e-004   9.4870e+004  -1.0537e+004   3.0446e+003    0.0000   -0.0000    0.0000    0.0000    0.0000
                1.7489   3.2602e-004  -1.2969e-004   1.6663e-004   8.2031e+004  -9.1108e+003   3.3327e+003    0.0000   -0.0000    0.0000    0.0000    0.0000
                2.0566   2.7088e-004  -1.0776e-004   1.7946e-004   6.8157e+004  -7.5696e+003   3.5891e+003    0.0000   -0.0000    0.0000    0.0000    0.0000
                2.3746   2.1271e-004  -8.4617e-005   1.9022e-004   5.3522e+004  -5.9438e+003   3.8043e+003    0.0000   -0.0000    0.0000    0.0000    0.0000
                2.7036   1.5386e-004  -6.1207e-005   1.9866e-004   3.8714e+004  -4.2997e+003   3.9731e+003    0.0000   -0.0000    0.0000    0.0000    0.0000
                3.0468   9.3435e-005  -3.7171e-005   2.0456e-004   2.3510e+004  -2.6116e+003   4.0912e+003    0.0000   -0.0000    0.0000    0.0000    0.0000
                3.0690   9.0562e-005  -3.6030e-005   2.0484e-004   2.2787e+004  -2.5318e+003   4.0968e+003    0.0000   -0.0000    0.0000    0.0000    0.0000

               lamina:  4     
              matName:  (blade-root)
                     s           e11           e22           e12           s11           s22           s12   s11_fcT   s11_fcC   s22_fcT   s22_fcC   s12_fcS
                   (m)         (m/m)         (m/m)         (rad)          (Pa)          (Pa)          (Pa)       (-)       (-)       (-)       (-)       (-)
                0.0000   5.5012e-004  -2.1883e-004   5.4519e-005   1.5411e+007   1.8607e+004   3.8163e+005    0.1070   -0.0000    0.0000   -0.0000    0.0064
                0.2013   5.3671e-004  -2.1349e-004   7.0053e-005   1.5035e+007   1.8151e+004   4.9037e+005    0.1044   -0.0000    0.0000   -0.0000    0.0082
                0.4318   5.1575e-004  -2.0516e-004   8.7271e-005   1.4448e+007   1.7432e+004   6.1090e+005    0.1003   -0.0000    0.0000   -0.0000    0.0102
                0.6628   4.8896e-004  -1.9450e-004   1.0373e-004   1.3698e+007   1.6513e+004   7.2612e+005    0.0951   -0.0000    0.0000   -0.0000    0.0121
                0.9094   4.5568e-004  -1.8126e-004   1.2024e-004   1.2765e+007   1.5378e+004   8.4168e+005    0.0886   -0.0000    0.0000   -0.0000    0.0140
                1.1753   4.1622e-004  -1.6557e-004   1.3665e-004   1.1660e+007   1.4036e+004   9.5656e+005    0.0810   -0.0000    0.0000   -0.0000    0.0159
                1.4549   3.7155e-004  -1.4780e-004   1.5223e-004   1.0408e+007   1.2518e+004   1.0656e+006    0.0723   -0.0000    0.0000   -0.0000    0.0178
                1.7489   3.2210e-004  -1.2813e-004   1.6663e-004   9.0230e+006   1.0840e+004   1.1664e+006    0.0627   -0.0000    0.0000   -0.0000    0.0194
                2.0566   2.6865e-004  -1.0687e-004   1.7946e-004   7.5259e+006   9.0265e+003   1.2562e+006    0.0523   -0.0000    0.0000   -0.0000    0.0209
                2.3746   2.1233e-004  -8.4463e-005   1.9022e-004   5.9480e+006   7.1148e+003   1.3315e+006    0.0413   -0.0000    0.0000   -0.0000    0.0222
                2.7036   1.5436e-004  -6.1406e-005   1.9866e-004   4.3241e+006   5.1323e+003   1.3906e+006    0.0300   -0.0000    0.0000   -0.0000    0.0232
                3.0468   9.4301e-005  -3.7517e-005   2.0456e-004   2.6417e+006   3.0947e+003   1.4319e+006    0.0183   -0.0000    0.0000   -0.0000    0.0239
                3.0690   9.2000e-005  -3.6604e-005   2.0484e-004   2.5772e+006   2.9762e+003   1.4339e+006    0.0179   -0.0000    0.0000   -0.0000    0.0239

               lamina:  5     
              matName:  (blade-shell)
                     s           e11           e22           e12           s11           s22           s12   s11_fcT   s11_fcC   s22_fcT   s22_fcC   s12_fcS
                   (m)         (m/m)         (m/m)         (rad)          (Pa)          (Pa)          (Pa)       (-)       (-)       (-)       (-)       (-)
                0.0000   5.4592e-004  -2.1715e-004   5.4519e-005   1.5293e+007   1.8584e+004   3.8163e+005    0.1062   -0.0000    0.0000   -0.0000    0.0064
                0.2013   5.3267e-004  -2.1188e-004   7.0053e-005   1.4922e+007   1.8129e+004   4.9037e+005    0.1036   -0.0000    0.0000   -0.0000    0.0082
                0.4318   5.1210e-004  -2.0369e-004   8.7271e-005   1.4346e+007   1.7412e+004   6.1090e+005    0.0996   -0.0000    0.0000   -0.0000    0.0102
                0.6628   4.8579e-004  -1.9323e-004   1.0373e-004   1.3609e+007   1.6496e+004   7.2612e+005    0.0945   -0.0000    0.0000   -0.0000    0.0121
                0.9094   4.5297e-004  -1.8018e-004   1.2024e-004   1.2689e+007   1.5363e+004   8.4168e+005    0.0881   -0.0000    0.0000   -0.0000    0.0140
                1.1753   4.1399e-004  -1.6468e-004   1.3665e-004   1.1597e+007   1.4024e+004   9.5656e+005    0.0805   -0.0000    0.0000   -0.0000    0.0159
                1.4549   3.6982e-004  -1.4711e-004   1.5223e-004   1.0360e+007   1.2508e+004   1.0656e+006    0.0719   -0.0000    0.0000   -0.0000    0.0178
                1.7489   3.2086e-004  -1.2763e-004   1.6663e-004   8.9885e+006   1.0833e+004   1.1664e+006    0.0624   -0.0000    0.0000   -0.0000    0.0194
                2.0566   2.6795e-004  -1.0659e-004   1.7946e-004   7.5063e+006   9.0227e+003   1.2562e+006    0.0521   -0.0000    0.0000   -0.0000    0.0209
                2.3746   2.1221e-004  -8.4415e-005   1.9022e-004   5.9446e+006   7.1141e+003   1.3315e+006    0.0413   -0.0000    0.0000   -0.0000    0.0222
                2.7036   1.5452e-004  -6.1471e-005   1.9866e-004   4.3286e+006   5.1332e+003   1.3906e+006    0.0301   -0.0000    0.0000   -0.0000    0.0232
                3.0468   9.4585e-005  -3.7631e-005   2.0456e-004   2.6496e+006   3.0963e+003   1.4319e+006    0.0184   -0.0000    0.0000   -0.0000    0.0239
                3.0690   9.2471e-005  -3.6793e-005   2.0484e-004   2.5904e+006   2.9788e+003   1.4339e+006    0.0180   -0.0000    0.0000   -0.0000    0.0239

            panel:  2     
           lam_num    nPlies        tPly      fibAng     matID  matName
               (-)       (-)         (m)       (deg)       (-)  (-)
                 1         1    0.005000      0.0000         2  (blade-shell)
                 2         1    0.015260      0.0000         1  (blade-root)
                 3         1    0.055029      0.0000         3  (spar-uni)
                 4         1    0.000002      0.0000         4  (spar-core)
                 5         1    0.055029      0.0000         3  (spar-uni)
                 6         1    0.015260      0.0000         1  (blade-root)
                 7         1    0.005000      0.0000         2  (blade-shell)

               lamina:  1     
              matName:  (blade-shell)
                     s           e11           e22           e12           s11           s22           s12   s11_fcT   s11_fcC   s22_fcT   s22_fcC   s12_fcS
                   (m)         (m/m)         (m/m)         (rad)          (Pa)          (Pa)          (Pa)       (-)       (-)       (-)       (-)       (-)
                0.0000   7.6234e-005  -2.3344e-005   1.0116e-004   2.1781e+006   1.0881e+005   7.0815e+005    0.0151   -0.0000    0.0000   -0.0000    0.0118
                0.3290   1.7315e-005  -4.7607e-006   1.0781e-004   4.9799e+005   3.2949e+004   7.5470e+005    0.0035   -0.0000    0.0000   -0.0000    0.0126
                0.6995  -4.8816e-005   1.6206e-005   1.0821e-004  -1.3871e+006  -5.0528e+004   7.5748e+005    0.0000    0.0065    0.0000    0.0000    0.0126
                1.0872  -1.1265e-004   3.6368e-005   1.0096e-004  -3.2071e+006  -1.3226e+005   7.0670e+005    0.0000    0.0151    0.0000    0.0000    0.0118
                1.4886  -1.7365e-004   5.5562e-005   8.5579e-005  -4.9469e+006  -2.1150e+005   5.9905e+005    0.0000    0.0232    0.0000    0.0000    0.0100

               lamina:  2     
              matName:  (blade-root)
                     s           e11           e22           e12           s11           s22           s12   s11_fcT   s11_fcC   s22_fcT   s22_fcC   s12_fcS
                   (m)         (m/m)         (m/m)         (rad)          (Pa)          (Pa)          (Pa)       (-)       (-)       (-)       (-)       (-)
                0.0000   7.9231e-005  -2.4407e-005   1.0116e-004   2.2628e+006   1.1087e+005   7.0815e+005    0.0157   -0.0000    0.0000   -0.0000    0.0118
                0.3290   2.0854e-005  -6.0163e-006   1.0781e-004   5.9807e+005   3.5386e+004   7.5470e+005    0.0042   -0.0000    0.0000   -0.0000    0.0126
                0.6995  -4.7370e-005   1.5693e-005   1.0821e-004  -1.3462e+006  -4.9533e+004   7.5748e+005    0.0000    0.0063    0.0000    0.0000    0.0126
                1.0872  -1.1098e-004   3.5774e-005   1.0096e-004  -3.1598e+006  -1.3111e+005   7.0670e+005    0.0000    0.0148    0.0000    0.0000    0.0118
                1.4886  -1.7188e-004   5.4934e-005   8.5579e-005  -4.8968e+006  -2.1028e+005   5.9905e+005    0.0000    0.0230    0.0000    0.0000    0.0100

               lamina:  3     
              matName:  (spar-uni)
                     s           e11           e22           e12           s11           s22           s12   s11_fcT   s11_fcC   s22_fcT   s22_fcC   s12_fcS
                   (m)         (m/m)         (m/m)         (rad)          (Pa)          (Pa)          (Pa)       (-)       (-)       (-)       (-)       (-)
                0.0000   9.0037e-005  -2.8240e-005   1.0116e-004   3.7694e+006  -4.3558e+004   3.0349e+005    0.0039   -0.0000    0.0000    0.0000    0.0101
                0.3290   3.3617e-005  -1.0544e-005   1.0781e-004   1.4074e+006  -1.6263e+004   3.2344e+005    0.0014   -0.0000    0.0000    0.0000    0.0108
                0.6995  -4.2959e-005   1.4128e-005   1.0821e-004  -1.7958e+006   3.0184e+004   3.2463e+005    0.0000    0.0026    0.0000   -0.0000    0.0108
                1.0872  -1.0587e-004   3.3963e-005   1.0096e-004  -4.4292e+006   6.2096e+004   3.0287e+005    0.0000    0.0063    0.0000   -0.0000    0.0101
                1.4886  -1.6648e-004   5.3017e-005   8.5579e-005  -6.9663e+006   9.2053e+004   2.5674e+005    0.0000    0.0099    0.0000   -0.0000    0.0086

               lamina:  4     
              matName:  (spar-core)
                     s           e11           e22           e12           s11           s22           s12   s11_fcT   s11_fcC   s22_fcT   s22_fcC   s12_fcS
                   (m)         (m/m)         (m/m)         (rad)          (Pa)          (Pa)          (Pa)       (-)       (-)       (-)       (-)       (-)
                0.0000   9.0037e-005  -2.8240e-005   1.0116e-004   2.3304e+004  -3.5121e+002   2.0233e+003    0.0000   -0.0000    0.0000    0.0000    0.0000
                0.3290   3.3617e-005  -1.0544e-005   1.0781e-004   8.7012e+003  -1.3113e+002   2.1563e+003    0.0000   -0.0000    0.0000    0.0000    0.0000
                0.6995  -2.7050e-005   8.4843e-006   1.0821e-004  -7.0013e+003   1.0551e+002   2.1642e+003    0.0000    0.0000    0.0000   -0.0000    0.0000
                1.0872  -8.7461e-005   2.7432e-005   1.0096e-004  -2.2638e+004   3.4116e+002   2.0191e+003    0.0000    0.0000    0.0000   -0.0000    0.0000
                1.4886  -1.4699e-004   4.6103e-005   8.5579e-005  -3.8045e+004   5.7335e+002   1.7116e+003    0.0000    0.0000    0.0000   -0.0000    0.0000

               lamina:  5     
              matName:  (spar-uni)
                     s           e11           e22           e12           s11           s22           s12   s11_fcT   s11_fcC   s22_fcT   s22_fcC   s12_fcS
                   (m)         (m/m)         (m/m)         (rad)          (Pa)          (Pa)          (Pa)       (-)       (-)       (-)       (-)       (-)
                0.0000   1.0084e-004  -3.2074e-005   1.0116e-004   4.2200e+006  -5.5171e+004   3.0349e+005    0.0043   -0.0000    0.0000    0.0000    0.0101
                0.3290   4.6380e-005  -1.5072e-005   1.0781e-004   1.9396e+006  -2.9980e+004   3.2344e+005    0.0020   -0.0000    0.0000    0.0000    0.0108
                0.6995  -2.7049e-005   8.4841e-006   1.0821e-004  -1.1324e+006   1.3086e+004   3.2463e+005    0.0000    0.0016    0.0000   -0.0000    0.0108
                1.0872  -8.7461e-005   2.7432e-005   1.0096e-004  -3.6615e+006   4.2311e+004   3.0287e+005    0.0000    0.0052    0.0000   -0.0000    0.0101
                1.4886  -1.4699e-004   4.6103e-005   8.5579e-005  -6.1536e+006   7.1109e+004   2.5674e+005    0.0000    0.0088    0.0000   -0.0000    0.0086

               lamina:  6     
              matName:  (blade-root)
                     s           e11           e22           e12           s11           s22           s12   s11_fcT   s11_fcC   s22_fcT   s22_fcC   s12_fcS
                   (m)         (m/m)         (m/m)         (rad)          (Pa)          (Pa)          (Pa)       (-)       (-)       (-)       (-)       (-)
                0.0000   1.0384e-004  -3.3137e-005   1.0116e-004   2.9587e+006   1.2781e+005   7.0815e+005    0.0205   -0.0000    0.0000   -0.0000    0.0118
                0.3290   4.9919e-005  -1.6327e-005   1.0781e-004   1.4199e+006   5.5396e+004   7.5470e+005    0.0099   -0.0000    0.0000   -0.0000    0.0126
                0.6995  -1.1141e-005   2.8403e-006   1.0821e-004  -3.2177e+005  -2.4590e+004   7.5748e+005    0.0000    0.0015    0.0000    0.0000    0.0126
                1.0872  -6.9051e-005   2.0901e-005   1.0096e-004  -1.9743e+006  -1.0225e+005   7.0670e+005    0.0000    0.0093    0.0000    0.0000    0.0118
                1.4886  -1.2750e-004   3.9190e-005   8.5579e-005  -3.6419e+006  -1.7972e+005   5.9905e+005    0.0000    0.0171    0.0000    0.0000    0.0100

               lamina:  7     
              matName:  (blade-shell)
                     s           e11           e22           e12           s11           s22           s12   s11_fcT   s11_fcC   s22_fcT   s22_fcC   s12_fcS
                   (m)         (m/m)         (m/m)         (rad)          (Pa)          (Pa)          (Pa)       (-)       (-)       (-)       (-)       (-)
                0.0000   1.0482e-004  -3.3485e-005   1.0116e-004   2.9864e+006   1.2849e+005   7.0815e+005    0.0207   -0.0000    0.0000   -0.0000    0.0118
                0.3290   5.1079e-005  -1.6739e-005   1.0781e-004   1.4527e+006   5.6194e+004   7.5470e+005    0.0101   -0.0000    0.0000   -0.0000    0.0126
                0.6995  -6.7289e-006   1.2752e-006   1.0821e-004  -1.9703e+005  -2.1553e+004   7.5748e+005    0.0000    0.0009    0.0000    0.0000    0.0126
                1.0872  -6.3946e-005   1.9090e-005   1.0096e-004  -1.8300e+006  -9.8734e+004   7.0670e+005    0.0000    0.0086    0.0000    0.0000    0.0118
                1.4886  -1.2210e-004   3.7273e-005   8.5579e-005  -3.4891e+006  -1.7600e+005   5.9905e+005    0.0000    0.0164    0.0000    0.0000    0.0100

            panel:  3     
           lam_num    nPlies        tPly      fibAng     matID  matName
               (-)       (-)         (m)       (deg)       (-)  (-)
                 1         1    0.005000      0.0000         2  (blade-shell)
                 2         1    0.015260      0.0000         1  (blade-root)
                 3         1    0.048555      0.0000         6  (TEP-core)
                 4         1    0.015260      0.0000         1  (blade-root)
                 5         1    0.005000      0.0000         2  (blade-shell)

               lamina:  1     
              matName:  (blade-shell)
                     s           e11           e22           e12           s11           s22           s12   s11_fcT   s11_fcC   s22_fcT   s22_fcC   s12_fcS
                   (m)         (m/m)         (m/m)         (rad)          (Pa)          (Pa)          (Pa)       (-)       (-)       (-)       (-)       (-)
                0.0000  -1.5774e-004   6.2761e-005   1.8456e-004  -4.4186e+006  -5.0698e+003   1.2920e+006    0.0000    0.0207    0.0000    0.0000    0.0215
                0.0019  -1.5834e-004   6.3002e-005   1.8453e-004  -4.4356e+006  -5.0809e+003   1.2917e+006    0.0000    0.0208    0.0000    0.0000    0.0215
                0.0055  -1.5909e-004   6.3300e-005   1.8445e-004  -4.4565e+006  -5.0997e+003   1.2911e+006    0.0000    0.0209    0.0000    0.0000    0.0215

               lamina:  2     
              matName:  (blade-root)
                     s           e11           e22           e12           s11           s22           s12   s11_fcT   s11_fcC   s22_fcT   s22_fcC   s12_fcS
                   (m)         (m/m)         (m/m)         (rad)          (Pa)          (Pa)          (Pa)       (-)       (-)       (-)       (-)       (-)
                0.0000  -1.5689e-004   6.2422e-005   1.8456e-004  -4.3948e+006  -5.0651e+003   1.2920e+006    0.0000    0.0206    0.0000    0.0000    0.0215
                0.0019  -1.5745e-004   6.2648e-005   1.8453e-004  -4.4107e+006  -5.0760e+003   1.2917e+006    0.0000    0.0207    0.0000    0.0000    0.0215
                0.0055  -1.5818e-004   6.2936e-005   1.8445e-004  -4.4310e+006  -5.0947e+003   1.2911e+006    0.0000    0.0208    0.0000    0.0000    0.0215

               lamina:  3     
              matName:  (TEP-core)
                     s           e11           e22           e12           s11           s22           s12   s11_fcT   s11_fcC   s22_fcT   s22_fcC   s12_fcS
                   (m)         (m/m)         (m/m)         (rad)          (Pa)          (Pa)          (Pa)       (-)       (-)       (-)       (-)       (-)
                0.0000  -1.5429e-004   6.1385e-005   1.8456e-004  -3.8822e+004   4.3135e+003   3.6913e+003    0.0000    0.0000    0.0000   -0.0000    0.0000
                0.0019  -1.5475e-004   6.1567e-005   1.8453e-004  -3.8937e+004   4.3264e+003   3.6905e+003    0.0000    0.0000    0.0000   -0.0000    0.0000
                0.0055  -1.5540e-004   6.1824e-005   1.8445e-004  -3.9099e+004   4.3445e+003   3.6889e+003    0.0000    0.0000    0.0000   -0.0000    0.0000

               lamina:  4     
              matName:  (blade-root)
                     s           e11           e22           e12           s11           s22           s12   s11_fcT   s11_fcC   s22_fcT   s22_fcC   s12_fcS
                   (m)         (m/m)         (m/m)         (rad)          (Pa)          (Pa)          (Pa)       (-)       (-)       (-)       (-)       (-)
                0.0000  -1.4604e-004   5.8088e-005   1.8456e-004  -4.0912e+006  -5.0054e+003   1.2920e+006    0.0000    0.0192    0.0000    0.0000    0.0215
                0.0019  -1.4614e-004   5.8128e-005   1.8453e-004  -4.0940e+006  -5.0138e+003   1.2917e+006    0.0000    0.0192    0.0000    0.0000    0.0215
                0.0055  -1.4655e-004   5.8288e-005   1.8445e-004  -4.1053e+006  -5.0307e+003   1.2911e+006    0.0000    0.0193    0.0000    0.0000    0.0215

               lamina:  5     
              matName:  (blade-shell)
                     s           e11           e22           e12           s11           s22           s12   s11_fcT   s11_fcC   s22_fcT   s22_fcC   s12_fcS
                   (m)         (m/m)         (m/m)         (rad)          (Pa)          (Pa)          (Pa)       (-)       (-)       (-)       (-)       (-)
                0.0000  -1.4345e-004   5.7052e-005   1.8456e-004  -4.0186e+006  -4.9912e+003   1.2920e+006    0.0000    0.0189    0.0000    0.0000    0.0215
                0.0019  -1.4344e-004   5.7047e-005   1.8453e-004  -4.0183e+006  -4.9989e+003   1.2917e+006    0.0000    0.0189    0.0000    0.0000    0.0215
                0.0055  -1.4377e-004   5.7177e-005   1.8445e-004  -4.0275e+006  -5.0154e+003   1.2911e+006    0.0000    0.0189    0.0000    0.0000    0.0215

            panel:  4     
           lam_num    nPlies        tPly      fibAng     matID  matName
               (-)       (-)         (m)       (deg)       (-)  (-)
                 1         1    0.005000      0.0000         2  (blade-shell)
                 2         1    0.015260      0.0000         1  (blade-root)
                 3         1    0.048555      0.0000         6  (TEP-core)
                 4         1    0.015260      0.0000         1  (blade-root)
                 5         1    0.005000      0.0000         2  (blade-shell)

               lamina:  1     
              matName:  (blade-shell)
                     s           e11           e22           e12           s11           s22           s12   s11_fcT   s11_fcC   s22_fcT   s22_fcC   s12_fcS
                   (m)         (m/m)         (m/m)         (rad)          (Pa)          (Pa)          (Pa)       (-)       (-)       (-)       (-)       (-)
                0.0000  -1.5909e-004   6.3300e-005   1.9641e-004  -4.4565e+006  -5.0997e+003   1.3749e+006    0.0000    0.0209    0.0000    0.0000    0.0229
                0.4097  -2.1779e-004   8.6651e-005   1.8605e-004  -6.1009e+006  -7.0597e+003   1.3023e+006    0.0000    0.0286    0.0000    0.0000    0.0217
                0.8255  -2.7567e-004   1.0968e-004   1.7214e-004  -7.7224e+006  -8.9904e+003   1.2050e+006    0.0000    0.0363    0.0000    0.0000    0.0201
                1.2357  -3.3186e-004   1.3203e-004   1.5516e-004  -9.2966e+006  -1.0869e+004   1.0861e+006    0.0000    0.0436    0.0000    0.0000    0.0181
                1.6335  -3.8602e-004   1.5358e-004   1.3560e-004  -1.0814e+007  -1.2683e+004   9.4923e+005    0.0000    0.0508    0.0000    0.0000    0.0158
                2.0117  -4.3790e-004   1.7421e-004   1.1420e-004  -1.2267e+007  -1.4422e+004   7.9940e+005    0.0000    0.0576    0.0000    0.0000    0.0133
                2.0273  -4.3993e-004   1.7502e-004   1.1325e-004  -1.2324e+007  -1.4494e+004   7.9278e+005    0.0000    0.0579    0.0000    0.0000    0.0132

               lamina:  2     
              matName:  (blade-root)
                     s           e11           e22           e12           s11           s22           s12   s11_fcT   s11_fcC   s22_fcT   s22_fcC   s12_fcS
                   (m)         (m/m)         (m/m)         (rad)          (Pa)          (Pa)          (Pa)       (-)       (-)       (-)       (-)       (-)
                0.0000  -1.5818e-004   6.2936e-005   1.9641e-004  -4.4310e+006  -5.0947e+003   1.3749e+006    0.0000    0.0208    0.0000    0.0000    0.0229
                0.4097  -2.1686e-004   8.6278e-005   1.8605e-004  -6.0748e+006  -7.0546e+003   1.3023e+006    0.0000    0.0285    0.0000    0.0000    0.0217
                0.8255  -2.7471e-004   1.0929e-004   1.7214e-004  -7.6954e+006  -8.9851e+003   1.2050e+006    0.0000    0.0361    0.0000    0.0000    0.0201
                1.2357  -3.3089e-004   1.3164e-004   1.5516e-004  -9.2693e+006  -1.0864e+004   1.0861e+006    0.0000    0.0435    0.0000    0.0000    0.0181
                1.6335  -3.8505e-004   1.5319e-004   1.3560e-004  -1.0787e+007  -1.2678e+004   9.4923e+005    0.0000    0.0506    0.0000    0.0000    0.0158
                2.0117  -4.3693e-004   1.7383e-004   1.1420e-004  -1.2240e+007  -1.4416e+004   7.9940e+005    0.0000    0.0575    0.0000    0.0000    0.0133
                2.0273  -4.3898e-004   1.7464e-004   1.1325e-004  -1.2297e+007  -1.4489e+004   7.9278e+005    0.0000    0.0577    0.0000    0.0000    0.0132

               lamina:  3     
              matName:  (TEP-core)
                     s           e11           e22           e12           s11           s22           s12   s11_fcT   s11_fcC   s22_fcT   s22_fcC   s12_fcS
                   (m)         (m/m)         (m/m)         (rad)          (Pa)          (Pa)          (Pa)       (-)       (-)       (-)       (-)       (-)
                0.0000  -1.5540e-004   6.1824e-005   1.9641e-004  -3.9099e+004   4.3445e+003   3.9282e+003    0.0000    0.0000    0.0000   -0.0000    0.0000
                0.4097  -2.1401e-004   8.5140e-005   1.8605e-004  -5.3847e+004   5.9823e+003   3.7210e+003    0.0000    0.0000    0.0000   -0.0000    0.0000
                0.8255  -2.7177e-004   1.0812e-004   1.7214e-004  -6.8381e+004   7.5964e+003   3.4429e+003    0.0000    0.0000    0.0000   -0.0000    0.0000
                1.2357  -3.2792e-004   1.3045e-004   1.5516e-004  -8.2509e+004   9.1654e+003   3.1032e+003    0.0000    0.0000    0.0000   -0.0000    0.0000
                1.6335  -3.8209e-004   1.5200e-004   1.3560e-004  -9.6139e+004   1.0679e+004   2.7121e+003    0.0000    0.0000    0.0000   -0.0000    0.0000
                2.0117  -4.3399e-004   1.7265e-004   1.1420e-004  -1.0920e+005   1.2129e+004   2.2840e+003    0.0000    0.0000    0.0000   -0.0000    0.0000
                2.0273  -4.3608e-004   1.7348e-004   1.1325e-004  -1.0972e+005   1.2188e+004   2.2651e+003    0.0000    0.0000    0.0000   -0.0000    0.0000

               lamina:  4     
              matName:  (blade-root)
                     s           e11           e22           e12           s11           s22           s12   s11_fcT   s11_fcC   s22_fcT   s22_fcC   s12_fcS
                   (m)         (m/m)         (m/m)         (rad)          (Pa)          (Pa)          (Pa)       (-)       (-)       (-)       (-)       (-)
                0.0000  -1.4655e-004   5.8288e-005   1.9641e-004  -4.1053e+006  -5.0307e+003   1.3749e+006    0.0000    0.0193    0.0000    0.0000    0.0229
                0.4097  -2.0495e-004   8.1519e-005   1.8605e-004  -5.7413e+006  -6.9891e+003   1.3023e+006    0.0000    0.0270    0.0000    0.0000    0.0217
                0.8255  -2.6242e-004   1.0438e-004   1.7214e-004  -7.3512e+006  -8.9175e+003   1.2050e+006    0.0000    0.0345    0.0000    0.0000    0.0201
                1.2357  -3.1845e-004   1.2667e-004   1.5516e-004  -8.9210e+006  -1.0795e+004   1.0861e+006    0.0000    0.0419    0.0000    0.0000    0.0181
                1.6335  -3.7265e-004   1.4823e-004   1.3560e-004  -1.0439e+007  -1.2610e+004   9.4923e+005    0.0000    0.0490    0.0000    0.0000    0.0158
                2.0117  -4.2461e-004   1.6890e-004   1.1420e-004  -1.1895e+007  -1.4349e+004   7.9940e+005    0.0000    0.0558    0.0000    0.0000    0.0133
                2.0273  -4.2687e-004   1.6980e-004   1.1325e-004  -1.1958e+007  -1.4422e+004   7.9278e+005    0.0000    0.0561    0.0000    0.0000    0.0132

               lamina:  5     
              matName:  (blade-shell)
                     s           e11           e22           e12           s11           s22           s12   s11_fcT   s11_fcC   s22_fcT   s22_fcC   s12_fcS
                   (m)         (m/m)         (m/m)         (rad)          (Pa)          (Pa)          (Pa)       (-)       (-)       (-)       (-)       (-)
                0.0000  -1.4377e-004   5.7177e-005   1.9641e-004  -4.0275e+006  -5.0154e+003   1.3749e+006    0.0000    0.0189    0.0000    0.0000    0.0229
                0.4097  -2.0210e-004   8.0381e-005   1.8605e-004  -5.6615e+006  -6.9734e+003   1.3023e+006    0.0000    0.0266    0.0000    0.0000    0.0217
                0.8255  -2.5948e-004   1.0321e-004   1.7214e-004  -7.2689e+006  -8.9013e+003   1.2050e+006    0.0000    0.0341    0.0000    0.0000    0.0201
                1.2357  -3.1548e-004   1.2548e-004   1.5516e-004  -8.8378e+006  -1.0779e+004   1.0861e+006    0.0000    0.0415    0.0000    0.0000    0.0181
                1.6335  -3.6968e-004   1.4704e-004   1.3560e-004  -1.0356e+007  -1.2593e+004   9.4923e+005    0.0000    0.0486    0.0000    0.0000    0.0158
                2.0117  -4.2166e-004   1.6772e-004   1.1420e-004  -1.1812e+007  -1.4332e+004   7.9940e+005    0.0000    0.0555    0.0000    0.0000    0.0133
                2.0273  -4.2397e-004   1.6864e-004   1.1325e-004  -1.1877e+007  -1.4406e+004   7.9278e+005    0.0000    0.0558    0.0000    0.0000    0.0132

            panel:  5     
           lam_num    nPlies        tPly      fibAng     matID  matName
               (-)       (-)         (m)       (deg)       (-)  (-)
                 1         1    0.005000      0.0000         2  (blade-shell)
                 2         1    0.015260      0.0000         1  (blade-root)
                 3         1    0.048555      0.0000         6  (TEP-core)
                 4         1    0.015260      0.0000         1  (blade-root)
                 5         1    0.005000      0.0000         2  (blade-shell)

               lamina:  1     
              matName:  (blade-shell)
                     s           e11           e22           e12           s11           s22           s12   s11_fcT   s11_fcC   s22_fcT   s22_fcC   s12_fcS
                   (m)         (m/m)         (m/m)         (rad)          (Pa)          (Pa)          (Pa)       (-)       (-)       (-)       (-)       (-)
                0.0000  -4.3993e-004   1.7502e-004   1.2394e-004  -1.2324e+007  -1.4494e+004   8.6760e+005    0.0000    0.0579    0.0000    0.0000    0.0145
                0.3389  -4.8695e-004   1.9372e-004   1.0230e-004  -1.3641e+007  -1.6072e+004   7.1611e+005    0.0000    0.0640    0.0000    0.0000    0.0119
                0.6640  -5.3286e-004   2.1199e-004   7.9410e-005  -1.4927e+007  -1.7619e+004   5.5587e+005    0.0000    0.0701    0.0000    0.0000    0.0093
                0.9561  -5.7521e-004   2.2883e-004   5.7026e-005  -1.6113e+007  -1.9047e+004   3.9918e+005    0.0000    0.0757    0.0000    0.0000    0.0067
                1.2129  -6.1337e-004   2.4401e-004   3.5876e-005  -1.7183e+007  -2.0334e+004   2.5113e+005    0.0000    0.0807    0.0000    0.0000    0.0042
                1.4334  -6.4670e-004   2.5727e-004   1.6602e-005  -1.8116e+007  -2.1456e+004   1.1621e+005    0.0000    0.0851    0.0000    0.0000    0.0019
                1.6158  -6.7470e-004   2.6841e-004   1.2867e-007  -1.8901e+007  -2.2396e+004   9.0070e+002    0.0000    0.0887    0.0000    0.0000    0.0000
                1.7586  -6.9690e-004   2.7724e-004   1.3725e-005  -1.9522e+007  -2.3131e+004   9.6076e+004    0.0000    0.0917    0.0000    0.0000    0.0016
                1.8583  -7.1309e-004   2.8368e-004   2.3477e-005  -1.9976e+007  -2.3633e+004   1.6434e+005    0.0000    0.0938    0.0000    0.0000    0.0027
                1.9095  -7.2297e-004   2.8762e-004   2.8561e-005  -2.0253e+007  -2.3861e+004   1.9993e+005    0.0000    0.0951    0.0000    0.0000    0.0033
                1.9640  -7.2340e-004   2.8779e-004   3.3992e-005  -2.0265e+007  -2.3852e+004   2.3794e+005    0.0000    0.0951    0.0000    0.0000    0.0040

               lamina:  2     
              matName:  (blade-root)
                     s           e11           e22           e12           s11           s22           s12   s11_fcT   s11_fcC   s22_fcT   s22_fcC   s12_fcS
                   (m)         (m/m)         (m/m)         (rad)          (Pa)          (Pa)          (Pa)       (-)       (-)       (-)       (-)       (-)
                0.0000  -4.3898e-004   1.7464e-004   1.2394e-004  -1.2297e+007  -1.4489e+004   8.6760e+005    0.0000    0.0577    0.0000    0.0000    0.0145
                0.3389  -4.8601e-004   1.9335e-004   1.0230e-004  -1.3615e+007  -1.6067e+004   7.1611e+005    0.0000    0.0639    0.0000    0.0000    0.0119
                0.6640  -5.3197e-004   2.1163e-004   7.9410e-005  -1.4902e+007  -1.7614e+004   5.5587e+005    0.0000    0.0700    0.0000    0.0000    0.0093
                0.9561  -5.7436e-004   2.2849e-004   5.7026e-005  -1.6090e+007  -1.9043e+004   3.9918e+005    0.0000    0.0755    0.0000    0.0000    0.0067
                1.2129  -6.1256e-004   2.4369e-004   3.5876e-005  -1.7160e+007  -2.0330e+004   2.5113e+005    0.0000    0.0806    0.0000    0.0000    0.0042
                1.4334  -6.4591e-004   2.5695e-004   1.6602e-005  -1.8094e+007  -2.1452e+004   1.1621e+005    0.0000    0.0849    0.0000    0.0000    0.0019
                1.6158  -6.7392e-004   2.6810e-004   1.2867e-007  -1.8879e+007  -2.2392e+004   9.0070e+002    0.0000    0.0886    0.0000    0.0000    0.0000
                1.7586  -6.9608e-004   2.7691e-004   1.3725e-005  -1.9500e+007  -2.3126e+004   9.6076e+004    0.0000    0.0915    0.0000    0.0000    0.0016
                1.8583  -7.1211e-004   2.8329e-004   2.3477e-005  -1.9949e+007  -2.3627e+004   1.6434e+005    0.0000    0.0937    0.0000    0.0000    0.0027
                1.9095  -7.2158e-004   2.8706e-004   2.8561e-005  -2.0214e+007  -2.3853e+004   1.9993e+005    0.0000    0.0949    0.0000    0.0000    0.0033
                1.9640  -7.2191e-004   2.8720e-004   3.3992e-005  -2.0223e+007  -2.3843e+004   2.3794e+005    0.0000    0.0949    0.0000    0.0000    0.0040

               lamina:  3     
              matName:  (TEP-core)
                     s           e11           e22           e12           s11           s22           s12   s11_fcT   s11_fcC   s22_fcT   s22_fcC   s12_fcS
                   (m)         (m/m)         (m/m)         (rad)          (Pa)          (Pa)          (Pa)       (-)       (-)       (-)       (-)       (-)
                0.0000  -4.3608e-004   1.7348e-004   1.2394e-004  -1.0972e+005   1.2188e+004   2.4789e+003    0.0000    0.0000    0.0000   -0.0000    0.0000
                0.3389  -4.8317e-004   1.9221e-004   1.0230e-004  -1.2157e+005   1.3503e+004   2.0460e+003    0.0000    0.0000    0.0000   -0.0000    0.0000
                0.6640  -5.2923e-004   2.1054e-004   7.9410e-005  -1.3316e+005   1.4791e+004   1.5882e+003    0.0000    0.0000    0.0000   -0.0000    0.0000
                0.9561  -5.7175e-004   2.2745e-004   5.7026e-005  -1.4386e+005   1.5978e+004   1.1405e+003    0.0000    0.0000    0.0000   -0.0000    0.0000
                1.2129  -6.1006e-004   2.4269e-004   3.5876e-005  -1.5350e+005   1.7049e+004   7.1751e+002    0.0000    0.0000    0.0000   -0.0000    0.0000
                1.4334  -6.4349e-004   2.5599e-004   1.6602e-005  -1.6191e+005   1.7983e+004   3.3204e+002    0.0000    0.0000    0.0000   -0.0000    0.0000
                1.6158  -6.7153e-004   2.6714e-004   1.2867e-007  -1.6897e+005   1.8766e+004   2.5734e+000    0.0000    0.0000    0.0000   -0.0000    0.0000
                1.7586  -6.9359e-004   2.7592e-004   1.3725e-005  -1.7452e+005   1.9383e+004   2.7450e+002    0.0000    0.0000    0.0000   -0.0000    0.0000
                1.8583  -7.0912e-004   2.8210e-004   2.3477e-005  -1.7843e+005   1.9817e+004   4.6954e+002    0.0000    0.0000    0.0000   -0.0000    0.0000
                1.9095  -7.1733e-004   2.8537e-004   2.8561e-005  -1.8049e+005   2.0048e+004   5.7123e+002    0.0000    0.0000    0.0000   -0.0000    0.0000
                1.9640  -7.1738e-004   2.8539e-004   3.3992e-005  -1.8050e+005   2.0049e+004   6.7983e+002    0.0000    0.0000    0.0000   -0.0000    0.0000

               lamina:  4     
              matName:  (blade-root)
                     s           e11           e22           e12           s11           s22           s12   s11_fcT   s11_fcC   s22_fcT   s22_fcC   s12_fcS
                   (m)         (m/m)         (m/m)         (rad)          (Pa)          (Pa)          (Pa)       (-)       (-)       (-)       (-)       (-)
                0.0000  -4.2687e-004   1.6980e-004   1.2394e-004  -1.1958e+007  -1.4422e+004   8.6760e+005    0.0000    0.0561    0.0000    0.0000    0.0145
                0.3389  -4.7410e-004   1.8859e-004   1.0230e-004  -1.3281e+007  -1.6001e+004   7.1611e+005    0.0000    0.0624    0.0000    0.0000    0.0119
                0.6640  -5.2053e-004   2.0706e-004   7.9410e-005  -1.4582e+007  -1.7551e+004   5.5587e+005    0.0000    0.0685    0.0000    0.0000    0.0093
                0.9561  -5.6346e-004   2.2414e-004   5.7026e-005  -1.5785e+007  -1.8983e+004   3.9918e+005    0.0000    0.0741    0.0000    0.0000    0.0067
                1.2129  -6.0212e-004   2.3951e-004   3.5876e-005  -1.6867e+007  -2.0272e+004   2.5113e+005    0.0000    0.0792    0.0000    0.0000    0.0042
                1.4334  -6.3581e-004   2.5292e-004   1.6602e-005  -1.7811e+007  -2.1397e+004   1.1621e+005    0.0000    0.0836    0.0000    0.0000    0.0019
                1.6158  -6.6393e-004   2.6410e-004   1.2867e-007  -1.8599e+007  -2.2337e+004   9.0070e+002    0.0000    0.0873    0.0000    0.0000    0.0000
                1.7586  -6.8565e-004   2.7274e-004   1.3725e-005  -1.9207e+007  -2.3069e+004   9.6076e+004    0.0000    0.0902    0.0000    0.0000    0.0016
                1.8583  -6.9961e-004   2.7829e-004   2.3477e-005  -1.9598e+007  -2.3558e+004   1.6434e+005    0.0000    0.0920    0.0000    0.0000    0.0027
                1.9095  -7.0383e-004   2.7997e-004   2.8561e-005  -1.9717e+007  -2.3756e+004   1.9993e+005    0.0000    0.0926    0.0000    0.0000    0.0033
                1.9640  -7.0295e-004   2.7962e-004   3.3992e-005  -1.9692e+007  -2.3739e+004   2.3794e+005    0.0000    0.0925    0.0000    0.0000    0.0040

               lamina:  5     
              matName:  (blade-shell)
                     s           e11           e22           e12           s11           s22           s12   s11_fcT   s11_fcC   s22_fcT   s22_fcC   s12_fcS
                   (m)         (m/m)         (m/m)         (rad)          (Pa)          (Pa)          (Pa)       (-)       (-)       (-)       (-)       (-)
                0.0000  -4.2397e-004   1.6864e-004   1.2394e-004  -1.1877e+007  -1.4406e+004   8.6760e+005    0.0000    0.0558    0.0000    0.0000    0.0145
                0.3389  -4.7125e-004   1.8745e-004   1.0230e-004  -1.3202e+007  -1.5986e+004   7.1611e+005    0.0000    0.0620    0.0000    0.0000    0.0119
                0.6640  -5.1779e-004   2.0597e-004   7.9410e-005  -1.4505e+007  -1.7536e+004   5.5587e+005    0.0000    0.0681    0.0000    0.0000    0.0093
                0.9561  -5.6086e-004   2.2310e-004   5.7026e-005  -1.5712e+007  -1.8968e+004   3.9918e+005    0.0000    0.0738    0.0000    0.0000    0.0067
                1.2129  -5.9962e-004   2.3852e-004   3.5876e-005  -1.6798e+007  -2.0258e+004   2.5113e+005    0.0000    0.0789    0.0000    0.0000    0.0042
                1.4334  -6.3339e-004   2.5195e-004   1.6602e-005  -1.7743e+007  -2.1383e+004   1.1621e+005    0.0000    0.0833    0.0000    0.0000    0.0019
                1.6158  -6.6154e-004   2.6315e-004   1.2867e-007  -1.8532e+007  -2.2324e+004   9.0070e+002    0.0000    0.0870    0.0000    0.0000    0.0000
                1.7586  -6.8316e-004   2.7175e-004   1.3725e-005  -1.9138e+007  -2.3055e+004   9.6076e+004    0.0000    0.0898    0.0000    0.0000    0.0016
                1.8583  -6.9662e-004   2.7710e-004   2.3477e-005  -1.9515e+007  -2.3542e+004   1.6434e+005    0.0000    0.0916    0.0000    0.0000    0.0027
                1.9095  -6.9958e-004   2.7827e-004   2.8561e-005  -1.9598e+007  -2.3732e+004   1.9993e+005    0.0000    0.0920    0.0000    0.0000    0.0033
                1.9640  -6.9841e-004   2.7781e-004   3.3992e-005  -1.9565e+007  -2.3714e+004   2.3794e+005    0.0000    0.0919    0.0000    0.0000    0.0040

     Web:  panel  nNode   nLam     xc_St    xc_End         b         t         E_eff         G_eff      nu_eff     density  buckleCrit
            (-)    (-)    (-)       (-)       (-)       (m)       (m)          (Pa)          (Pa)         (-)    (kg/m^3)         (-)
              1     10      3    0.3004    0.3004    3.3095    0.0830   7.6445e+008   4.5301e+008      0.4420    257.1084      0.0002
              2     10      3    0.5006    0.5006    2.8832    0.0830   7.6445e+008   4.5301e+008      0.4420    257.1084      0.0002
              3     10      3    0.7519    0.7519    1.5213    0.0830   7.6445e+008   4.5301e+008      0.4420    257.1084      0.0001

            panel:  1     
           lam_num    nPlies        tPly      fibAng     matID  matName
               (-)       (-)         (m)       (deg)       (-)  (-)
                 1         1    0.001500      0.0000         7  (web-shell)
                 2         1    0.080000      0.0000         8  (web-core)
                 3         1    0.001500      0.0000         7  (web-shell)

               lamina:  1     
              matName:  (web-shell)
                     s           e11           e22           e12           s11           s22           s12   s11_fcT   s11_fcC   s22_fcT   s22_fcC   s12_fcS
                   (m)         (m/m)         (m/m)         (rad)          (Pa)          (Pa)          (Pa)       (-)       (-)       (-)       (-)       (-)
                0.0000   2.5011e-004  -1.1023e-004   6.6926e-005   3.6399e+006   2.7671e+005   8.0312e+005    0.0253   -0.0000    0.0000   -0.0000    0.0089
                0.3677   2.3138e-004  -1.0195e-004   7.2328e-005   3.3675e+006   2.5644e+005   8.6794e+005    0.0234   -0.0000    0.0000   -0.0000    0.0096
                0.7354   2.1264e-004  -9.3670e-005   7.7325e-005   3.0951e+006   2.3617e+005   9.2790e+005    0.0215   -0.0000    0.0000   -0.0000    0.0103
                1.1032   1.9391e-004  -8.5388e-005   8.1917e-005   2.8227e+006   2.1589e+005   9.8301e+005    0.0196   -0.0000    0.0000   -0.0000    0.0109
                1.4709   1.7517e-004  -7.7107e-005   8.6105e-005   2.5502e+006   1.9562e+005   1.0333e+006    0.0177   -0.0000    0.0000   -0.0000    0.0115
                1.8386   1.5644e-004  -6.8826e-005   8.9888e-005   2.2778e+006   1.7534e+005   1.0787e+006    0.0158   -0.0000    0.0000   -0.0000    0.0120
                2.2063   1.3770e-004  -6.0544e-005   9.3267e-005   2.0054e+006   1.5507e+005   1.1192e+006    0.0139   -0.0000    0.0000   -0.0000    0.0124
                2.5741   1.1897e-004  -5.2263e-005   9.6240e-005   1.7330e+006   1.3480e+005   1.1549e+006    0.0120   -0.0000    0.0000   -0.0000    0.0128
                2.9418   1.0023e-004  -4.3982e-005   9.8809e-005   1.4605e+006   1.1452e+005   1.1857e+006    0.0101   -0.0000    0.0000   -0.0000    0.0132
                3.3095   8.1499e-005  -3.5700e-005   1.0097e-004   1.1881e+006   9.4251e+004   1.2117e+006    0.0083   -0.0000    0.0000   -0.0000    0.0135

               lamina:  2     
              matName:  (web-core)
                     s           e11           e22           e12           s11           s22           s12   s11_fcT   s11_fcC   s22_fcT   s22_fcC   s12_fcS
                   (m)         (m/m)         (m/m)         (rad)          (Pa)          (Pa)          (Pa)       (-)       (-)       (-)       (-)       (-)
                0.0000   2.6877e-004  -1.1913e-004   6.6926e-005   6.6580e+004  -1.0999e+004   1.3385e+003    0.0000   -0.0000    0.0000    0.0000    0.0000
                0.3677   2.5004e-004  -1.1085e-004   7.2328e-005   6.1937e+004  -1.0239e+004   1.4466e+003    0.0000   -0.0000    0.0000    0.0000    0.0000
                0.7354   2.3130e-004  -1.0257e-004   7.7325e-005   5.7294e+004  -9.4788e+003   1.5465e+003    0.0000   -0.0000    0.0000    0.0000    0.0000
                1.1032   2.1257e-004  -9.4285e-005   8.1917e-005   5.2651e+004  -8.7186e+003   1.6383e+003    0.0000   -0.0000    0.0000    0.0000    0.0000
                1.4709   1.9383e-004  -8.6003e-005   8.6105e-005   4.8008e+004  -7.9583e+003   1.7221e+003    0.0000   -0.0000    0.0000    0.0000    0.0000
                1.8386   1.7510e-004  -7.7722e-005   8.9888e-005   4.3365e+004  -7.1981e+003   1.7978e+003    0.0000   -0.0000    0.0000    0.0000    0.0000
                2.2063   1.5636e-004  -6.9441e-005   9.3267e-005   3.8722e+004  -6.4378e+003   1.8653e+003    0.0000   -0.0000    0.0000    0.0000    0.0000
                2.5741   1.3763e-004  -6.1159e-005   9.6240e-005   3.4079e+004  -5.6776e+003   1.9248e+003    0.0000   -0.0000    0.0000    0.0000    0.0000
                2.9418   1.1889e-004  -5.2878e-005   9.8809e-005   2.9436e+004  -4.9173e+003   1.9762e+003    0.0000   -0.0000    0.0000    0.0000    0.0000
                3.3095   1.0016e-004  -4.4596e-005   1.0097e-004   2.4793e+004  -4.1570e+003   2.0195e+003    0.0000   -0.0000    0.0000    0.0000    0.0000

               lamina:  3     
              matName:  (web-shell)
                     s           e11           e22           e12           s11           s22           s12   s11_fcT   s11_fcC   s22_fcT   s22_fcC   s12_fcS
                   (m)         (m/m)         (m/m)         (rad)          (Pa)          (Pa)          (Pa)       (-)       (-)       (-)       (-)       (-)
                0.0000   2.6912e-004  -1.1930e-004   6.6926e-005   3.9101e+006   2.8494e+005   8.0312e+005    0.0272   -0.0000    0.0000   -0.0000    0.0089
                0.3677   2.5039e-004  -1.1101e-004   7.2328e-005   3.6377e+006   2.6466e+005   8.6794e+005    0.0253   -0.0000    0.0000   -0.0000    0.0096
                0.7354   2.3165e-004  -1.0273e-004   7.7325e-005   3.3653e+006   2.4439e+005   9.2790e+005    0.0234   -0.0000    0.0000   -0.0000    0.0103
                1.1032   2.1292e-004  -9.4451e-005   8.1917e-005   3.0929e+006   2.2412e+005   9.8301e+005    0.0215   -0.0000    0.0000   -0.0000    0.0109
                1.4709   1.9418e-004  -8.6170e-005   8.6105e-005   2.8204e+006   2.0384e+005   1.0333e+006    0.0196   -0.0000    0.0000   -0.0000    0.0115
                1.8386   1.7545e-004  -7.7889e-005   8.9888e-005   2.5480e+006   1.8357e+005   1.0787e+006    0.0177   -0.0000    0.0000   -0.0000    0.0120
                2.2063   1.5671e-004  -6.9607e-005   9.3267e-005   2.2756e+006   1.6329e+005   1.1192e+006    0.0158   -0.0000    0.0000   -0.0000    0.0124
                2.5741   1.3798e-004  -6.1326e-005   9.6240e-005   2.0032e+006   1.4302e+005   1.1549e+006    0.0139   -0.0000    0.0000   -0.0000    0.0128
                2.9418   1.1924e-004  -5.3045e-005   9.8809e-005   1.7307e+006   1.2275e+005   1.1857e+006    0.0120   -0.0000    0.0000   -0.0000    0.0132
                3.3095   1.0051e-004  -4.4763e-005   1.0097e-004   1.4583e+006   1.0247e+005   1.2117e+006    0.0101   -0.0000    0.0000   -0.0000    0.0135

            panel:  2     
           lam_num    nPlies        tPly      fibAng     matID  matName
               (-)       (-)         (m)       (deg)       (-)  (-)
                 1         1    0.001500      0.0000         7  (web-shell)
                 2         1    0.080000      0.0000         8  (web-core)
                 3         1    0.001500      0.0000         7  (web-shell)

               lamina:  1     
              matName:  (web-shell)
                     s           e11           e22           e12           s11           s22           s12   s11_fcT   s11_fcC   s22_fcT   s22_fcC   s12_fcS
                   (m)         (m/m)         (m/m)         (rad)          (Pa)          (Pa)          (Pa)       (-)       (-)       (-)       (-)       (-)
                0.0000  -1.0472e-005   4.9659e-006   1.0298e-004  -1.4912e+005  -5.0397e+003   1.2357e+006    0.0000    0.0007    0.0000    0.0000    0.0137
                0.3204  -2.6611e-005   1.2100e-005   1.0281e-004  -3.8380e+005  -2.2504e+004   1.2337e+006    0.0000    0.0018    0.0000    0.0000    0.0137
                0.6407  -4.2749e-005   1.9234e-005   1.0234e-004  -6.1848e+005  -3.9968e+004   1.2281e+006    0.0000    0.0029    0.0000    0.0000    0.0136
                0.9611  -5.8888e-005   2.6367e-005   1.0157e-004  -8.5315e+005  -5.7432e+004   1.2188e+006    0.0000    0.0040    0.0000    0.0000    0.0135
                1.2814  -7.5027e-005   3.3501e-005   1.0049e-004  -1.0878e+006  -7.4897e+004   1.2059e+006    0.0000    0.0051    0.0000    0.0000    0.0134
                1.6018  -9.1166e-005   4.0635e-005   9.9109e-005  -1.3225e+006  -9.2361e+004   1.1893e+006    0.0000    0.0062    0.0000    0.0000    0.0132
                1.9222  -1.0730e-004   4.7769e-005   9.7424e-005  -1.5572e+006  -1.0983e+005   1.1691e+006    0.0000    0.0073    0.0000    0.0000    0.0130
                2.2425  -1.2344e-004   5.4903e-005   9.5435e-005  -1.7919e+006  -1.2729e+005   1.1452e+006    0.0000    0.0084    0.0000    0.0000    0.0127
                2.5629  -1.3958e-004   6.2037e-005   9.3142e-005  -2.0265e+006  -1.4475e+005   1.1177e+006    0.0000    0.0095    0.0000    0.0000    0.0124
                2.8832  -1.5572e-004   6.9170e-005   9.0546e-005  -2.2612e+006  -1.6222e+005   1.0866e+006    0.0000    0.0106    0.0000    0.0000    0.0121

               lamina:  2     
              matName:  (web-core)
                     s           e11           e22           e12           s11           s22           s12   s11_fcT   s11_fcC   s22_fcT   s22_fcC   s12_fcS
                   (m)         (m/m)         (m/m)         (rad)          (Pa)          (Pa)          (Pa)       (-)       (-)       (-)       (-)       (-)
                0.0000  -1.0122e-005   4.7989e-006   1.0298e-004  -2.4805e+003   5.0355e+002   2.0596e+003    0.0000    0.0000    0.0000   -0.0000    0.0000
                0.3204  -2.6260e-005   1.1933e-005   1.0281e-004  -6.4802e+003   1.1585e+003   2.0562e+003    0.0000    0.0000    0.0000   -0.0000    0.0000
                0.6407  -4.2399e-005   1.9067e-005   1.0234e-004  -1.0480e+004   1.8134e+003   2.0468e+003    0.0000    0.0000    0.0000   -0.0000    0.0000
                0.9611  -5.8538e-005   2.6200e-005   1.0157e-004  -1.4479e+004   2.4683e+003   2.0314e+003    0.0000    0.0000    0.0000   -0.0000    0.0000
                1.2814  -7.4677e-005   3.3334e-005   1.0049e-004  -1.8479e+004   3.1232e+003   2.0098e+003    0.0000    0.0000    0.0000   -0.0000    0.0000
                1.6018  -9.0816e-005   4.0468e-005   9.9109e-005  -2.2479e+004   3.7781e+003   1.9822e+003    0.0000    0.0000    0.0000   -0.0000    0.0000
                1.9222  -1.0695e-004   4.7602e-005   9.7424e-005  -2.6478e+004   4.4330e+003   1.9485e+003    0.0000    0.0000    0.0000   -0.0000    0.0000
                2.2425  -1.2309e-004   5.4736e-005   9.5435e-005  -3.0478e+004   5.0879e+003   1.9087e+003    0.0000    0.0000    0.0000   -0.0000    0.0000
                2.5629  -1.3923e-004   6.1870e-005   9.3142e-005  -3.4478e+004   5.7428e+003   1.8628e+003    0.0000    0.0000    0.0000   -0.0000    0.0000
                2.8832  -1.5537e-004   6.9003e-005   9.0546e-005  -3.8477e+004   6.3977e+003   1.8109e+003    0.0000    0.0000    0.0000   -0.0000    0.0000

               lamina:  3     
              matName:  (web-shell)
                     s           e11           e22           e12           s11           s22           s12   s11_fcT   s11_fcC   s22_fcT   s22_fcC   s12_fcS
                   (m)         (m/m)         (m/m)         (rad)          (Pa)          (Pa)          (Pa)       (-)       (-)       (-)       (-)       (-)
                0.0000   8.9038e-006  -4.2728e-006   1.0298e-004   1.2632e+005   3.3430e+003   1.2357e+006    0.0009   -0.0000    0.0000   -0.0000    0.0137
                0.3204  -7.5852e-006   3.0280e-006   1.0281e-004  -1.1333e+005  -1.4273e+004   1.2337e+006    0.0000    0.0005    0.0000    0.0000    0.0137
                0.6407  -2.3724e-005   1.0162e-005   1.0234e-004  -3.4801e+005  -3.1737e+004   1.2281e+006    0.0000    0.0016    0.0000    0.0000    0.0136
                0.9611  -3.9863e-005   1.7296e-005   1.0157e-004  -5.8268e+005  -4.9201e+004   1.2188e+006    0.0000    0.0027    0.0000    0.0000    0.0135
                1.2814  -5.6002e-005   2.4430e-005   1.0049e-004  -8.1736e+005  -6.6665e+004   1.2059e+006    0.0000    0.0038    0.0000    0.0000    0.0134
                1.6018  -7.2141e-005   3.1563e-005   9.9109e-005  -1.0520e+006  -8.4130e+004   1.1893e+006    0.0000    0.0049    0.0000    0.0000    0.0132
                1.9222  -8.8279e-005   3.8697e-005   9.7424e-005  -1.2867e+006  -1.0159e+005   1.1691e+006    0.0000    0.0060    0.0000    0.0000    0.0130
                2.2425  -1.0442e-004   4.5831e-005   9.5435e-005  -1.5214e+006  -1.1906e+005   1.1452e+006    0.0000    0.0071    0.0000    0.0000    0.0127
                2.5629  -1.2056e-004   5.2965e-005   9.3142e-005  -1.7561e+006  -1.3652e+005   1.1177e+006    0.0000    0.0082    0.0000    0.0000    0.0124
                2.8832  -1.3670e-004   6.0099e-005   9.0546e-005  -1.9907e+006  -1.5399e+005   1.0866e+006    0.0000    0.0093    0.0000    0.0000    0.0121

            panel:  3     
           lam_num    nPlies        tPly      fibAng     matID  matName
               (-)       (-)         (m)       (deg)       (-)  (-)
                 1         1    0.001500      0.0000         7  (web-shell)
                 2         1    0.080000      0.0000         8  (web-core)
                 3         1    0.001500      0.0000         7  (web-shell)

               lamina:  1     
              matName:  (web-shell)
                     s           e11           e22           e12           s11           s22           s12   s11_fcT   s11_fcC   s22_fcT   s22_fcC   s12_fcS
                   (m)         (m/m)         (m/m)         (rad)          (Pa)          (Pa)          (Pa)       (-)       (-)       (-)       (-)       (-)
                0.0000  -3.5884e-004   1.5895e-004   1.1556e-004  -5.2148e+006  -3.8202e+005   1.3867e+006    0.0000    0.0245    0.0000    0.0000    0.0154
                0.1690  -3.6742e-004   1.6275e-004   1.1205e-004  -5.3395e+006  -3.9130e+005   1.3446e+006    0.0000    0.0251    0.0000    0.0000    0.0149
                0.3381  -3.7599e-004   1.6654e-004   1.0846e-004  -5.4642e+006  -4.0058e+005   1.3015e+006    0.0000    0.0257    0.0000    0.0000    0.0145
                0.5071  -3.8457e-004   1.7033e-004   1.0478e-004  -5.5888e+006  -4.0986e+005   1.2573e+006    0.0000    0.0262    0.0000    0.0000    0.0140
                0.6761  -3.9314e-004   1.7412e-004   1.0101e-004  -5.7135e+006  -4.1914e+005   1.2122e+006    0.0000    0.0268    0.0000    0.0000    0.0135
                0.8451  -4.0172e-004   1.7791e-004   9.7164e-005  -5.8382e+006  -4.2842e+005   1.1660e+006    0.0000    0.0274    0.0000    0.0000    0.0130
                1.0142  -4.1029e-004   1.8170e-004   9.3228e-005  -5.9629e+006  -4.3770e+005   1.1187e+006    0.0000    0.0280    0.0000    0.0000    0.0124
                1.1832  -4.1887e-004   1.8549e-004   8.9208e-005  -6.0876e+006  -4.4698e+005   1.0705e+006    0.0000    0.0286    0.0000    0.0000    0.0119
                1.3522  -4.2744e-004   1.8928e-004   8.5103e-005  -6.2123e+006  -4.5626e+005   1.0212e+006    0.0000    0.0292    0.0000    0.0000    0.0113
                1.5213  -4.3602e-004   1.9307e-004   8.0913e-005  -6.3370e+006  -4.6554e+005   9.7095e+005    0.0000    0.0298    0.0000    0.0000    0.0108

               lamina:  2     
              matName:  (web-core)
                     s           e11           e22           e12           s11           s22           s12   s11_fcT   s11_fcC   s22_fcT   s22_fcC   s12_fcS
                   (m)         (m/m)         (m/m)         (rad)          (Pa)          (Pa)          (Pa)       (-)       (-)       (-)       (-)       (-)
                0.0000  -3.5849e-004   1.5879e-004   1.1556e-004  -8.8815e+004   1.4640e+004   2.3112e+003    0.0000    0.0000    0.0000   -0.0000    0.0000
                0.1690  -3.6707e-004   1.6258e-004   1.1205e-004  -9.0941e+004   1.4988e+004   2.2410e+003    0.0000    0.0000    0.0000   -0.0000    0.0000
                0.3381  -3.7564e-004   1.6637e-004   1.0846e-004  -9.3066e+004   1.5336e+004   2.1692e+003    0.0000    0.0000    0.0000   -0.0000    0.0000
                0.5071  -3.8422e-004   1.7016e-004   1.0478e-004  -9.5191e+004   1.5684e+004   2.0956e+003    0.0000    0.0000    0.0000   -0.0000    0.0000
                0.6761  -3.9279e-004   1.7395e-004   1.0101e-004  -9.7316e+004   1.6032e+004   2.0203e+003    0.0000    0.0000    0.0000   -0.0000    0.0000
                0.8451  -4.0137e-004   1.7774e-004   9.7164e-005  -9.9441e+004   1.6380e+004   1.9433e+003    0.0000    0.0000    0.0000   -0.0000    0.0000
                1.0142  -4.0994e-004   1.8153e-004   9.3228e-005  -1.0157e+005   1.6728e+004   1.8646e+003    0.0000    0.0000    0.0000   -0.0000    0.0000
                1.1832  -4.1852e-004   1.8532e-004   8.9208e-005  -1.0369e+005   1.7076e+004   1.7842e+003    0.0000    0.0000    0.0000   -0.0000    0.0000
                1.3522  -4.2709e-004   1.8911e-004   8.5103e-005  -1.0582e+005   1.7424e+004   1.7021e+003    0.0000    0.0000    0.0000   -0.0000    0.0000
                1.5213  -4.3567e-004   1.9290e-004   8.0913e-005  -1.0794e+005   1.7772e+004   1.6183e+003    0.0000    0.0000    0.0000   -0.0000    0.0000

               lamina:  3     
              matName:  (web-shell)
                     s           e11           e22           e12           s11           s22           s12   s11_fcT   s11_fcC   s22_fcT   s22_fcC   s12_fcS
                   (m)         (m/m)         (m/m)         (rad)          (Pa)          (Pa)          (Pa)       (-)       (-)       (-)       (-)       (-)
                0.0000  -3.3983e-004   1.4989e-004   1.1556e-004  -4.9445e+006  -3.7380e+005   1.3867e+006    0.0000    0.0232    0.0000    0.0000    0.0154
                0.1690  -3.4840e-004   1.5368e-004   1.1205e-004  -5.0692e+006  -3.8308e+005   1.3446e+006    0.0000    0.0238    0.0000    0.0000    0.0149
                0.3381  -3.5698e-004   1.5747e-004   1.0846e-004  -5.1938e+006  -3.9235e+005   1.3015e+006    0.0000    0.0244    0.0000    0.0000    0.0145
                0.5071  -3.6555e-004   1.6126e-004   1.0478e-004  -5.3185e+006  -4.0163e+005   1.2573e+006    0.0000    0.0250    0.0000    0.0000    0.0140
                0.6761  -3.7413e-004   1.6505e-004   1.0101e-004  -5.4432e+006  -4.1091e+005   1.2122e+006    0.0000    0.0256    0.0000    0.0000    0.0135
                0.8451  -3.8270e-004   1.6884e-004   9.7164e-005  -5.5679e+006  -4.2019e+005   1.1660e+006    0.0000    0.0261    0.0000    0.0000    0.0130
                1.0142  -3.9128e-004   1.7263e-004   9.3228e-005  -5.6926e+006  -4.2947e+005   1.1187e+006    0.0000    0.0267    0.0000    0.0000    0.0124
                1.1832  -3.9985e-004   1.7642e-004   8.9208e-005  -5.8173e+006  -4.3875e+005   1.0705e+006    0.0000    0.0273    0.0000    0.0000    0.0119
                1.3522  -4.0843e-004   1.8021e-004   8.5103e-005  -5.9420e+006  -4.4803e+005   1.0212e+006    0.0000    0.0279    0.0000    0.0000    0.0113
                1.5213  -4.1700e-004   1.8400e-004   8.0913e-005  -6.0667e+006  -4.5731e+005   9.7095e+005    0.0000    0.0285    0.0000    0.0000    0.0108

================================================================================
sec        =  12     
zSec       =  17.8000  (m)
nPanelsTop =  5      
nPanelsBot =  5      
nWebs      =  3      

    Top:  panel  nNode   nLam     xc_St    xc_End         b         t         E_eff         G_eff      nu_eff     density  buckleCrit
            (-)    (-)    (-)       (-)       (-)       (m)       (m)          (Pa)          (Pa)         (-)    (kg/m^3)         (-)
              1     12      5    0.0000    0.2935    2.9238    0.0798   9.2005e+009   2.2692e+009      0.3962    731.6799      0.0001
              2      6      7    0.2935    0.4885    1.4633    0.1484   3.9603e+010   3.6935e+009      0.3018   1907.8426      0.0000
              3      2      5    0.4885    0.4894    0.0073    0.0798   9.2005e+009   2.2692e+009      0.3962    731.6799      0.0000
              4      7      5    0.4894    0.7313    1.8970    0.0798   9.2005e+009   2.2692e+009      0.3962    731.6799      0.0320
              5     12      5    0.7313    1.0000    2.1913    0.0798   9.2005e+009   2.2692e+009      0.3962    731.6799      0.0922

            panel:  1     
           lam_num    nPlies        tPly      fibAng     matID  matName
               (-)       (-)         (m)       (deg)       (-)  (-)
                 1         1    0.005000      0.0000         2  (blade-shell)
                 2         1    0.007861      0.0000         1  (blade-root)
                 3         1    0.054104      0.0000         5  (LEP-core)
                 4         1    0.007861      0.0000         1  (blade-root)
                 5         1    0.005000      0.0000         2  (blade-shell)

               lamina:  1     
              matName:  (blade-shell)
                     s           e11           e22           e12           s11           s22           s12   s11_fcT   s11_fcC   s22_fcT   s22_fcC   s12_fcS
                   (m)         (m/m)         (m/m)         (rad)          (Pa)          (Pa)          (Pa)       (-)       (-)       (-)       (-)       (-)
                0.0000   7.8409e-004  -3.1070e-004   7.6356e-005   2.1973e+007   4.4697e+004   5.3449e+005    0.1526   -0.0000    0.0000   -0.0000    0.0089
                0.1918   7.9118e-004  -3.1351e-004   5.5306e-005   2.2171e+007   4.5101e+004   3.8714e+005    0.1540   -0.0000    0.0000   -0.0000    0.0065
                0.4158   7.9000e-004  -3.1304e-004   3.0622e-005   2.2138e+007   4.5036e+004   2.1435e+005    0.1537   -0.0000    0.0000   -0.0000    0.0036
                0.6358   7.7766e-004  -3.0815e-004   6.5892e-006   2.1792e+007   4.4348e+004   4.6124e+004    0.1513   -0.0000    0.0000   -0.0000    0.0008
                0.8661   7.5488e-004  -2.9912e-004   1.8030e-005   2.1154e+007   4.3069e+004   1.2621e+005    0.1469   -0.0000    0.0000   -0.0000    0.0021
                1.1138   7.2223e-004  -2.8618e-004   4.3564e-005   2.0239e+007   4.1229e+004   3.0495e+005    0.1405   -0.0000    0.0000   -0.0000    0.0051
                1.3760   6.7961e-004  -2.6929e-004   6.9229e-005   1.9045e+007   3.8822e+004   4.8461e+005    0.1323   -0.0000    0.0000   -0.0000    0.0081
                1.6546   6.2746e-004  -2.4863e-004   9.4685e-005   1.7583e+007   3.5865e+004   6.6279e+005    0.1221   -0.0000    0.0000   -0.0000    0.0110
                1.9517   5.6646e-004  -2.2445e-004   1.1949e-004   1.5874e+007   3.2399e+004   8.3646e+005    0.1102   -0.0000    0.0000   -0.0000    0.0139
                2.2652   4.9683e-004  -1.9686e-004   1.4284e-004   1.3923e+007   2.8437e+004   9.9985e+005    0.0967   -0.0000    0.0000   -0.0000    0.0167
                2.5966   4.1944e-004  -1.6620e-004   1.6411e-004   1.1754e+007   2.4022e+004   1.1488e+006    0.0816   -0.0000    0.0000   -0.0000    0.0191
                2.9238   3.4085e-004  -1.3506e-004   1.8155e-004   9.5517e+006   1.9509e+004   1.2708e+006    0.0663   -0.0000    0.0000   -0.0000    0.0212

               lamina:  2     
              matName:  (blade-root)
                     s           e11           e22           e12           s11           s22           s12   s11_fcT   s11_fcC   s22_fcT   s22_fcC   s12_fcS
                   (m)         (m/m)         (m/m)         (rad)          (Pa)          (Pa)          (Pa)       (-)       (-)       (-)       (-)       (-)
                0.0000   7.8233e-004  -3.1000e-004   7.6356e-005   2.1923e+007   4.4674e+004   5.3449e+005    0.1522   -0.0000    0.0000   -0.0000    0.0089
                0.1918   7.8940e-004  -3.1280e-004   5.5306e-005   2.2121e+007   4.5078e+004   3.8714e+005    0.1536   -0.0000    0.0000   -0.0000    0.0065
                0.4158   7.8822e-004  -3.1233e-004   3.0622e-005   2.2088e+007   4.5013e+004   2.1435e+005    0.1534   -0.0000    0.0000   -0.0000    0.0036
                0.6358   7.7596e-004  -3.0747e-004   6.5892e-006   2.1745e+007   4.4326e+004   4.6124e+004    0.1510   -0.0000    0.0000   -0.0000    0.0008
                0.8661   7.5329e-004  -2.9849e-004   1.8030e-005   2.1109e+007   4.3049e+004   1.2621e+005    0.1466   -0.0000    0.0000   -0.0000    0.0021
                1.1138   7.2077e-004  -2.8560e-004   4.3564e-005   2.0198e+007   4.1210e+004   3.0495e+005    0.1403   -0.0000    0.0000   -0.0000    0.0051
                1.3760   6.7831e-004  -2.6877e-004   6.9229e-005   1.9008e+007   3.8805e+004   4.8461e+005    0.1320   -0.0000    0.0000   -0.0000    0.0081
                1.6546   6.2631e-004  -2.4817e-004   9.4685e-005   1.7551e+007   3.5850e+004   6.6279e+005    0.1219   -0.0000    0.0000   -0.0000    0.0110
                1.9517   5.6548e-004  -2.2407e-004   1.1949e-004   1.5846e+007   3.2387e+004   8.3646e+005    0.1100   -0.0000    0.0000   -0.0000    0.0139
                2.2652   4.9603e-004  -1.9654e-004   1.4284e-004   1.3900e+007   2.8427e+004   9.9985e+005    0.0965   -0.0000    0.0000   -0.0000    0.0167
                2.5966   4.1881e-004  -1.6595e-004   1.6411e-004   1.1736e+007   2.4014e+004   1.1488e+006    0.0815   -0.0000    0.0000   -0.0000    0.0191
                2.9238   3.4030e-004  -1.3484e-004   1.8155e-004   9.5363e+006   1.9501e+004   1.2708e+006    0.0662   -0.0000    0.0000   -0.0000    0.0212

               lamina:  3     
              matName:  (LEP-core)
                     s           e11           e22           e12           s11           s22           s12   s11_fcT   s11_fcC   s22_fcT   s22_fcC   s12_fcS
                   (m)         (m/m)         (m/m)         (rad)          (Pa)          (Pa)          (Pa)       (-)       (-)       (-)       (-)       (-)
                0.0000   7.7955e-004  -3.0889e-004   7.6356e-005   1.9625e+005  -2.1435e+004   1.5271e+003    0.0000   -0.0000    0.0000    0.0000    0.0000
                0.1918   7.8660e-004  -3.1168e-004   5.5306e-005   1.9803e+005  -2.1629e+004   1.1061e+003    0.0000   -0.0000    0.0000    0.0000    0.0000
                0.4158   7.8544e-004  -3.1122e-004   3.0622e-005   1.9774e+005  -2.1597e+004   6.1244e+002    0.0000   -0.0000    0.0000    0.0000    0.0000
                0.6358   7.7329e-004  -3.0640e-004   6.5892e-006   1.9468e+005  -2.1262e+004   1.3178e+002    0.0000   -0.0000    0.0000    0.0000    0.0000
                0.8661   7.5078e-004  -2.9748e-004   1.8030e-005   1.8901e+005  -2.0643e+004   3.6060e+002    0.0000   -0.0000    0.0000    0.0000    0.0000
                1.1138   7.1847e-004  -2.8468e-004   4.3564e-005   1.8088e+005  -1.9754e+004   8.7128e+002    0.0000   -0.0000    0.0000    0.0000    0.0000
                1.3760   6.7626e-004  -2.6795e-004   6.9229e-005   1.7025e+005  -1.8594e+004   1.3846e+003    0.0000   -0.0000    0.0000    0.0000    0.0000
                1.6546   6.2452e-004  -2.4745e-004   9.4685e-005   1.5722e+005  -1.7171e+004   1.8937e+003    0.0000   -0.0000    0.0000    0.0000    0.0000
                1.9517   5.6395e-004  -2.2345e-004   1.1949e-004   1.4198e+005  -1.5505e+004   2.3899e+003    0.0000   -0.0000    0.0000    0.0000    0.0000
                2.2652   4.9478e-004  -1.9605e-004   1.4284e-004   1.2456e+005  -1.3603e+004   2.8567e+003    0.0000   -0.0000    0.0000    0.0000    0.0000
                2.5966   4.1782e-004  -1.6555e-004   1.6411e-004   1.0519e+005  -1.1487e+004   3.2823e+003    0.0000   -0.0000    0.0000    0.0000    0.0000
                2.9238   3.3944e-004  -1.3450e-004   1.8155e-004   8.5455e+004  -9.3323e+003   3.6310e+003    0.0000   -0.0000    0.0000    0.0000    0.0000

               lamina:  4     
              matName:  (blade-root)
                     s           e11           e22           e12           s11           s22           s12   s11_fcT   s11_fcC   s22_fcT   s22_fcC   s12_fcS
                   (m)         (m/m)         (m/m)         (rad)          (Pa)          (Pa)          (Pa)       (-)       (-)       (-)       (-)       (-)
                0.0000   7.6045e-004  -3.0126e-004   7.6356e-005   2.1310e+007   4.4394e+004   5.3449e+005    0.1480   -0.0000    0.0000   -0.0000    0.0089
                0.1918   7.6733e-004  -3.0399e-004   5.5306e-005   2.1503e+007   4.4795e+004   3.8714e+005    0.1493   -0.0000    0.0000   -0.0000    0.0065
                0.4158   7.6627e-004  -3.0357e-004   3.0622e-005   2.1473e+007   4.4732e+004   2.1435e+005    0.1491   -0.0000    0.0000   -0.0000    0.0036
                0.6358   7.5487e-004  -2.9905e-004   6.5892e-006   2.1154e+007   4.4056e+004   4.6124e+004    0.1469   -0.0000    0.0000   -0.0000    0.0008
                0.8661   7.3352e-004  -2.9060e-004   1.8030e-005   2.0556e+007   4.2796e+004   1.2621e+005    0.1427   -0.0000    0.0000   -0.0000    0.0021
                1.1138   7.0265e-004  -2.7837e-004   4.3564e-005   1.9691e+007   4.0978e+004   3.0495e+005    0.1367   -0.0000    0.0000   -0.0000    0.0051
                1.3760   6.6215e-004  -2.6232e-004   6.9229e-005   1.8556e+007   3.8599e+004   4.8461e+005    0.1289   -0.0000    0.0000   -0.0000    0.0081
                1.6546   6.1216e-004  -2.4252e-004   9.4685e-005   1.7155e+007   3.5669e+004   6.6279e+005    0.1191   -0.0000    0.0000   -0.0000    0.0110
                1.9517   5.5343e-004  -2.1925e-004   1.1949e-004   1.5509e+007   3.2232e+004   8.3646e+005    0.1077   -0.0000    0.0000   -0.0000    0.0139
                2.2652   4.8617e-004  -1.9261e-004   1.4284e-004   1.3624e+007   2.8301e+004   9.9985e+005    0.0946   -0.0000    0.0000   -0.0000    0.0167
                2.5966   4.1098e-004  -1.6282e-004   1.6411e-004   1.1517e+007   2.3914e+004   1.1488e+006    0.0800   -0.0000    0.0000   -0.0000    0.0191
                2.9238   3.3350e-004  -1.3212e-004   1.8155e-004   9.3457e+006   1.9414e+004   1.2708e+006    0.0649   -0.0000    0.0000   -0.0000    0.0212

               lamina:  5     
              matName:  (blade-shell)
                     s           e11           e22           e12           s11           s22           s12   s11_fcT   s11_fcC   s22_fcT   s22_fcC   s12_fcS
                   (m)         (m/m)         (m/m)         (rad)          (Pa)          (Pa)          (Pa)       (-)       (-)       (-)       (-)       (-)
                0.0000   7.5768e-004  -3.0016e-004   7.6356e-005   2.1233e+007   4.4358e+004   5.3449e+005    0.1474   -0.0000    0.0000   -0.0000    0.0089
                0.1918   7.6453e-004  -3.0287e-004   5.5306e-005   2.1425e+007   4.4759e+004   3.8714e+005    0.1488   -0.0000    0.0000   -0.0000    0.0065
                0.4158   7.6348e-004  -3.0246e-004   3.0622e-005   2.1395e+007   4.4696e+004   2.1435e+005    0.1486   -0.0000    0.0000   -0.0000    0.0036
                0.6358   7.5220e-004  -2.9799e-004   6.5892e-006   2.1079e+007   4.4022e+004   4.6124e+004    0.1464   -0.0000    0.0000   -0.0000    0.0008
                0.8661   7.3102e-004  -2.8960e-004   1.8030e-005   2.0486e+007   4.2764e+004   1.2621e+005    0.1423   -0.0000    0.0000   -0.0000    0.0021
                1.1138   7.0035e-004  -2.7745e-004   4.3564e-005   1.9626e+007   4.0949e+004   3.0495e+005    0.1363   -0.0000    0.0000   -0.0000    0.0051
                1.3760   6.6010e-004  -2.6151e-004   6.9229e-005   1.8498e+007   3.8572e+004   4.8461e+005    0.1285   -0.0000    0.0000   -0.0000    0.0081
                1.6546   6.1036e-004  -2.4180e-004   9.4685e-005   1.7104e+007   3.5646e+004   6.6279e+005    0.1188   -0.0000    0.0000   -0.0000    0.0110
                1.9517   5.5190e-004  -2.1864e-004   1.1949e-004   1.5466e+007   3.2213e+004   8.3646e+005    0.1074   -0.0000    0.0000   -0.0000    0.0139
                2.2652   4.8492e-004  -1.9211e-004   1.4284e-004   1.3589e+007   2.8285e+004   9.9985e+005    0.0944   -0.0000    0.0000   -0.0000    0.0167
                2.5966   4.0999e-004  -1.6243e-004   1.6411e-004   1.1489e+007   2.3901e+004   1.1488e+006    0.0798   -0.0000    0.0000   -0.0000    0.0191
                2.9238   3.3264e-004  -1.3178e-004   1.8155e-004   9.3216e+006   1.9403e+004   1.2708e+006    0.0647   -0.0000    0.0000   -0.0000    0.0212

            panel:  2     
           lam_num    nPlies        tPly      fibAng     matID  matName
               (-)       (-)         (m)       (deg)       (-)  (-)
                 1         1    0.005000      0.0000         2  (blade-shell)
                 2         1    0.007861      0.0000         1  (blade-root)
                 3         1    0.061318      0.0000         3  (spar-uni)
                 4         1    0.000002      0.0000         4  (spar-core)
                 5         1    0.061318      0.0000         3  (spar-uni)
                 6         1    0.007861      0.0000         1  (blade-root)
                 7         1    0.005000      0.0000         2  (blade-shell)

               lamina:  1     
              matName:  (blade-shell)
                     s           e11           e22           e12           s11           s22           s12   s11_fcT   s11_fcC   s22_fcT   s22_fcC   s12_fcS
                   (m)         (m/m)         (m/m)         (rad)          (Pa)          (Pa)          (Pa)       (-)       (-)       (-)       (-)       (-)
                0.0000   3.5271e-004  -1.0705e-004   5.2964e-005   1.0083e+007   5.1783e+005   3.7075e+005    0.0700   -0.0000    0.0000   -0.0000    0.0062
                0.0173   3.4378e-004  -1.0420e-004   5.5114e-005   9.8286e+006   5.0685e+005   3.8580e+005    0.0683   -0.0000    0.0000   -0.0000    0.0064
                0.3833   2.5226e-004  -7.6510e-005   9.4273e-005   7.2116e+006   3.7119e+005   6.5991e+005    0.0501   -0.0000    0.0000   -0.0000    0.0110
                0.7617   1.5514e-004  -4.7084e-005   1.2179e-004   4.4351e+006   2.2784e+005   8.5252e+005    0.0308   -0.0000    0.0000   -0.0000    0.0142
                1.1521   5.4871e-005  -1.6723e-005   1.3621e-004   1.5682e+006   7.9519e+004   9.5345e+005    0.0109   -0.0000    0.0000   -0.0000    0.0159
                1.4633  -2.4854e-005   7.4014e-006   1.3748e-004  -7.1138e+005  -3.8657e+004   9.6238e+005    0.0000    0.0033    0.0000    0.0000    0.0160

               lamina:  2     
              matName:  (blade-root)
                     s           e11           e22           e12           s11           s22           s12   s11_fcT   s11_fcC   s22_fcT   s22_fcC   s12_fcS
                   (m)         (m/m)         (m/m)         (rad)          (Pa)          (Pa)          (Pa)       (-)       (-)       (-)       (-)       (-)
                0.0000   3.5144e-004  -1.0663e-004   5.2964e-005   1.0047e+007   5.1655e+005   3.7075e+005    0.0698   -0.0000    0.0000   -0.0000    0.0062
                0.0173   3.4283e-004  -1.0389e-004   5.5114e-005   9.8017e+006   5.0590e+005   3.8580e+005    0.0681   -0.0000    0.0000   -0.0000    0.0064
                0.3833   2.5146e-004  -7.6245e-005   9.4273e-005   7.1891e+006   3.7039e+005   6.5991e+005    0.0499   -0.0000    0.0000   -0.0000    0.0110
                0.7617   1.5459e-004  -4.6900e-005   1.2179e-004   4.4195e+006   2.2729e+005   8.5252e+005    0.0307   -0.0000    0.0000   -0.0000    0.0142
                1.1521   5.4530e-005  -1.6609e-005   1.3621e-004   1.5585e+006   7.9175e+004   9.5345e+005    0.0108   -0.0000    0.0000   -0.0000    0.0159
                1.4633  -2.5207e-005   7.5192e-006   1.3748e-004  -7.2141e+005  -3.9012e+004   9.6238e+005    0.0000    0.0034    0.0000    0.0000    0.0160

               lamina:  3     
              matName:  (spar-uni)
                     s           e11           e22           e12           s11           s22           s12   s11_fcT   s11_fcC   s22_fcT   s22_fcC   s12_fcS
                   (m)         (m/m)         (m/m)         (rad)          (Pa)          (Pa)          (Pa)       (-)       (-)       (-)       (-)       (-)
                0.0000   3.4944e-004  -1.0596e-004   5.2964e-005   1.4644e+007  -1.1673e+005   1.5889e+005    0.0151   -0.0000    0.0000    0.0000    0.0053
                0.0173   3.4134e-004  -1.0339e-004   5.5114e-005   1.4305e+007  -1.1234e+005   1.6534e+005    0.0147   -0.0000    0.0000    0.0000    0.0055
                0.3833   2.5021e-004  -7.5827e-005   9.4273e-005   1.0486e+007  -8.2923e+004   2.8282e+005    0.0108   -0.0000    0.0000    0.0000    0.0094
                0.7617   1.5373e-004  -4.6611e-005   1.2179e-004   6.4421e+006  -5.1295e+004   3.6537e+005    0.0066   -0.0000    0.0000    0.0000    0.0122
                1.1521   5.3992e-005  -1.6430e-005   1.3621e-004   2.2624e+006  -1.8856e+004   4.0862e+005    0.0023   -0.0000    0.0000    0.0000    0.0136
                1.4633  -2.7960e-005   8.4385e-006   1.3748e-004  -1.1719e+006   8.7635e+003   4.1245e+005    0.0000    0.0017    0.0000   -0.0000    0.0137

               lamina:  4     
              matName:  (spar-core)
                     s           e11           e22           e12           s11           s22           s12   s11_fcT   s11_fcC   s22_fcT   s22_fcC   s12_fcS
                   (m)         (m/m)         (m/m)         (rad)          (Pa)          (Pa)          (Pa)       (-)       (-)       (-)       (-)       (-)
                0.0000   3.3383e-004  -1.0075e-004   5.2964e-005   8.6744e+004  -1.7193e+002   1.0593e+003    0.0000   -0.0000    0.0000    0.0000    0.0000
                0.0173   3.2974e-004  -9.9515e-005   5.5114e-005   8.5681e+004  -1.6982e+002   1.1023e+003    0.0000   -0.0000    0.0000    0.0000    0.0000
                0.3833   2.4046e-004  -7.2572e-005   9.4273e-005   6.2483e+004  -1.2384e+002   1.8855e+003    0.0000   -0.0000    0.0000    0.0000    0.0000
                0.7617   1.4698e-004  -4.4359e-005   1.2179e-004   3.8192e+004  -7.5700e+001   2.4358e+003    0.0000   -0.0000    0.0000    0.0000    0.0000
                1.1521   4.9803e-005  -1.5031e-005   1.3621e-004   1.2941e+004  -2.5650e+001   2.7241e+003    0.0000   -0.0000    0.0000    0.0000    0.0000
                1.4633  -2.7960e-005   8.4385e-006   1.3748e-004  -7.2653e+003   1.4401e+001   2.7497e+003    0.0000    0.0000    0.0000   -0.0000    0.0000

               lamina:  5     
              matName:  (spar-uni)
                     s           e11           e22           e12           s11           s22           s12   s11_fcT   s11_fcC   s22_fcT   s22_fcC   s12_fcS
                   (m)         (m/m)         (m/m)         (rad)          (Pa)          (Pa)          (Pa)       (-)       (-)       (-)       (-)       (-)
                0.0000   3.3383e-004  -1.0075e-004   5.2964e-005   1.3992e+007  -1.0463e+005   1.5889e+005    0.0144   -0.0000    0.0000    0.0000    0.0053
                0.0173   3.2974e-004  -9.9515e-005   5.5114e-005   1.3820e+007  -1.0335e+005   1.6534e+005    0.0142   -0.0000    0.0000    0.0000    0.0055
                0.3833   2.4046e-004  -7.2571e-005   9.4273e-005   1.0078e+007  -7.5367e+004   2.8282e+005    0.0104   -0.0000    0.0000    0.0000    0.0094
                0.7617   1.4698e-004  -4.4359e-005   1.2179e-004   6.1603e+006  -4.6068e+004   3.6537e+005    0.0063   -0.0000    0.0000    0.0000    0.0122
                1.1521   4.9803e-005  -1.5031e-005   1.3621e-004   2.0874e+006  -1.5610e+004   4.0862e+005    0.0021   -0.0000    0.0000    0.0000    0.0136
                1.4633  -3.0713e-005   9.3577e-006   1.3748e-004  -1.2869e+006   1.0897e+004   4.1245e+005    0.0000    0.0018    0.0000   -0.0000    0.0137

               lamina:  6     
              matName:  (blade-root)
                     s           e11           e22           e12           s11           s22           s12   s11_fcT   s11_fcC   s22_fcT   s22_fcC   s12_fcS
                   (m)         (m/m)         (m/m)         (rad)          (Pa)          (Pa)          (Pa)       (-)       (-)       (-)       (-)       (-)
                0.0000   3.1822e-004  -9.5540e-005   5.2964e-005   9.1035e+006   4.8315e+005   3.7075e+005    0.0632   -0.0000    0.0000   -0.0000    0.0062
                0.0173   3.1813e-004  -9.5640e-005   5.5114e-005   9.1000e+006   4.8105e+005   3.8580e+005    0.0632   -0.0000    0.0000   -0.0000    0.0064
                0.3833   2.3071e-004  -6.9316e-005   9.4273e-005   6.5997e+006   3.4951e+005   6.5991e+005    0.0458   -0.0000    0.0000   -0.0000    0.0110
                0.7617   1.4024e-004  -4.2107e-005   1.2179e-004   4.0117e+006   2.1285e+005   8.5252e+005    0.0279   -0.0000    0.0000   -0.0000    0.0142
                1.1521   4.5614e-005  -1.3632e-005   1.3621e-004   1.3053e+006   7.0207e+004   9.5345e+005    0.0091   -0.0000    0.0000   -0.0000    0.0159
                1.4633  -3.1066e-005   9.4755e-006   1.3748e-004  -8.8781e+005  -4.4905e+004   9.6238e+005    0.0000    0.0042    0.0000    0.0000    0.0160

               lamina:  7     
              matName:  (blade-shell)
                     s           e11           e22           e12           s11           s22           s12   s11_fcT   s11_fcC   s22_fcT   s22_fcC   s12_fcS
                   (m)         (m/m)         (m/m)         (rad)          (Pa)          (Pa)          (Pa)       (-)       (-)       (-)       (-)       (-)
                0.0000   3.1622e-004  -9.4872e-005   5.2964e-005   9.0467e+006   4.8114e+005   3.7075e+005    0.0628   -0.0000    0.0000   -0.0000    0.0062
                0.0173   3.1664e-004  -9.5143e-005   5.5114e-005   9.0578e+006   4.7956e+005   3.8580e+005    0.0629   -0.0000    0.0000   -0.0000    0.0064
                0.3833   2.2946e-004  -6.8898e-005   9.4273e-005   6.5642e+006   3.4826e+005   6.5991e+005    0.0456   -0.0000    0.0000   -0.0000    0.0110
                0.7617   1.3937e-004  -4.1818e-005   1.2179e-004   3.9872e+006   2.1198e+005   8.5252e+005    0.0277   -0.0000    0.0000   -0.0000    0.0142
                1.1521   4.5077e-005  -1.3452e-005   1.3621e-004   1.2900e+006   6.9667e+004   9.5345e+005    0.0090   -0.0000    0.0000   -0.0000    0.0159
                1.4633  -3.1291e-005   9.5505e-006   1.3748e-004  -8.9419e+005  -4.5131e+004   9.6238e+005    0.0000    0.0042    0.0000    0.0000    0.0160

            panel:  3     
           lam_num    nPlies        tPly      fibAng     matID  matName
               (-)       (-)         (m)       (deg)       (-)  (-)
                 1         1    0.005000      0.0000         2  (blade-shell)
                 2         1    0.007861      0.0000         1  (blade-root)
                 3         1    0.054104      0.0000         6  (TEP-core)
                 4         1    0.007861      0.0000         1  (blade-root)
                 5         1    0.005000      0.0000         2  (blade-shell)

               lamina:  1     
              matName:  (blade-shell)
                     s           e11           e22           e12           s11           s22           s12   s11_fcT   s11_fcC   s22_fcT   s22_fcC   s12_fcS
                   (m)         (m/m)         (m/m)         (rad)          (Pa)          (Pa)          (Pa)       (-)       (-)       (-)       (-)       (-)
                0.0000  -2.6818e-005   1.0623e-005   4.1590e-004  -7.5155e+005  -1.5809e+003   2.9113e+006    0.0000    0.0035    0.0000    0.0000    0.0485
                0.0073  -2.8655e-005   1.1351e-005   4.1587e-004  -8.0300e+005  -1.6870e+003   2.9111e+006    0.0000    0.0038    0.0000    0.0000    0.0485

               lamina:  2     
              matName:  (blade-root)
                     s           e11           e22           e12           s11           s22           s12   s11_fcT   s11_fcC   s22_fcT   s22_fcC   s12_fcS
                   (m)         (m/m)         (m/m)         (rad)          (Pa)          (Pa)          (Pa)       (-)       (-)       (-)       (-)       (-)
                0.0000  -2.6971e-005   1.0684e-005   4.1590e-004  -7.5581e+005  -1.5828e+003   2.9113e+006    0.0000    0.0035    0.0000    0.0000    0.0485
                0.0073  -2.8807e-005   1.1412e-005   4.1587e-004  -8.0727e+005  -1.6890e+003   2.9111e+006    0.0000    0.0038    0.0000    0.0000    0.0485

               lamina:  3     
              matName:  (TEP-core)
                     s           e11           e22           e12           s11           s22           s12   s11_fcT   s11_fcC   s22_fcT   s22_fcC   s12_fcS
                   (m)         (m/m)         (m/m)         (rad)          (Pa)          (Pa)          (Pa)       (-)       (-)       (-)       (-)       (-)
                0.0000  -2.8019e-005   1.1103e-005   4.1590e-004  -7.0537e+003   7.7056e+002   8.3180e+003    0.0000    0.0000    0.0000   -0.0000    0.0000
                0.0073  -2.9855e-005   1.1830e-005   4.1587e-004  -7.5159e+003   8.2103e+002   8.3174e+003    0.0000    0.0000    0.0000   -0.0000    0.0000

               lamina:  4     
              matName:  (blade-root)
                     s           e11           e22           e12           s11           s22           s12   s11_fcT   s11_fcC   s22_fcT   s22_fcC   s12_fcS
                   (m)         (m/m)         (m/m)         (rad)          (Pa)          (Pa)          (Pa)       (-)       (-)       (-)       (-)       (-)
                0.0000  -2.8171e-005   1.1163e-005   4.1590e-004  -7.8942e+005  -1.5982e+003   2.9113e+006    0.0000    0.0037    0.0000    0.0000    0.0485
                0.0073  -3.0007e-005   1.1891e-005   4.1587e-004  -8.4088e+005  -1.7044e+003   2.9111e+006    0.0000    0.0039    0.0000    0.0000    0.0485

               lamina:  5     
              matName:  (blade-shell)
                     s           e11           e22           e12           s11           s22           s12   s11_fcT   s11_fcC   s22_fcT   s22_fcC   s12_fcS
                   (m)         (m/m)         (m/m)         (rad)          (Pa)          (Pa)          (Pa)       (-)       (-)       (-)       (-)       (-)
                0.0000  -2.8268e-005   1.1202e-005   4.1590e-004  -7.9213e+005  -1.5995e+003   2.9113e+006    0.0000    0.0037    0.0000    0.0000    0.0485
                0.0073  -3.0104e-005   1.1929e-005   4.1587e-004  -8.4359e+005  -1.7056e+003   2.9111e+006    0.0000    0.0040    0.0000    0.0000    0.0485

            panel:  4     
           lam_num    nPlies        tPly      fibAng     matID  matName
               (-)       (-)         (m)       (deg)       (-)  (-)
                 1         1    0.005000      0.0000         2  (blade-shell)
                 2         1    0.007861      0.0000         1  (blade-root)
                 3         1    0.054104      0.0000         6  (TEP-core)
                 4         1    0.007861      0.0000         1  (blade-root)
                 5         1    0.005000      0.0000         2  (blade-shell)

               lamina:  1     
              matName:  (blade-shell)
                     s           e11           e22           e12           s11           s22           s12   s11_fcT   s11_fcC   s22_fcT   s22_fcC   s12_fcS
                   (m)         (m/m)         (m/m)         (rad)          (Pa)          (Pa)          (Pa)       (-)       (-)       (-)       (-)       (-)
                0.0000  -2.8655e-005   1.1351e-005   3.8428e-004  -8.0300e+005  -1.6870e+003   2.6900e+006    0.0000    0.0038    0.0000    0.0000    0.0448
                0.0800  -4.9103e-005   1.9454e-005   3.8425e-004  -1.3760e+006  -2.8492e+003   2.6898e+006    0.0000    0.0065    0.0000    0.0000    0.0448
                0.4850  -1.5076e-004   5.9732e-005   3.8425e-004  -4.2248e+006  -8.7124e+003   2.6898e+006    0.0000    0.0198    0.0000    0.0000    0.0448
                0.8888  -2.5225e-004   9.9944e-005   3.8381e-004  -7.0689e+006  -1.4560e+004   2.6867e+006    0.0000    0.0332    0.0000    0.0000    0.0448
                1.2873  -3.5215e-004   1.3952e-004   3.7806e-004  -9.8683e+006  -2.0323e+004   2.6464e+006    0.0000    0.0463    0.0000    0.0000    0.0441
                1.6745  -4.4906e-004   1.7792e-004   3.6653e-004  -1.2584e+007  -2.5916e+004   2.5657e+006    0.0000    0.0591    0.0000    0.0000    0.0428
                1.8970  -5.0473e-004   1.9998e-004   3.4948e-004  -1.4144e+007  -2.9128e+004   2.4464e+006    0.0000    0.0664    0.0000    0.0000    0.0408

               lamina:  2     
              matName:  (blade-root)
                     s           e11           e22           e12           s11           s22           s12   s11_fcT   s11_fcC   s22_fcT   s22_fcC   s12_fcS
                   (m)         (m/m)         (m/m)         (rad)          (Pa)          (Pa)          (Pa)       (-)       (-)       (-)       (-)       (-)
                0.0000  -2.8807e-005   1.1412e-005   3.8428e-004  -8.0727e+005  -1.6890e+003   2.6900e+006    0.0000    0.0038    0.0000    0.0000    0.0448
                0.0800  -4.9155e-005   1.9475e-005   3.8425e-004  -1.3775e+006  -2.8498e+003   2.6898e+006    0.0000    0.0065    0.0000    0.0000    0.0448
                0.4850  -1.5075e-004   5.9728e-005   3.8425e-004  -4.2245e+006  -8.7122e+003   2.6898e+006    0.0000    0.0198    0.0000    0.0000    0.0448
                0.8888  -2.5219e-004   9.9918e-005   3.8381e-004  -7.0671e+006  -1.4560e+004   2.6867e+006    0.0000    0.0332    0.0000    0.0000    0.0448
                1.2873  -3.5205e-004   1.3948e-004   3.7806e-004  -9.8655e+006  -2.0321e+004   2.6464e+006    0.0000    0.0463    0.0000    0.0000    0.0441
                1.6745  -4.4894e-004   1.7787e-004   3.6653e-004  -1.2581e+007  -2.5915e+004   2.5657e+006    0.0000    0.0591    0.0000    0.0000    0.0428
                1.8970  -5.0459e-004   1.9992e-004   3.4948e-004  -1.4140e+007  -2.9126e+004   2.4464e+006    0.0000    0.0664    0.0000    0.0000    0.0408

               lamina:  3     
              matName:  (TEP-core)
                     s           e11           e22           e12           s11           s22           s12   s11_fcT   s11_fcC   s22_fcT   s22_fcC   s12_fcS
                   (m)         (m/m)         (m/m)         (rad)          (Pa)          (Pa)          (Pa)       (-)       (-)       (-)       (-)       (-)
                0.0000  -2.9855e-005   1.1830e-005   3.8428e-004  -7.5159e+003   8.2103e+002   7.6857e+003    0.0000    0.0000    0.0000   -0.0000    0.0000
                0.0800  -4.9512e-005   1.9617e-005   3.8425e-004  -1.2465e+004   1.3610e+003   7.6851e+003    0.0000    0.0000    0.0000   -0.0000    0.0000
                0.4850  -1.5074e-004   5.9722e-005   3.8425e-004  -3.7948e+004   4.1432e+003   7.6851e+003    0.0000    0.0000    0.0000   -0.0000    0.0000
                0.8888  -2.5209e-004   9.9878e-005   3.8381e-004  -6.3464e+004   6.9291e+003   7.6761e+003    0.0000    0.0000    0.0000   -0.0000    0.0000
                1.2873  -3.5189e-004   1.3942e-004   3.7806e-004  -8.8590e+004   9.6725e+003   7.5612e+003    0.0000    0.0000    0.0000   -0.0000    0.0000
                1.6745  -4.4874e-004   1.7779e-004   3.6653e-004  -1.1297e+005   1.2335e+004   7.3306e+003    0.0000    0.0000    0.0000   -0.0000    0.0000
                1.8970  -5.0436e-004   1.9983e-004   3.4948e-004  -1.2697e+005   1.3863e+004   6.9896e+003    0.0000    0.0000    0.0000   -0.0000    0.0000

               lamina:  4     
              matName:  (blade-root)
                     s           e11           e22           e12           s11           s22           s12   s11_fcT   s11_fcC   s22_fcT   s22_fcC   s12_fcS
                   (m)         (m/m)         (m/m)         (rad)          (Pa)          (Pa)          (Pa)       (-)       (-)       (-)       (-)       (-)
                0.0000  -3.0007e-005   1.1891e-005   3.8428e-004  -8.4088e+005  -1.7044e+003   2.6900e+006    0.0000    0.0039    0.0000    0.0000    0.0448
                0.0800  -4.9564e-005   1.9638e-005   3.8425e-004  -1.3889e+006  -2.8551e+003   2.6898e+006    0.0000    0.0065    0.0000    0.0000    0.0448
                0.4850  -1.5063e-004   5.9678e-005   3.8425e-004  -4.2210e+006  -8.7106e+003   2.6898e+006    0.0000    0.0198    0.0000    0.0000    0.0448
                0.8888  -2.5139e-004   9.9601e-005   3.8381e-004  -7.0448e+006  -1.4549e+004   2.6867e+006    0.0000    0.0331    0.0000    0.0000    0.0448
                1.2873  -3.5079e-004   1.3898e-004   3.7806e-004  -9.8303e+006  -2.0305e+004   2.6464e+006    0.0000    0.0462    0.0000    0.0000    0.0441
                1.6745  -4.4737e-004   1.7724e-004   3.6653e-004  -1.2537e+007  -2.5894e+004   2.5657e+006    0.0000    0.0589    0.0000    0.0000    0.0428
                1.8970  -5.0277e-004   1.9919e-004   3.4948e-004  -1.4089e+007  -2.9102e+004   2.4464e+006    0.0000    0.0661    0.0000    0.0000    0.0408

               lamina:  5     
              matName:  (blade-shell)
                     s           e11           e22           e12           s11           s22           s12   s11_fcT   s11_fcC   s22_fcT   s22_fcC   s12_fcS
                   (m)         (m/m)         (m/m)         (rad)          (Pa)          (Pa)          (Pa)       (-)       (-)       (-)       (-)       (-)
                0.0000  -3.0104e-005   1.1929e-005   3.8428e-004  -8.4359e+005  -1.7056e+003   2.6900e+006    0.0000    0.0040    0.0000    0.0000    0.0448
                0.0800  -4.9598e-005   1.9651e-005   3.8425e-004  -1.3899e+006  -2.8555e+003   2.6898e+006    0.0000    0.0065    0.0000    0.0000    0.0448
                0.4850  -1.5061e-004   5.9671e-005   3.8425e-004  -4.2205e+006  -8.7104e+003   2.6898e+006    0.0000    0.0198    0.0000    0.0000    0.0448
                0.8888  -2.5129e-004   9.9560e-005   3.8381e-004  -7.0420e+006  -1.4548e+004   2.6867e+006    0.0000    0.0331    0.0000    0.0000    0.0448
                1.2873  -3.5063e-004   1.3892e-004   3.7806e-004  -9.8259e+006  -2.0303e+004   2.6464e+006    0.0000    0.0461    0.0000    0.0000    0.0441
                1.6745  -4.4717e-004   1.7717e-004   3.6653e-004  -1.2531e+007  -2.5892e+004   2.5657e+006    0.0000    0.0588    0.0000    0.0000    0.0428
                1.8970  -5.0254e-004   1.9910e-004   3.4948e-004  -1.4083e+007  -2.9099e+004   2.4464e+006    0.0000    0.0661    0.0000    0.0000    0.0408

            panel:  5     
           lam_num    nPlies        tPly      fibAng     matID  matName
               (-)       (-)         (m)       (deg)       (-)  (-)
                 1         1    0.005000      0.0000         2  (blade-shell)
                 2         1    0.007861      0.0000         1  (blade-root)
                 3         1    0.054104      0.0000         6  (TEP-core)
                 4         1    0.007861      0.0000         1  (blade-root)
                 5         1    0.005000      0.0000         2  (blade-shell)

               lamina:  1     
              matName:  (blade-shell)
                     s           e11           e22           e12           s11           s22           s12   s11_fcT   s11_fcC   s22_fcT   s22_fcC   s12_fcS
                   (m)         (m/m)         (m/m)         (rad)          (Pa)          (Pa)          (Pa)       (-)       (-)       (-)       (-)       (-)
                0.0000  -5.0473e-004   1.9998e-004   3.2752e-004  -1.4144e+007  -2.9128e+004   2.2926e+006    0.0000    0.0664    0.0000    0.0000    0.0382
                0.1490  -5.4201e-004   2.1475e-004   3.1250e-004  -1.5189e+007  -3.1278e+004   2.1875e+006    0.0000    0.0713    0.0000    0.0000    0.0365
                0.5004  -6.2969e-004   2.4949e-004   2.7928e-004  -1.7646e+007  -3.6343e+004   1.9550e+006    0.0000    0.0828    0.0000    0.0000    0.0326
                0.8270  -7.1114e-004   2.8176e-004   2.6824e-004  -1.9928e+007  -4.1046e+004   1.8777e+006    0.0000    0.0936    0.0000    0.0000    0.0313
                1.1251  -7.8542e-004   3.1119e-004   2.3909e-004  -2.2010e+007  -4.5334e+004   1.6736e+006    0.0000    0.1033    0.0000    0.0000    0.0279
                1.3912  -8.5169e-004   3.3745e-004   2.0809e-004  -2.3867e+007  -4.9160e+004   1.4566e+006    0.0000    0.1121    0.0000    0.0000    0.0243
                1.6222  -9.0924e-004   3.6025e-004   1.7650e-004  -2.5480e+007  -5.2477e+004   1.2355e+006    0.0000    0.1196    0.0000    0.0000    0.0206
                1.8160  -9.5754e-004   3.7938e-004   1.4566e-004  -2.6833e+007  -5.5253e+004   1.0196e+006    0.0000    0.1260    0.0000    0.0000    0.0170
                1.9698  -9.9611e-004   3.9467e-004   1.1685e-004  -2.7914e+007  -5.7452e+004   8.1797e+005    0.0000    0.1311    0.0000    0.0000    0.0136
                2.0838  -1.0247e-003   4.0601e-004   9.1252e-005  -2.8716e+007  -5.9060e+004   6.3876e+005    0.0000    0.1348    0.0000    0.0000    0.0106
                2.1452  -1.0435e-003   4.1347e-004   6.9982e-005  -2.9243e+007  -5.9959e+004   4.8987e+005    0.0000    0.1373    0.0000    0.0000    0.0082
                2.1913  -1.0531e-003   4.1725e-004   5.3701e-005  -2.9510e+007  -6.0353e+004   3.7591e+005    0.0000    0.1385    0.0000    0.0000    0.0063

               lamina:  2     
              matName:  (blade-root)
                     s           e11           e22           e12           s11           s22           s12   s11_fcT   s11_fcC   s22_fcT   s22_fcC   s12_fcS
                   (m)         (m/m)         (m/m)         (rad)          (Pa)          (Pa)          (Pa)       (-)       (-)       (-)       (-)       (-)
                0.0000  -5.0459e-004   1.9992e-004   3.2752e-004  -1.4140e+007  -2.9126e+004   2.2926e+006    0.0000    0.0664    0.0000    0.0000    0.0382
                0.1490  -5.4185e-004   2.1469e-004   3.1250e-004  -1.5184e+007  -3.1276e+004   2.1875e+006    0.0000    0.0713    0.0000    0.0000    0.0365
                0.5004  -6.2952e-004   2.4942e-004   2.7928e-004  -1.7641e+007  -3.6340e+004   1.9550e+006    0.0000    0.0828    0.0000    0.0000    0.0326
                0.8270  -7.1095e-004   2.8168e-004   2.6824e-004  -1.9923e+007  -4.1043e+004   1.8777e+006    0.0000    0.0935    0.0000    0.0000    0.0313
                1.1251  -7.8521e-004   3.1111e-004   2.3909e-004  -2.2004e+007  -4.5332e+004   1.6736e+006    0.0000    0.1033    0.0000    0.0000    0.0279
                1.3912  -8.5147e-004   3.3736e-004   2.0809e-004  -2.3861e+007  -4.9157e+004   1.4566e+006    0.0000    0.1120    0.0000    0.0000    0.0243
                1.6222  -9.0899e-004   3.6015e-004   1.7650e-004  -2.5473e+007  -5.2474e+004   1.2355e+006    0.0000    0.1196    0.0000    0.0000    0.0206
                1.8160  -9.5724e-004   3.7927e-004   1.4566e-004  -2.6825e+007  -5.5250e+004   1.0196e+006    0.0000    0.1259    0.0000    0.0000    0.0170
                1.9698  -9.9573e-004   3.9452e-004   1.1685e-004  -2.7903e+007  -5.7447e+004   8.1797e+005    0.0000    0.1310    0.0000    0.0000    0.0136
                2.0838  -1.0242e-003   4.0581e-004   9.1252e-005  -2.8702e+007  -5.9054e+004   6.3876e+005    0.0000    0.1348    0.0000    0.0000    0.0106
                2.1452  -1.0425e-003   4.1306e-004   6.9982e-005  -2.9214e+007  -5.9946e+004   4.8987e+005    0.0000    0.1372    0.0000    0.0000    0.0082
                2.1913  -1.0516e-003   4.1667e-004   5.3701e-005  -2.9469e+007  -6.0334e+004   3.7591e+005    0.0000    0.1383    0.0000    0.0000    0.0063

               lamina:  3     
              matName:  (TEP-core)
                     s           e11           e22           e12           s11           s22           s12   s11_fcT   s11_fcC   s22_fcT   s22_fcC   s12_fcS
                   (m)         (m/m)         (m/m)         (rad)          (Pa)          (Pa)          (Pa)       (-)       (-)       (-)       (-)       (-)
                0.0000  -5.0436e-004   1.9983e-004   3.2752e-004  -1.2697e+005   1.3863e+004   6.5504e+003    0.0000    0.0000    0.0000   -0.0000    0.0000
                0.1490  -5.4160e-004   2.1459e-004   3.1250e-004  -1.3635e+005   1.4887e+004   6.2499e+003    0.0000    0.0000    0.0000   -0.0000    0.0000
                0.5004  -6.2925e-004   2.4931e-004   2.7928e-004  -1.5842e+005   1.7296e+004   5.5856e+003    0.0000    0.0000    0.0000   -0.0000    0.0000
                0.8270  -7.1065e-004   2.8156e-004   2.6824e-004  -1.7891e+005   1.9534e+004   5.3648e+003    0.0000    0.0000    0.0000   -0.0000    0.0000
                1.1251  -7.8489e-004   3.1098e-004   2.3909e-004  -1.9760e+005   2.1574e+004   4.7818e+003    0.0000    0.0000    0.0000   -0.0000    0.0000
                1.3912  -8.5112e-004   3.3722e-004   2.0809e-004  -2.1427e+005   2.3395e+004   4.1618e+003    0.0000    0.0000    0.0000   -0.0000    0.0000
                1.6222  -9.0861e-004   3.5999e-004   1.7650e-004  -2.2874e+005   2.4975e+004   3.5301e+003    0.0000    0.0000    0.0000   -0.0000    0.0000
                1.8160  -9.5679e-004   3.7908e-004   1.4566e-004  -2.4087e+005   2.6300e+004   2.9131e+003    0.0000    0.0000    0.0000   -0.0000    0.0000
                1.9698  -9.9514e-004   3.9428e-004   1.1685e-004  -2.5053e+005   2.7354e+004   2.3370e+003    0.0000    0.0000    0.0000   -0.0000    0.0000
                2.0838  -1.0234e-003   4.0549e-004   9.1252e-005  -2.5765e+005   2.8132e+004   1.8250e+003    0.0000    0.0000    0.0000   -0.0000    0.0000
                2.1452  -1.0409e-003   4.1241e-004   6.9982e-005  -2.6204e+005   2.8614e+004   1.3996e+003    0.0000    0.0000    0.0000   -0.0000    0.0000
                2.1913  -1.0493e-003   4.1575e-004   5.3701e-005  -2.6416e+005   2.8847e+004   1.0740e+003    0.0000    0.0000    0.0000   -0.0000    0.0000

               lamina:  4     
              matName:  (blade-root)
                     s           e11           e22           e12           s11           s22           s12   s11_fcT   s11_fcC   s22_fcT   s22_fcC   s12_fcS
                   (m)         (m/m)         (m/m)         (rad)          (Pa)          (Pa)          (Pa)       (-)       (-)       (-)       (-)       (-)
                0.0000  -5.0277e-004   1.9919e-004   3.2752e-004  -1.4089e+007  -2.9102e+004   2.2926e+006    0.0000    0.0661    0.0000    0.0000    0.0382
                0.1490  -5.3987e-004   2.1390e-004   3.1250e-004  -1.5129e+007  -3.1251e+004   2.1875e+006    0.0000    0.0710    0.0000    0.0000    0.0365
                0.5004  -6.2738e-004   2.4857e-004   2.7928e-004  -1.7581e+007  -3.6313e+004   1.9550e+006    0.0000    0.0825    0.0000    0.0000    0.0326
                0.8270  -7.0862e-004   2.8075e-004   2.6824e-004  -1.9858e+007  -4.1013e+004   1.8777e+006    0.0000    0.0932    0.0000    0.0000    0.0313
                1.1251  -7.8269e-004   3.1010e-004   2.3909e-004  -2.1934e+007  -4.5299e+004   1.6736e+006    0.0000    0.1030    0.0000    0.0000    0.0279
                1.3912  -8.4873e-004   3.3627e-004   2.0809e-004  -2.3784e+007  -4.9122e+004   1.4566e+006    0.0000    0.1117    0.0000    0.0000    0.0243
                1.6222  -9.0593e-004   3.5892e-004   1.7650e-004  -2.5387e+007  -5.2435e+004   1.2355e+006    0.0000    0.1192    0.0000    0.0000    0.0206
                1.8160  -9.5363e-004   3.7782e-004   1.4566e-004  -2.6724e+007  -5.5203e+004   1.0196e+006    0.0000    0.1255    0.0000    0.0000    0.0170
                1.9698  -9.9104e-004   3.9264e-004   1.1685e-004  -2.7772e+007  -5.7387e+004   8.1797e+005    0.0000    0.1304    0.0000    0.0000    0.0136
                2.0838  -1.0179e-003   4.0329e-004   9.1252e-005  -2.8525e+007  -5.8973e+004   6.3876e+005    0.0000    0.1339    0.0000    0.0000    0.0106
                2.1452  -1.0297e-003   4.0795e-004   6.9982e-005  -2.8856e+007  -5.9782e+004   4.8987e+005    0.0000    0.1355    0.0000    0.0000    0.0082
                2.1913  -1.0334e-003   4.0941e-004   5.3701e-005  -2.8959e+007  -6.0101e+004   3.7591e+005    0.0000    0.1360    0.0000    0.0000    0.0063

               lamina:  5     
              matName:  (blade-shell)
                     s           e11           e22           e12           s11           s22           s12   s11_fcT   s11_fcC   s22_fcT   s22_fcC   s12_fcS
                   (m)         (m/m)         (m/m)         (rad)          (Pa)          (Pa)          (Pa)       (-)       (-)       (-)       (-)       (-)
                0.0000  -5.0254e-004   1.9910e-004   3.2752e-004  -1.4083e+007  -2.9099e+004   2.2926e+006    0.0000    0.0661    0.0000    0.0000    0.0382
                0.1490  -5.3962e-004   2.1380e-004   3.1250e-004  -1.5122e+007  -3.1247e+004   2.1875e+006    0.0000    0.0710    0.0000    0.0000    0.0365
                0.5004  -6.2711e-004   2.4846e-004   2.7928e-004  -1.7574e+007  -3.6310e+004   1.9550e+006    0.0000    0.0825    0.0000    0.0000    0.0326
                0.8270  -7.0833e-004   2.8064e-004   2.6824e-004  -1.9850e+007  -4.1010e+004   1.8777e+006    0.0000    0.0932    0.0000    0.0000    0.0313
                1.1251  -7.8237e-004   3.0997e-004   2.3909e-004  -2.1925e+007  -4.5295e+004   1.6736e+006    0.0000    0.1029    0.0000    0.0000    0.0279
                1.3912  -8.4839e-004   3.3613e-004   2.0809e-004  -2.3775e+007  -4.9117e+004   1.4566e+006    0.0000    0.1116    0.0000    0.0000    0.0243
                1.6222  -9.0554e-004   3.5877e-004   1.7650e-004  -2.5376e+007  -5.2430e+004   1.2355e+006    0.0000    0.1191    0.0000    0.0000    0.0206
                1.8160  -9.5317e-004   3.7764e-004   1.4566e-004  -2.6711e+007  -5.5197e+004   1.0196e+006    0.0000    0.1254    0.0000    0.0000    0.0170
                1.9698  -9.9044e-004   3.9241e-004   1.1685e-004  -2.7755e+007  -5.7380e+004   8.1797e+005    0.0000    0.1303    0.0000    0.0000    0.0136
                2.0838  -1.0171e-003   4.0297e-004   9.1252e-005  -2.8503e+007  -5.8962e+004   6.3876e+005    0.0000    0.1338    0.0000    0.0000    0.0106
                2.1452  -1.0281e-003   4.0730e-004   6.9982e-005  -2.8810e+007  -5.9761e+004   4.8987e+005    0.0000    0.1353    0.0000    0.0000    0.0082
                2.1913  -1.0311e-003   4.0849e-004   5.3701e-005  -2.8895e+007  -6.0072e+004   3.7591e+005    0.0000    0.1357    0.0000    0.0000    0.0063

  Bottom:  panel  nNode   nLam     xc_St    xc_End         b         t         E_eff         G_eff      nu_eff     density  buckleCrit
            (-)    (-)    (-)       (-)       (-)       (m)       (m)          (Pa)          (Pa)         (-)    (kg/m^3)         (-)
              1     12      5    0.0000    0.2935    3.0107    0.0798   9.2005e+009   2.2692e+009      0.3962    731.6799      0.0005
              2      6      7    0.2935    0.4885    1.4817    0.1484   3.9603e+010   3.6935e+009      0.3018   1907.8426      0.0001
              3      2      5    0.4885    0.4894    0.0077    0.0798   9.2005e+009   2.2692e+009      0.3962    731.6799      0.0000
              4      7      5    0.4894    0.7313    1.9973    0.0798   9.2005e+009   2.2692e+009      0.3962    731.6799      0.0579
              5     12      5    0.7313    1.0000    2.1160    0.0798   9.2005e+009   2.2692e+009      0.3962    731.6799      0.0700

            panel:  1     
           lam_num    nPlies        tPly      fibAng     matID  matName
               (-)       (-)         (m)       (deg)       (-)  (-)
                 1         1    0.005000      0.0000         2  (blade-shell)
                 2         1    0.007861      0.0000         1  (blade-root)
                 3         1    0.054104      0.0000         5  (LEP-core)
                 4         1    0.007861      0.0000         1  (blade-root)
                 5         1    0.005000      0.0000         2  (blade-shell)

               lamina:  1     
              matName:  (blade-shell)
                     s           e11           e22           e12           s11           s22           s12   s11_fcT   s11_fcC   s22_fcT   s22_fcC   s12_fcS
                   (m)         (m/m)         (m/m)         (rad)          (Pa)          (Pa)          (Pa)       (-)       (-)       (-)       (-)       (-)
                0.0000   7.8387e-004  -3.1061e-004   7.6356e-005   2.1966e+007   4.4718e+004   5.3449e+005    0.1525   -0.0000    0.0000   -0.0000    0.0089
                0.1917   7.6665e-004  -3.0379e-004   9.7095e-005   2.1484e+007   4.3745e+004   6.7967e+005    0.1492   -0.0000    0.0000   -0.0000    0.0113
                0.4152   7.3755e-004  -2.9225e-004   1.2055e-004   2.0668e+007   4.2116e+004   8.4388e+005    0.1435   -0.0000    0.0000   -0.0000    0.0141
                0.6402   6.9937e-004  -2.7712e-004   1.4315e-004   1.9598e+007   3.9980e+004   1.0021e+006    0.1361   -0.0000    0.0000   -0.0000    0.0167
                0.8820   6.5203e-004  -2.5836e-004   1.6602e-004   1.8272e+007   3.7310e+004   1.1621e+006    0.1269   -0.0000    0.0000   -0.0000    0.0194
                1.1450   5.9575e-004  -2.3606e-004   1.8901e-004   1.6695e+007   3.4122e+004   1.3231e+006    0.1159   -0.0000    0.0000   -0.0000    0.0221
                1.4241   5.3163e-004  -2.1065e-004   2.1108e-004   1.4898e+007   3.0486e+004   1.4776e+006    0.1035   -0.0000    0.0000   -0.0000    0.0246
                1.7189   4.6053e-004  -1.8248e-004   2.3164e-004   1.2906e+007   2.6446e+004   1.6215e+006    0.0896   -0.0000    0.0000   -0.0000    0.0270
                2.0288   3.8331e-004  -1.5187e-004   2.5006e-004   1.0742e+007   2.2057e+004   1.7504e+006    0.0746   -0.0000    0.0000   -0.0000    0.0292
                2.3501   3.0143e-004  -1.1943e-004   2.6561e-004   8.4471e+006   1.7406e+004   1.8593e+006    0.0587   -0.0000    0.0000   -0.0000    0.0310
                2.6842   2.1611e-004  -8.5619e-005   2.7790e-004   6.0561e+006   1.2551e+004   1.9453e+006    0.0421   -0.0000    0.0000   -0.0000    0.0324
                3.0107   1.3476e-004  -5.3384e-005   2.8610e-004   3.7763e+006   7.8894e+003   2.0027e+006    0.0262   -0.0000    0.0000   -0.0000    0.0334

               lamina:  2     
              matName:  (blade-root)
                     s           e11           e22           e12           s11           s22           s12   s11_fcT   s11_fcC   s22_fcT   s22_fcC   s12_fcS
                   (m)         (m/m)         (m/m)         (rad)          (Pa)          (Pa)          (Pa)       (-)       (-)       (-)       (-)       (-)
                0.0000   7.8220e-004  -3.0994e-004   7.6356e-005   2.1919e+007   4.4696e+004   5.3449e+005    0.1522   -0.0000    0.0000   -0.0000    0.0089
                0.1917   7.6504e-004  -3.0314e-004   9.7095e-005   2.1439e+007   4.3724e+004   6.7967e+005    0.1489   -0.0000    0.0000   -0.0000    0.0113
                0.4152   7.3609e-004  -2.9167e-004   1.2055e-004   2.0627e+007   4.2098e+004   8.4388e+005    0.1432   -0.0000    0.0000   -0.0000    0.0141
                0.6402   6.9811e-004  -2.7662e-004   1.4315e-004   1.9563e+007   3.9964e+004   1.0021e+006    0.1359   -0.0000    0.0000   -0.0000    0.0167
                0.8820   6.5095e-004  -2.5793e-004   1.6602e-004   1.8242e+007   3.7296e+004   1.1621e+006    0.1267   -0.0000    0.0000   -0.0000    0.0194
                1.1450   5.9486e-004  -2.3570e-004   1.8901e-004   1.6670e+007   3.4111e+004   1.3231e+006    0.1158   -0.0000    0.0000   -0.0000    0.0221
                1.4241   5.3093e-004  -2.1037e-004   2.1108e-004   1.4878e+007   3.0477e+004   1.4776e+006    0.1033   -0.0000    0.0000   -0.0000    0.0246
                1.7189   4.6003e-004  -1.8228e-004   2.3164e-004   1.2892e+007   2.6439e+004   1.6215e+006    0.0895   -0.0000    0.0000   -0.0000    0.0270
                2.0288   3.8302e-004  -1.5176e-004   2.5006e-004   1.0733e+007   2.2053e+004   1.7504e+006    0.0745   -0.0000    0.0000   -0.0000    0.0292
                2.3501   3.0137e-004  -1.1941e-004   2.6561e-004   8.4454e+006   1.7405e+004   1.8593e+006    0.0586   -0.0000    0.0000   -0.0000    0.0310
                2.6842   2.1640e-004  -8.5733e-005   2.7790e-004   6.0641e+006   1.2555e+004   1.9453e+006    0.0421   -0.0000    0.0000   -0.0000    0.0324
                3.0107   1.3525e-004  -5.3581e-005   2.8610e-004   3.7902e+006   7.8957e+003   2.0027e+006    0.0263   -0.0000    0.0000   -0.0000    0.0334

               lamina:  3     
              matName:  (LEP-core)
                     s           e11           e22           e12           s11           s22           s12   s11_fcT   s11_fcC   s22_fcT   s22_fcC   s12_fcS
                   (m)         (m/m)         (m/m)         (rad)          (Pa)          (Pa)          (Pa)       (-)       (-)       (-)       (-)       (-)
                0.0000   7.7957e-004  -3.0889e-004   7.6356e-005   1.9626e+005  -2.1435e+004   1.5271e+003    0.0000   -0.0000    0.0000    0.0000    0.0000
                0.1917   7.6251e-004  -3.0213e-004   9.7095e-005   1.9196e+005  -2.0966e+004   1.9419e+003    0.0000   -0.0000    0.0000    0.0000    0.0000
                0.4152   7.3380e-004  -2.9075e-004   1.2055e-004   1.8473e+005  -2.0176e+004   2.4111e+003    0.0000   -0.0000    0.0000    0.0000    0.0000
                0.6402   6.9613e-004  -2.7583e-004   1.4315e-004   1.7525e+005  -1.9140e+004   2.8631e+003    0.0000   -0.0000    0.0000    0.0000    0.0000
                0.8820   6.4926e-004  -2.5726e-004   1.6602e-004   1.6345e+005  -1.7851e+004   3.3203e+003    0.0000   -0.0000    0.0000    0.0000    0.0000
                1.1450   5.9346e-004  -2.3514e-004   1.8901e-004   1.4940e+005  -1.6316e+004   3.7803e+003    0.0000   -0.0000    0.0000    0.0000    0.0000
                1.4241   5.2984e-004  -2.0993e-004   2.1108e-004   1.3339e+005  -1.4566e+004   4.2217e+003    0.0000   -0.0000    0.0000    0.0000    0.0000
                1.7189   4.5925e-004  -1.8196e-004   2.3164e-004   1.1562e+005  -1.2625e+004   4.6328e+003    0.0000   -0.0000    0.0000    0.0000    0.0000
                2.0288   3.8257e-004  -1.5158e-004   2.5006e-004   9.6313e+004  -1.0517e+004   5.0011e+003    0.0000   -0.0000    0.0000    0.0000    0.0000
                2.3501   3.0128e-004  -1.1937e-004   2.6561e-004   7.5848e+004  -8.2812e+003   5.3122e+003    0.0000   -0.0000    0.0000    0.0000    0.0000
                2.6842   2.1836e-004  -8.6517e-005   2.7790e-004   5.4973e+004  -6.0027e+003   5.5579e+003    0.0000   -0.0000    0.0000    0.0000    0.0000
                3.0107   1.3865e-004  -5.4937e-005   2.8610e-004   3.4905e+004  -3.8123e+003   5.7221e+003    0.0000   -0.0000    0.0000    0.0000    0.0000

               lamina:  4     
              matName:  (blade-root)
                     s           e11           e22           e12           s11           s22           s12   s11_fcT   s11_fcC   s22_fcT   s22_fcC   s12_fcS
                   (m)         (m/m)         (m/m)         (rad)          (Pa)          (Pa)          (Pa)       (-)       (-)       (-)       (-)       (-)
                0.0000   7.6148e-004  -3.0167e-004   7.6356e-005   2.1339e+007   4.4431e+004   5.3449e+005    0.1482   -0.0000    0.0000   -0.0000    0.0089
                0.1917   7.4510e-004  -2.9518e-004   9.7095e-005   2.0880e+007   4.3468e+004   6.7967e+005    0.1450   -0.0000    0.0000   -0.0000    0.0113
                0.4152   7.1803e-004  -2.8446e-004   1.2055e-004   2.0122e+007   4.1866e+004   8.4388e+005    0.1397   -0.0000    0.0000   -0.0000    0.0141
                0.6402   6.8249e-004  -2.7038e-004   1.4315e-004   1.9126e+007   3.9764e+004   1.0021e+006    0.1328   -0.0000    0.0000   -0.0000    0.0167
                0.8820   6.3763e-004  -2.5261e-004   1.6602e-004   1.7869e+007   3.7125e+004   1.1621e+006    0.1241   -0.0000    0.0000   -0.0000    0.0194
                1.1450   5.8383e-004  -2.3130e-004   1.8901e-004   1.6361e+007   3.3970e+004   1.3231e+006    0.1136   -0.0000    0.0000   -0.0000    0.0221
                1.4241   5.2234e-004  -2.0694e-004   2.1108e-004   1.4638e+007   3.0367e+004   1.4776e+006    0.1016   -0.0000    0.0000   -0.0000    0.0246
                1.7189   4.5385e-004  -1.7981e-004   2.3164e-004   1.2718e+007   2.6360e+004   1.6215e+006    0.0883   -0.0000    0.0000   -0.0000    0.0270
                2.0288   3.7945e-004  -1.5033e-004   2.5006e-004   1.0633e+007   2.2007e+004   1.7504e+006    0.0738   -0.0000    0.0000   -0.0000    0.0292
                2.3501   3.0064e-004  -1.1911e-004   2.6561e-004   8.4249e+006   1.7395e+004   1.8593e+006    0.0585   -0.0000    0.0000   -0.0000    0.0310
                2.6842   2.1864e-004  -8.6631e-005   2.7790e-004   6.1271e+006   1.2584e+004   1.9453e+006    0.0425   -0.0000    0.0000   -0.0000    0.0324
                3.0107   1.3914e-004  -5.5134e-005   2.8610e-004   3.8991e+006   7.9455e+003   2.0027e+006    0.0271   -0.0000    0.0000   -0.0000    0.0334

               lamina:  5     
              matName:  (blade-shell)
                     s           e11           e22           e12           s11           s22           s12   s11_fcT   s11_fcC   s22_fcT   s22_fcC   s12_fcS
                   (m)         (m/m)         (m/m)         (rad)          (Pa)          (Pa)          (Pa)       (-)       (-)       (-)       (-)       (-)
                0.0000   7.5886e-004  -3.0062e-004   7.6356e-005   2.1266e+007   4.4397e+004   5.3449e+005    0.1477   -0.0000    0.0000   -0.0000    0.0089
                0.1917   7.4257e-004  -2.9417e-004   9.7095e-005   2.0809e+007   4.3436e+004   6.7967e+005    0.1445   -0.0000    0.0000   -0.0000    0.0113
                0.4152   7.1574e-004  -2.8355e-004   1.2055e-004   2.0058e+007   4.1837e+004   8.4388e+005    0.1393   -0.0000    0.0000   -0.0000    0.0141
                0.6402   6.8051e-004  -2.6959e-004   1.4315e-004   1.9070e+007   3.9738e+004   1.0021e+006    0.1324   -0.0000    0.0000   -0.0000    0.0167
                0.8820   6.3594e-004  -2.5194e-004   1.6602e-004   1.7821e+007   3.7104e+004   1.1621e+006    0.1238   -0.0000    0.0000   -0.0000    0.0194
                1.1450   5.8243e-004  -2.3074e-004   1.8901e-004   1.6322e+007   3.3952e+004   1.3231e+006    0.1133   -0.0000    0.0000   -0.0000    0.0221
                1.4241   5.2125e-004  -2.0650e-004   2.1108e-004   1.4607e+007   3.0353e+004   1.4776e+006    0.1014   -0.0000    0.0000   -0.0000    0.0246
                1.7189   4.5306e-004  -1.7949e-004   2.3164e-004   1.2696e+007   2.6350e+004   1.6215e+006    0.0882   -0.0000    0.0000   -0.0000    0.0270
                2.0288   3.7900e-004  -1.5015e-004   2.5006e-004   1.0621e+007   2.2002e+004   1.7504e+006    0.0738   -0.0000    0.0000   -0.0000    0.0292
                2.3501   3.0055e-004  -1.1908e-004   2.6561e-004   8.4223e+006   1.7394e+004   1.8593e+006    0.0585   -0.0000    0.0000   -0.0000    0.0310
                2.6842   2.1883e-004  -8.6704e-005   2.7790e-004   6.1322e+006   1.2586e+004   1.9453e+006    0.0426   -0.0000    0.0000   -0.0000    0.0324
                3.0107   1.3945e-004  -5.5260e-005   2.8610e-004   3.9079e+006   7.9495e+003   2.0027e+006    0.0271   -0.0000    0.0000   -0.0000    0.0334

            panel:  2     
           lam_num    nPlies        tPly      fibAng     matID  matName
               (-)       (-)         (m)       (deg)       (-)  (-)
                 1         1    0.005000      0.0000         2  (blade-shell)
                 2         1    0.007861      0.0000         1  (blade-root)
                 3         1    0.061318      0.0000         3  (spar-uni)
                 4         1    0.000002      0.0000         4  (spar-core)
                 5         1    0.061318      0.0000         3  (spar-uni)
                 6         1    0.007861      0.0000         1  (blade-root)
                 7         1    0.005000      0.0000         2  (blade-shell)

               lamina:  1     
              matName:  (blade-shell)
                     s           e11           e22           e12           s11           s22           s12   s11_fcT   s11_fcC   s22_fcT   s22_fcC   s12_fcS
                   (m)         (m/m)         (m/m)         (rad)          (Pa)          (Pa)          (Pa)       (-)       (-)       (-)       (-)       (-)
                0.0000   1.2839e-004  -3.8425e-005   1.0462e-004   3.6736e+006   1.9677e+005   7.3236e+005    0.0255   -0.0000    0.0000   -0.0000    0.0122
                0.0134   1.1760e-004  -3.4930e-005   1.0531e-004   3.3665e+006   1.8429e+005   7.3719e+005    0.0234   -0.0000    0.0000   -0.0000    0.0123
                0.3780   2.7343e-005  -7.5729e-006   1.1787e-004   7.8607e+005   5.1194e+004   8.2512e+005    0.0055   -0.0000    0.0000   -0.0000    0.0138
                0.7584  -6.6224e-005   2.0898e-005   1.1864e-004  -1.8883e+006  -8.5095e+004   8.3046e+005    0.0000    0.0089    0.0000    0.0000    0.0138
                1.1578  -1.5685e-004   4.8380e-005   1.0648e-004  -4.4791e+006  -2.1850e+005   7.4538e+005    0.0000    0.0210    0.0000    0.0000    0.0124
                1.4817  -2.2588e-004   6.9283e-005   8.7305e-005  -6.4529e+006  -3.2062e+005   6.1114e+005    0.0000    0.0303    0.0000    0.0000    0.0102

               lamina:  2     
              matName:  (blade-root)
                     s           e11           e22           e12           s11           s22           s12   s11_fcT   s11_fcC   s22_fcT   s22_fcC   s12_fcS
                   (m)         (m/m)         (m/m)         (rad)          (Pa)          (Pa)          (Pa)       (-)       (-)       (-)       (-)       (-)
                0.0000   1.2953e-004  -3.8807e-005   1.0462e-004   3.7061e+006   1.9792e+005   7.3236e+005    0.0257   -0.0000    0.0000   -0.0000    0.0122
                0.0134   1.1959e-004  -3.5594e-005   1.0531e-004   3.4231e+006   1.8629e+005   7.3719e+005    0.0238   -0.0000    0.0000   -0.0000    0.0123
                0.3780   2.9747e-005  -8.3757e-006   1.1787e-004   8.5436e+005   5.3612e+004   8.2512e+005    0.0059   -0.0000    0.0000   -0.0000    0.0138
                0.7584  -6.4311e-005   2.0259e-005   1.1864e-004  -1.8340e+006  -8.3171e+004   8.3046e+005    0.0000    0.0086    0.0000    0.0000    0.0138
                1.1578  -1.5466e-004   4.7649e-005   1.0648e-004  -4.4169e+006  -2.1630e+005   7.4538e+005    0.0000    0.0207    0.0000    0.0000    0.0124
                1.4817  -2.2355e-004   6.8504e-005   8.7305e-005  -6.3866e+006  -3.1828e+005   6.1114e+005    0.0000    0.0300    0.0000    0.0000    0.0102

               lamina:  3     
              matName:  (spar-uni)
                     s           e11           e22           e12           s11           s22           s12   s11_fcT   s11_fcC   s22_fcT   s22_fcC   s12_fcS
                   (m)         (m/m)         (m/m)         (rad)          (Pa)          (Pa)          (Pa)       (-)       (-)       (-)       (-)       (-)
                0.0000   1.3846e-004  -4.1787e-005   1.0462e-004   5.8031e+006  -4.3396e+004   3.1387e+005    0.0060   -0.0000    0.0000    0.0000    0.0105
                0.0134   1.3512e-004  -4.0780e-005   1.0531e-004   5.6633e+006  -4.2351e+004   3.1594e+005    0.0058   -0.0000    0.0000    0.0000    0.0105
                0.3780   4.8500e-005  -1.4637e-005   1.1787e-004   2.0327e+006  -1.5201e+004   3.5362e+005    0.0021   -0.0000    0.0000    0.0000    0.0118
                0.7584  -6.1303e-005   1.9255e-005   1.1864e-004  -2.5663e+006   3.0041e+004   3.5591e+005    0.0000    0.0037    0.0000   -0.0000    0.0119
                1.1578  -1.5121e-004   4.6499e-005   1.0648e-004  -6.3342e+006   5.9791e+004   3.1945e+005    0.0000    0.0090    0.0000   -0.0000    0.0106
                1.4817  -2.1988e-004   6.7279e-005   8.7305e-005  -9.2119e+006   8.2122e+004   2.6192e+005    0.0000    0.0131    0.0000   -0.0000    0.0087

               lamina:  4     
              matName:  (spar-core)
                     s           e11           e22           e12           s11           s22           s12   s11_fcT   s11_fcC   s22_fcT   s22_fcC   s12_fcS
                   (m)         (m/m)         (m/m)         (rad)          (Pa)          (Pa)          (Pa)       (-)       (-)       (-)       (-)       (-)
                0.0000   1.3846e-004  -4.1787e-005   1.0462e-004   3.5978e+004  -7.1311e+001   2.0925e+003    0.0000   -0.0000    0.0000    0.0000    0.0000
                0.0134   1.3512e-004  -4.0781e-005   1.0531e-004   3.5111e+004  -6.9594e+001   2.1063e+003    0.0000   -0.0000    0.0000    0.0000    0.0000
                0.3780   4.8500e-005  -1.4638e-005   1.1787e-004   1.2603e+004  -2.4982e+001   2.3575e+003    0.0000   -0.0000    0.0000    0.0000    0.0000
                0.7584  -3.7843e-005   1.1421e-005   1.1864e-004  -9.8334e+003   1.9493e+001   2.3728e+003    0.0000    0.0000    0.0000   -0.0000    0.0000
                1.1578  -1.2435e-004   3.7530e-005   1.0648e-004  -3.2312e+004   6.4048e+001   2.1297e+003    0.0000    0.0000    0.0000   -0.0000    0.0000
                1.4817  -1.9126e-004   5.7724e-005   8.7305e-005  -4.9699e+004   9.8509e+001   1.7461e+003    0.0000    0.0000    0.0000   -0.0000    0.0000

               lamina:  5     
              matName:  (spar-uni)
                     s           e11           e22           e12           s11           s22           s12   s11_fcT   s11_fcC   s22_fcT   s22_fcC   s12_fcS
                   (m)         (m/m)         (m/m)         (rad)          (Pa)          (Pa)          (Pa)       (-)       (-)       (-)       (-)       (-)
                0.0000   1.4738e-004  -4.4767e-005   1.0462e-004   6.1760e+006  -5.0312e+004   3.1387e+005    0.0064   -0.0000    0.0000    0.0000    0.0105
                0.0134   1.5066e-004  -4.5967e-005   1.0531e-004   6.3123e+006  -5.4387e+004   3.1594e+005    0.0065   -0.0000    0.0000    0.0000    0.0105
                0.3780   6.7253e-005  -2.0899e-005   1.1787e-004   2.8163e+006  -2.9733e+004   3.5362e+005    0.0029   -0.0000    0.0000    0.0000    0.0118
                0.7584  -3.7843e-005   1.1421e-005   1.1864e-004  -1.5861e+006   1.1861e+004   3.5591e+005    0.0000    0.0023    0.0000   -0.0000    0.0119
                1.1578  -1.2435e-004   3.7529e-005   1.0648e-004  -5.2118e+006   3.8975e+004   3.1945e+005    0.0000    0.0074    0.0000   -0.0000    0.0106
                1.4817  -1.9126e-004   5.7723e-005   8.7305e-005  -8.0162e+006   5.9947e+004   2.6192e+005    0.0000    0.0114    0.0000   -0.0000    0.0087

               lamina:  6     
              matName:  (blade-root)
                     s           e11           e22           e12           s11           s22           s12   s11_fcT   s11_fcC   s22_fcT   s22_fcC   s12_fcS
                   (m)         (m/m)         (m/m)         (rad)          (Pa)          (Pa)          (Pa)       (-)       (-)       (-)       (-)       (-)
                0.0000   1.4853e-004  -4.5149e-005   1.0462e-004   4.2456e+006   2.1703e+005   7.3236e+005    0.0295   -0.0000    0.0000   -0.0000    0.0122
                0.0134   1.5265e-004  -4.6632e-005   1.0531e-004   4.3619e+006   2.1954e+005   7.3719e+005    0.0303   -0.0000    0.0000   -0.0000    0.0123
                0.3780   6.9658e-005  -2.1702e-005   1.1787e-004   1.9879e+006   9.3755e+004   8.2512e+005    0.0138   -0.0000    0.0000   -0.0000    0.0138
                0.7584  -1.4383e-005   3.5876e-006   1.1864e-004  -4.1590e+005  -3.2953e+004   8.3046e+005    0.0000    0.0020    0.0000    0.0000    0.0138
                1.1578  -9.7489e-005   2.8560e-005   1.0648e-004  -2.7932e+006  -1.5880e+005   7.4538e+005    0.0000    0.0131    0.0000    0.0000    0.0124
                1.4817  -1.6265e-004   4.8169e-005   8.7305e-005  -4.6569e+006  -2.5702e+005   6.1114e+005    0.0000    0.0219    0.0000    0.0000    0.0102

               lamina:  7     
              matName:  (blade-shell)
                     s           e11           e22           e12           s11           s22           s12   s11_fcT   s11_fcC   s22_fcT   s22_fcC   s12_fcS
                   (m)         (m/m)         (m/m)         (rad)          (Pa)          (Pa)          (Pa)       (-)       (-)       (-)       (-)       (-)
                0.0000   1.4925e-004  -4.5392e-005   1.0462e-004   4.2662e+006   2.1776e+005   7.3236e+005    0.0296   -0.0000    0.0000   -0.0000    0.0122
                0.0134   1.5391e-004  -4.7054e-005   1.0531e-004   4.3979e+006   2.2081e+005   7.3719e+005    0.0305   -0.0000    0.0000   -0.0000    0.0123
                0.3780   7.1187e-005  -2.2213e-005   1.1787e-004   2.0313e+006   9.5293e+004   8.2512e+005    0.0141   -0.0000    0.0000   -0.0000    0.0138
                0.7584  -1.1375e-005   2.5833e-006   1.1864e-004  -3.3047e+005  -2.9927e+004   8.3046e+005    0.0000    0.0016    0.0000    0.0000    0.0138
                1.1578  -9.4045e-005   2.7410e-005   1.0648e-004  -2.6954e+006  -1.5534e+005   7.4538e+005    0.0000    0.0127    0.0000    0.0000    0.0124
                1.4817  -1.5898e-004   4.6944e-005   8.7305e-005  -4.5527e+006  -2.5333e+005   6.1114e+005    0.0000    0.0214    0.0000    0.0000    0.0102

            panel:  3     
           lam_num    nPlies        tPly      fibAng     matID  matName
               (-)       (-)         (m)       (deg)       (-)  (-)
                 1         1    0.005000      0.0000         2  (blade-shell)
                 2         1    0.007861      0.0000         1  (blade-root)
                 3         1    0.054104      0.0000         6  (TEP-core)
                 4         1    0.007861      0.0000         1  (blade-root)
                 5         1    0.005000      0.0000         2  (blade-shell)

               lamina:  1     
              matName:  (blade-shell)
                     s           e11           e22           e12           s11           s22           s12   s11_fcT   s11_fcC   s22_fcT   s22_fcC   s12_fcS
                   (m)         (m/m)         (m/m)         (rad)          (Pa)          (Pa)          (Pa)       (-)       (-)       (-)       (-)       (-)
                0.0000  -2.0414e-004   8.0904e-005   2.6411e-004  -5.7205e+006  -1.1440e+004   1.8487e+006    0.0000    0.0269    0.0000    0.0000    0.0308
                0.0077  -2.0572e-004   8.1531e-005   2.6389e-004  -5.7649e+006  -1.1532e+004   1.8472e+006    0.0000    0.0271    0.0000    0.0000    0.0308

               lamina:  2     
              matName:  (blade-root)
                     s           e11           e22           e12           s11           s22           s12   s11_fcT   s11_fcC   s22_fcT   s22_fcC   s12_fcS
                   (m)         (m/m)         (m/m)         (rad)          (Pa)          (Pa)          (Pa)       (-)       (-)       (-)       (-)       (-)
                0.0000  -2.0313e-004   8.0502e-005   2.6411e-004  -5.6923e+006  -1.1427e+004   1.8487e+006    0.0000    0.0267    0.0000    0.0000    0.0308
                0.0077  -2.0472e-004   8.1130e-005   2.6389e-004  -5.7367e+006  -1.1519e+004   1.8472e+006    0.0000    0.0269    0.0000    0.0000    0.0308

               lamina:  3     
              matName:  (TEP-core)
                     s           e11           e22           e12           s11           s22           s12   s11_fcT   s11_fcC   s22_fcT   s22_fcC   s12_fcS
                   (m)         (m/m)         (m/m)         (rad)          (Pa)          (Pa)          (Pa)       (-)       (-)       (-)       (-)       (-)
                0.0000  -2.0155e-004   7.9870e-005   2.6411e-004  -5.0740e+004   5.5444e+003   5.2821e+003    0.0000    0.0000    0.0000   -0.0000    0.0000
                0.0077  -2.0313e-004   8.0498e-005   2.6389e-004  -5.1138e+004   5.5879e+003   5.2779e+003    0.0000    0.0000    0.0000   -0.0000    0.0000

               lamina:  4     
              matName:  (blade-root)
                     s           e11           e22           e12           s11           s22           s12   s11_fcT   s11_fcC   s22_fcT   s22_fcC   s12_fcS
                   (m)         (m/m)         (m/m)         (rad)          (Pa)          (Pa)          (Pa)       (-)       (-)       (-)       (-)       (-)
                0.0000  -1.9066e-004   7.5522e-005   2.6411e-004  -5.3429e+006  -1.1268e+004   1.8487e+006    0.0000    0.0251    0.0000    0.0000    0.0308
                0.0077  -1.9224e-004   7.6150e-005   2.6389e-004  -5.3873e+006  -1.1359e+004   1.8472e+006    0.0000    0.0253    0.0000    0.0000    0.0308

               lamina:  5     
              matName:  (blade-shell)
                     s           e11           e22           e12           s11           s22           s12   s11_fcT   s11_fcC   s22_fcT   s22_fcC   s12_fcS
                   (m)         (m/m)         (m/m)         (rad)          (Pa)          (Pa)          (Pa)       (-)       (-)       (-)       (-)       (-)
                0.0000  -1.8907e-004   7.4890e-005   2.6411e-004  -5.2986e+006  -1.1247e+004   1.8487e+006    0.0000    0.0249    0.0000    0.0000    0.0308
                0.0077  -1.9066e-004   7.5518e-005   2.6389e-004  -5.3430e+006  -1.1339e+004   1.8472e+006    0.0000    0.0251    0.0000    0.0000    0.0308

            panel:  4     
           lam_num    nPlies        tPly      fibAng     matID  matName
               (-)       (-)         (m)       (deg)       (-)  (-)
                 1         1    0.005000      0.0000         2  (blade-shell)
                 2         1    0.007861      0.0000         1  (blade-root)
                 3         1    0.054104      0.0000         6  (TEP-core)
                 4         1    0.007861      0.0000         1  (blade-root)
                 5         1    0.005000      0.0000         2  (blade-shell)

               lamina:  1     
              matName:  (blade-shell)
                     s           e11           e22           e12           s11           s22           s12   s11_fcT   s11_fcC   s22_fcT   s22_fcC   s12_fcS
                   (m)         (m/m)         (m/m)         (rad)          (Pa)          (Pa)          (Pa)       (-)       (-)       (-)       (-)       (-)
                0.0000  -2.0572e-004   8.1531e-005   2.9187e-004  -5.7649e+006  -1.1532e+004   2.0431e+006    0.0000    0.0271    0.0000    0.0000    0.0341
                0.0834  -2.2343e-004   8.8549e-005   2.9165e-004  -6.2611e+006  -1.2535e+004   2.0416e+006    0.0000    0.0294    0.0000    0.0000    0.0340
                0.5101  -3.0885e-004   1.2239e-004   2.9165e-004  -8.6549e+006  -1.7461e+004   2.0416e+006    0.0000    0.0406    0.0000    0.0000    0.0340
                0.9382  -3.9240e-004   1.5550e-004   2.8921e-004  -1.0996e+007  -2.2281e+004   2.0245e+006    0.0000    0.0516    0.0000    0.0000    0.0337
                1.3594  -4.7379e-004   1.8774e-004   2.7362e-004  -1.3277e+007  -2.6984e+004   1.9153e+006    0.0000    0.0623    0.0000    0.0000    0.0319
                1.7663  -5.5250e-004   2.1893e-004   2.5286e-004  -1.5483e+007  -3.1539e+004   1.7700e+006    0.0000    0.0727    0.0000    0.0000    0.0295
                1.9973  -5.9775e-004   2.3686e-004   2.2751e-004  -1.6751e+007  -3.4161e+004   1.5926e+006    0.0000    0.0786    0.0000    0.0000    0.0265

               lamina:  2     
              matName:  (blade-root)
                     s           e11           e22           e12           s11           s22           s12   s11_fcT   s11_fcC   s22_fcT   s22_fcC   s12_fcS
                   (m)         (m/m)         (m/m)         (rad)          (Pa)          (Pa)          (Pa)       (-)       (-)       (-)       (-)       (-)
                0.0000  -2.0472e-004   8.1130e-005   2.9187e-004  -5.7367e+006  -1.1519e+004   2.0431e+006    0.0000    0.0269    0.0000    0.0000    0.0341
                0.0834  -2.2237e-004   8.8124e-005   2.9165e-004  -6.2313e+006  -1.2521e+004   2.0416e+006    0.0000    0.0293    0.0000    0.0000    0.0340
                0.5101  -3.0775e-004   1.2195e-004   2.9165e-004  -8.6241e+006  -1.7447e+004   2.0416e+006    0.0000    0.0405    0.0000    0.0000    0.0340
                0.9382  -3.9127e-004   1.5505e-004   2.8921e-004  -1.0965e+007  -2.2266e+004   2.0245e+006    0.0000    0.0515    0.0000    0.0000    0.0337
                1.3594  -4.7266e-004   1.8729e-004   2.7362e-004  -1.3245e+007  -2.6970e+004   1.9153e+006    0.0000    0.0622    0.0000    0.0000    0.0319
                1.7663  -5.5138e-004   2.1848e-004   2.5286e-004  -1.5451e+007  -3.1525e+004   1.7700e+006    0.0000    0.0725    0.0000    0.0000    0.0295
                1.9973  -5.9665e-004   2.3642e-004   2.2751e-004  -1.6720e+007  -3.4147e+004   1.5926e+006    0.0000    0.0785    0.0000    0.0000    0.0265

               lamina:  3     
              matName:  (TEP-core)
                     s           e11           e22           e12           s11           s22           s12   s11_fcT   s11_fcC   s22_fcT   s22_fcC   s12_fcS
                   (m)         (m/m)         (m/m)         (rad)          (Pa)          (Pa)          (Pa)       (-)       (-)       (-)       (-)       (-)
                0.0000  -2.0313e-004   8.0498e-005   2.9187e-004  -5.1138e+004   5.5879e+003   5.8373e+003    0.0000    0.0000    0.0000   -0.0000    0.0000
                0.0834  -2.2069e-004   8.7455e-005   2.9165e-004  -5.5558e+004   6.0708e+003   5.8330e+003    0.0000    0.0000    0.0000   -0.0000    0.0000
                0.5101  -3.0602e-004   1.2126e-004   2.9165e-004  -7.7042e+004   8.4164e+003   5.8330e+003    0.0000    0.0000    0.0000   -0.0000    0.0000
                0.9382  -3.8950e-004   1.5434e-004   2.8921e-004  -9.8057e+004   1.0711e+004   5.7842e+003    0.0000    0.0000    0.0000   -0.0000    0.0000
                1.3594  -4.7088e-004   1.8658e-004   2.7362e-004  -1.1854e+005   1.2948e+004   5.4724e+003    0.0000    0.0000    0.0000   -0.0000    0.0000
                1.7663  -5.4961e-004   2.1778e-004   2.5286e-004  -1.3837e+005   1.5112e+004   5.0571e+003    0.0000    0.0000    0.0000   -0.0000    0.0000
                1.9973  -5.9491e-004   2.3572e-004   2.2751e-004  -1.4977e+005   1.6357e+004   4.5503e+003    0.0000    0.0000    0.0000   -0.0000    0.0000

               lamina:  4     
              matName:  (blade-root)
                     s           e11           e22           e12           s11           s22           s12   s11_fcT   s11_fcC   s22_fcT   s22_fcC   s12_fcS
                   (m)         (m/m)         (m/m)         (rad)          (Pa)          (Pa)          (Pa)       (-)       (-)       (-)       (-)       (-)
                0.0000  -1.9224e-004   7.6150e-005   2.9187e-004  -5.3873e+006  -1.1359e+004   2.0431e+006    0.0000    0.0253    0.0000    0.0000    0.0341
                0.0834  -2.0916e-004   8.2854e-005   2.9165e-004  -5.8615e+006  -1.2352e+004   2.0416e+006    0.0000    0.0275    0.0000    0.0000    0.0340
                0.5101  -2.9413e-004   1.1652e-004   2.9165e-004  -8.2425e+006  -1.7272e+004   2.0416e+006    0.0000    0.0387    0.0000    0.0000    0.0340
                0.9382  -3.7729e-004   1.4947e-004   2.8921e-004  -1.0573e+007  -2.2087e+004   2.0245e+006    0.0000    0.0496    0.0000    0.0000    0.0337
                1.3594  -4.5862e-004   1.8169e-004   2.7362e-004  -1.2852e+007  -2.6790e+004   1.9153e+006    0.0000    0.0603    0.0000    0.0000    0.0319
                1.7663  -5.3748e-004   2.1293e-004   2.5286e-004  -1.5062e+007  -3.1347e+004   1.7700e+006    0.0000    0.0707    0.0000    0.0000    0.0295
                1.9973  -5.8296e-004   2.3095e-004   2.2751e-004  -1.6336e+007  -3.3972e+004   1.5926e+006    0.0000    0.0767    0.0000    0.0000    0.0265

               lamina:  5     
              matName:  (blade-shell)
                     s           e11           e22           e12           s11           s22           s12   s11_fcT   s11_fcC   s22_fcT   s22_fcC   s12_fcS
                   (m)         (m/m)         (m/m)         (rad)          (Pa)          (Pa)          (Pa)       (-)       (-)       (-)       (-)       (-)
                0.0000  -1.9066e-004   7.5518e-005   2.9187e-004  -5.3430e+006  -1.1339e+004   2.0431e+006    0.0000    0.0251    0.0000    0.0000    0.0341
                0.0834  -2.0749e-004   8.2185e-005   2.9165e-004  -5.8146e+006  -1.2330e+004   2.0416e+006    0.0000    0.0273    0.0000    0.0000    0.0340
                0.5101  -2.9240e-004   1.1583e-004   2.9165e-004  -8.1941e+006  -1.7250e+004   2.0416e+006    0.0000    0.0385    0.0000    0.0000    0.0340
                0.9382  -3.7552e-004   1.4876e-004   2.8921e-004  -1.0523e+007  -2.2065e+004   2.0245e+006    0.0000    0.0494    0.0000    0.0000    0.0337
                1.3594  -4.5684e-004   1.8098e-004   2.7362e-004  -1.2802e+007  -2.6767e+004   1.9153e+006    0.0000    0.0601    0.0000    0.0000    0.0319
                1.7663  -5.3572e-004   2.1223e-004   2.5286e-004  -1.5013e+007  -3.1324e+004   1.7700e+006    0.0000    0.0705    0.0000    0.0000    0.0295
                1.9973  -5.8122e-004   2.3026e-004   2.2751e-004  -1.6288e+007  -3.3949e+004   1.5926e+006    0.0000    0.0765    0.0000    0.0000    0.0265

            panel:  5     
           lam_num    nPlies        tPly      fibAng     matID  matName
               (-)       (-)         (m)       (deg)       (-)  (-)
                 1         1    0.005000      0.0000         2  (blade-shell)
                 2         1    0.007861      0.0000         1  (blade-root)
                 3         1    0.054104      0.0000         6  (TEP-core)
                 4         1    0.007861      0.0000         1  (blade-root)
                 5         1    0.005000      0.0000         2  (blade-shell)

               lamina:  1     
              matName:  (blade-shell)
                     s           e11           e22           e12           s11           s22           s12   s11_fcT   s11_fcC   s22_fcT   s22_fcC   s12_fcS
                   (m)         (m/m)         (m/m)         (rad)          (Pa)          (Pa)          (Pa)       (-)       (-)       (-)       (-)       (-)
                0.0000  -5.9775e-004   2.3686e-004   1.9840e-004  -1.6751e+007  -3.4161e+004   1.3888e+006    0.0000    0.0786    0.0000    0.0000    0.0231
                0.1551  -6.2802e-004   2.4885e-004   1.7984e-004  -1.7599e+007  -3.5920e+004   1.2589e+006    0.0000    0.0826    0.0000    0.0000    0.0210
                0.5144  -6.9976e-004   2.7727e-004   2.0432e-004  -1.9609e+007  -4.0082e+004   1.4302e+006    0.0000    0.0921    0.0000    0.0000    0.0238
                0.8427  -7.6709e-004   3.0394e-004   1.9102e-004  -2.1496e+007  -4.4000e+004   1.3372e+006    0.0000    0.1009    0.0000    0.0000    0.0223
                1.1367  -8.2932e-004   3.2860e-004   1.5761e-004  -2.3240e+007  -4.7627e+004   1.1032e+006    0.0000    0.1091    0.0000    0.0000    0.0184
                1.3947  -8.8559e-004   3.5089e-004   1.2381e-004  -2.4817e+007  -5.0910e+004   8.6667e+005    0.0000    0.1165    0.0000    0.0000    0.0144
                1.6158  -9.3498e-004   3.7046e-004   9.0819e-005  -2.6201e+007  -5.3796e+004   6.3573e+005    0.0000    0.1230    0.0000    0.0000    0.0106
                1.7985  -9.7677e-004   3.8701e-004   5.9671e-005  -2.7372e+007  -5.6239e+004   4.1770e+005    0.0000    0.1285    0.0000    0.0000    0.0070
                1.9420  -1.0101e-003   4.0021e-004   3.1305e-005  -2.8306e+007  -5.8185e+004   2.1913e+005    0.0000    0.1329    0.0000    0.0000    0.0037
                2.0431  -1.0346e-003   4.0991e-004   6.6621e-006  -2.8992e+007  -5.9581e+004   4.6634e+004    0.0000    0.1361    0.0000    0.0000    0.0008
                2.0875  -1.0504e-003   4.1621e-004   1.3468e-005  -2.9436e+007  -6.0248e+004   9.4274e+004    0.0000    0.1382    0.0000    0.0000    0.0016
                2.1160  -1.0537e-003   4.1753e-004   2.8069e-005  -2.9528e+007  -6.0290e+004   1.9648e+005    0.0000    0.1386    0.0000    0.0000    0.0033

               lamina:  2     
              matName:  (blade-root)
                     s           e11           e22           e12           s11           s22           s12   s11_fcT   s11_fcC   s22_fcT   s22_fcC   s12_fcS
                   (m)         (m/m)         (m/m)         (rad)          (Pa)          (Pa)          (Pa)       (-)       (-)       (-)       (-)       (-)
                0.0000  -5.9665e-004   2.3642e-004   1.9840e-004  -1.6720e+007  -3.4147e+004   1.3888e+006    0.0000    0.0785    0.0000    0.0000    0.0231
                0.1551  -6.2694e-004   2.4842e-004   1.7984e-004  -1.7569e+007  -3.5907e+004   1.2589e+006    0.0000    0.0825    0.0000    0.0000    0.0210
                0.5144  -6.9872e-004   2.7685e-004   2.0432e-004  -1.9580e+007  -4.0069e+004   1.4302e+006    0.0000    0.0919    0.0000    0.0000    0.0238
                0.8427  -7.6612e-004   3.0356e-004   1.9102e-004  -2.1469e+007  -4.3988e+004   1.3372e+006    0.0000    0.1008    0.0000    0.0000    0.0223
                1.1367  -8.2844e-004   3.2825e-004   1.5761e-004  -2.3215e+007  -4.7616e+004   1.1032e+006    0.0000    0.1090    0.0000    0.0000    0.0184
                1.3947  -8.8478e-004   3.5057e-004   1.2381e-004  -2.4794e+007  -5.0899e+004   8.6667e+005    0.0000    0.1164    0.0000    0.0000    0.0144
                1.6158  -9.3426e-004   3.7017e-004   9.0819e-005  -2.6181e+007  -5.3787e+004   6.3573e+005    0.0000    0.1229    0.0000    0.0000    0.0106
                1.7985  -9.7613e-004   3.8676e-004   5.9671e-005  -2.7354e+007  -5.6231e+004   4.1770e+005    0.0000    0.1284    0.0000    0.0000    0.0070
                1.9420  -1.0095e-003   3.9998e-004   3.1305e-005  -2.8289e+007  -5.8178e+004   2.1913e+005    0.0000    0.1328    0.0000    0.0000    0.0037
                2.0431  -1.0339e-003   4.0966e-004   6.6621e-006  -2.8974e+007  -5.9573e+004   4.6634e+004    0.0000    0.1360    0.0000    0.0000    0.0008
                2.0875  -1.0491e-003   4.1568e-004   1.3468e-005  -2.9399e+007  -6.0231e+004   9.4274e+004    0.0000    0.1380    0.0000    0.0000    0.0016
                2.1160  -1.0520e-003   4.1683e-004   2.8069e-005  -2.9479e+007  -6.0268e+004   1.9648e+005    0.0000    0.1384    0.0000    0.0000    0.0033

               lamina:  3     
              matName:  (TEP-core)
                     s           e11           e22           e12           s11           s22           s12   s11_fcT   s11_fcC   s22_fcT   s22_fcC   s12_fcS
                   (m)         (m/m)         (m/m)         (rad)          (Pa)          (Pa)          (Pa)       (-)       (-)       (-)       (-)       (-)
                0.0000  -5.9491e-004   2.3572e-004   1.9840e-004  -1.4977e+005   1.6357e+004   3.9680e+003    0.0000    0.0000    0.0000   -0.0000    0.0000
                0.1551  -6.2525e-004   2.4774e-004   1.7984e-004  -1.5741e+005   1.7190e+004   3.5969e+003    0.0000    0.0000    0.0000   -0.0000    0.0000
                0.5144  -6.9709e-004   2.7620e-004   2.0432e-004  -1.7549e+005   1.9165e+004   4.0864e+003    0.0000    0.0000    0.0000   -0.0000    0.0000
                0.8427  -7.6460e-004   3.0295e-004   1.9102e-004  -1.9249e+005   2.1020e+004   3.8205e+003    0.0000    0.0000    0.0000   -0.0000    0.0000
                1.1367  -8.2704e-004   3.2769e-004   1.5761e-004  -2.0821e+005   2.2736e+004   3.1521e+003    0.0000    0.0000    0.0000   -0.0000    0.0000
                1.3947  -8.8352e-004   3.5006e-004   1.2381e-004  -2.2243e+005   2.4288e+004   2.4762e+003    0.0000    0.0000    0.0000   -0.0000    0.0000
                1.6158  -9.3313e-004   3.6972e-004   9.0819e-005  -2.3492e+005   2.5651e+004   1.8164e+003    0.0000    0.0000    0.0000   -0.0000    0.0000
                1.7985  -9.7512e-004   3.8635e-004   5.9671e-005  -2.4549e+005   2.6805e+004   1.1934e+003    0.0000    0.0000    0.0000   -0.0000    0.0000
                1.9420  -1.0086e-003   3.9961e-004   3.1305e-005  -2.5391e+005   2.7724e+004   6.2609e+002    0.0000    0.0000    0.0000   -0.0000    0.0000
                2.0431  -1.0329e-003   4.0925e-004   6.6621e-006  -2.6004e+005   2.8394e+004   1.3324e+002    0.0000    0.0000    0.0000   -0.0000    0.0000
                2.0875  -1.0470e-003   4.1484e-004   1.3468e-005  -2.6358e+005   2.8784e+004   2.6935e+002    0.0000    0.0000    0.0000   -0.0000    0.0000
                2.1160  -1.0492e-003   4.1573e-004   2.8069e-005  -2.6414e+005   2.8847e+004   5.6138e+002    0.0000    0.0000    0.0000   -0.0000    0.0000

               lamina:  4     
              matName:  (blade-root)
                     s           e11           e22           e12           s11           s22           s12   s11_fcT   s11_fcC   s22_fcT   s22_fcC   s12_fcS
                   (m)         (m/m)         (m/m)         (rad)          (Pa)          (Pa)          (Pa)       (-)       (-)       (-)       (-)       (-)
                0.0000  -5.8296e-004   2.3095e-004   1.9840e-004  -1.6336e+007  -3.3972e+004   1.3888e+006    0.0000    0.0767    0.0000    0.0000    0.0231
                0.1551  -6.1358e-004   2.4308e-004   1.7984e-004  -1.7194e+007  -3.5735e+004   1.2589e+006    0.0000    0.0807    0.0000    0.0000    0.0210
                0.5144  -6.8586e-004   2.7172e-004   2.0432e-004  -1.9220e+007  -3.9904e+004   1.4302e+006    0.0000    0.0902    0.0000    0.0000    0.0238
                0.8427  -7.5412e-004   2.9877e-004   1.9102e-004  -2.1133e+007  -4.3834e+004   1.3372e+006    0.0000    0.0992    0.0000    0.0000    0.0223
                1.1367  -8.1744e-004   3.2386e-004   1.5761e-004  -2.2907e+007  -4.7475e+004   1.1032e+006    0.0000    0.1075    0.0000    0.0000    0.0184
                1.3947  -8.7482e-004   3.4659e-004   1.2381e-004  -2.4515e+007  -5.0772e+004   8.6667e+005    0.0000    0.1151    0.0000    0.0000    0.0144
                1.6158  -9.2536e-004   3.6662e-004   9.0819e-005  -2.5932e+007  -5.3673e+004   6.3573e+005    0.0000    0.1217    0.0000    0.0000    0.0106
                1.7985  -9.6817e-004   3.8358e-004   5.9671e-005  -2.7131e+007  -5.6129e+004   4.1770e+005    0.0000    0.1274    0.0000    0.0000    0.0070
                1.9420  -1.0022e-003   3.9707e-004   3.1305e-005  -2.8085e+007  -5.8085e+004   2.1913e+005    0.0000    0.1319    0.0000    0.0000    0.0037
                2.0431  -1.0260e-003   4.0648e-004   6.6621e-006  -2.8751e+007  -5.9471e+004   4.6634e+004    0.0000    0.1350    0.0000    0.0000    0.0008
                2.0875  -1.0325e-003   4.0907e-004   1.3468e-005  -2.8935e+007  -6.0019e+004   9.4274e+004    0.0000    0.1358    0.0000    0.0000    0.0016
                2.1160  -1.0303e-003   4.0817e-004   2.8069e-005  -2.8872e+007  -5.9990e+004   1.9648e+005    0.0000    0.1355    0.0000    0.0000    0.0033

               lamina:  5     
              matName:  (blade-shell)
                     s           e11           e22           e12           s11           s22           s12   s11_fcT   s11_fcC   s22_fcT   s22_fcC   s12_fcS
                   (m)         (m/m)         (m/m)         (rad)          (Pa)          (Pa)          (Pa)       (-)       (-)       (-)       (-)       (-)
                0.0000  -5.8122e-004   2.3026e-004   1.9840e-004  -1.6288e+007  -3.3949e+004   1.3888e+006    0.0000    0.0765    0.0000    0.0000    0.0231
                0.1551  -6.1188e-004   2.4241e-004   1.7984e-004  -1.7147e+007  -3.5714e+004   1.2589e+006    0.0000    0.0805    0.0000    0.0000    0.0210
                0.5144  -6.8423e-004   2.7107e-004   2.0432e-004  -1.9174e+007  -3.9883e+004   1.4302e+006    0.0000    0.0900    0.0000    0.0000    0.0238
                0.8427  -7.5260e-004   2.9816e-004   1.9102e-004  -2.1090e+007  -4.3814e+004   1.3372e+006    0.0000    0.0990    0.0000    0.0000    0.0223
                1.1367  -8.1604e-004   3.2330e-004   1.5761e-004  -2.2868e+007  -4.7457e+004   1.1032e+006    0.0000    0.1074    0.0000    0.0000    0.0184
                1.3947  -8.7355e-004   3.4609e-004   1.2381e-004  -2.4480e+007  -5.0756e+004   8.6667e+005    0.0000    0.1149    0.0000    0.0000    0.0144
                1.6158  -9.2423e-004   3.6617e-004   9.0819e-005  -2.5900e+007  -5.3658e+004   6.3573e+005    0.0000    0.1216    0.0000    0.0000    0.0106
                1.7985  -9.6716e-004   3.8317e-004   5.9671e-005  -2.7103e+007  -5.6116e+004   4.1770e+005    0.0000    0.1272    0.0000    0.0000    0.0070
                1.9420  -1.0013e-003   3.9670e-004   3.1305e-005  -2.8059e+007  -5.8073e+004   2.1913e+005    0.0000    0.1317    0.0000    0.0000    0.0037
                2.0431  -1.0250e-003   4.0608e-004   6.6621e-006  -2.8723e+007  -5.9458e+004   4.6634e+004    0.0000    0.1348    0.0000    0.0000    0.0008
                2.0875  -1.0304e-003   4.0823e-004   1.3468e-005  -2.8876e+007  -5.9992e+004   9.4274e+004    0.0000    0.1356    0.0000    0.0000    0.0016
                2.1160  -1.0275e-003   4.0707e-004   2.8069e-005  -2.8795e+007  -5.9955e+004   1.9648e+005    0.0000    0.1352    0.0000    0.0000    0.0033

     Web:  panel  nNode   nLam     xc_St    xc_End         b         t         E_eff         G_eff      nu_eff     density  buckleCrit
            (-)    (-)    (-)       (-)       (-)       (m)       (m)          (Pa)          (Pa)         (-)    (kg/m^3)         (-)
              1     10      3    0.2935    0.2935    3.1319    0.0830   7.6445e+008   4.5301e+008      0.4420    257.1084      0.0004
              2     10      3    0.4894    0.4894    2.6577    0.0830   7.6445e+008   4.5301e+008      0.4420    257.1084      0.0004
              3     10      3    0.7313    0.7313    1.3130    0.0830   7.6445e+008   4.5301e+008      0.4420    257.1084      0.0001

            panel:  1     
           lam_num    nPlies        tPly      fibAng     matID  matName
               (-)       (-)         (m)       (deg)       (-)  (-)
                 1         1    0.001500      0.0000         7  (web-shell)
                 2         1    0.080000      0.0000         8  (web-core)
                 3         1    0.001500      0.0000         7  (web-shell)

               lamina:  1     
              matName:  (web-shell)
                     s           e11           e22           e12           s11           s22           s12   s11_fcT   s11_fcC   s22_fcT   s22_fcC   s12_fcS
                   (m)         (m/m)         (m/m)         (rad)          (Pa)          (Pa)          (Pa)       (-)       (-)       (-)       (-)       (-)
                0.0000   3.2036e-004  -1.4115e-004   1.0275e-004   4.6626e+006   3.5513e+005   1.2330e+006    0.0324   -0.0000    0.0000   -0.0000    0.0137
                0.3480   2.9872e-004  -1.3159e-004   1.0938e-004   4.3480e+006   3.3173e+005   1.3125e+006    0.0302   -0.0000    0.0000   -0.0000    0.0146
                0.6960   2.7709e-004  -1.2203e-004   1.1556e-004   4.0334e+006   3.0832e+005   1.3868e+006    0.0280   -0.0000    0.0000   -0.0000    0.0154
                1.0440   2.5546e-004  -1.1247e-004   1.2131e-004   3.7189e+006   2.8491e+005   1.4557e+006    0.0258   -0.0000    0.0000   -0.0000    0.0162
                1.3920   2.3383e-004  -1.0291e-004   1.2660e-004   3.4043e+006   2.6150e+005   1.5192e+006    0.0236   -0.0000    0.0000   -0.0000    0.0169
                1.7399   2.1220e-004  -9.3343e-005   1.3145e-004   3.0898e+006   2.3809e+005   1.5774e+006    0.0215   -0.0000    0.0000   -0.0000    0.0175
                2.0879   1.9056e-004  -8.3781e-005   1.3586e-004   2.7752e+006   2.1468e+005   1.6303e+006    0.0193   -0.0000    0.0000   -0.0000    0.0181
                2.4359   1.6893e-004  -7.4219e-005   1.3982e-004   2.4607e+006   1.9127e+005   1.6779e+006    0.0171   -0.0000    0.0000   -0.0000    0.0186
                2.7839   1.4730e-004  -6.4657e-005   1.4334e-004   2.1461e+006   1.6787e+005   1.7201e+006    0.0149   -0.0000    0.0000   -0.0000    0.0191
                3.1319   1.2567e-004  -5.5095e-005   1.4641e-004   1.8316e+006   1.4446e+005   1.7570e+006    0.0127   -0.0000    0.0000   -0.0000    0.0195

               lamina:  2     
              matName:  (web-core)
                     s           e11           e22           e12           s11           s22           s12   s11_fcT   s11_fcC   s22_fcT   s22_fcC   s12_fcS
                   (m)         (m/m)         (m/m)         (rad)          (Pa)          (Pa)          (Pa)       (-)       (-)       (-)       (-)       (-)
                0.0000   3.4643e-004  -1.5359e-004   1.0275e-004   8.5817e+004  -1.4188e+004   2.0550e+003    0.0000   -0.0000    0.0000    0.0000    0.0000
                0.3480   3.2480e-004  -1.4403e-004   1.0938e-004   8.0456e+004  -1.3310e+004   2.1876e+003    0.0000   -0.0000    0.0000    0.0000    0.0000
                0.6960   3.0317e-004  -1.3446e-004   1.1556e-004   7.5095e+004  -1.2432e+004   2.3113e+003    0.0000   -0.0000    0.0000    0.0000    0.0000
                1.0440   2.8154e-004  -1.2490e-004   1.2131e-004   6.9734e+004  -1.1554e+004   2.4261e+003    0.0000   -0.0000    0.0000    0.0000    0.0000
                1.3920   2.5991e-004  -1.1534e-004   1.2660e-004   6.4373e+004  -1.0677e+004   2.5320e+003    0.0000   -0.0000    0.0000    0.0000    0.0000
                1.7399   2.3827e-004  -1.0578e-004   1.3145e-004   5.9012e+004  -9.7987e+003   2.6291e+003    0.0000   -0.0000    0.0000    0.0000    0.0000
                2.0879   2.1664e-004  -9.6216e-005   1.3586e-004   5.3651e+004  -8.9209e+003   2.7172e+003    0.0000   -0.0000    0.0000    0.0000    0.0000
                2.4359   1.9501e-004  -8.6654e-005   1.3982e-004   4.8290e+004  -8.0431e+003   2.7965e+003    0.0000   -0.0000    0.0000    0.0000    0.0000
                2.7839   1.7338e-004  -7.7092e-005   1.4334e-004   4.2929e+004  -7.1653e+003   2.8668e+003    0.0000   -0.0000    0.0000    0.0000    0.0000
                3.1319   1.5175e-004  -6.7530e-005   1.4641e-004   3.7568e+004  -6.2874e+003   2.9283e+003    0.0000   -0.0000    0.0000    0.0000    0.0000

               lamina:  3     
              matName:  (web-shell)
                     s           e11           e22           e12           s11           s22           s12   s11_fcT   s11_fcC   s22_fcT   s22_fcC   s12_fcS
                   (m)         (m/m)         (m/m)         (rad)          (Pa)          (Pa)          (Pa)       (-)       (-)       (-)       (-)       (-)
                0.0000   3.4692e-004  -1.5382e-004   1.0275e-004   5.0402e+006   3.6663e+005   1.2330e+006    0.0350   -0.0000    0.0000   -0.0000    0.0137
                0.3480   3.2529e-004  -1.4426e-004   1.0938e-004   4.7257e+006   3.4322e+005   1.3125e+006    0.0328   -0.0000    0.0000   -0.0000    0.0146
                0.6960   3.0366e-004  -1.3470e-004   1.1556e-004   4.4111e+006   3.1981e+005   1.3868e+006    0.0306   -0.0000    0.0000   -0.0000    0.0154
                1.0440   2.8203e-004  -1.2513e-004   1.2131e-004   4.0966e+006   2.9640e+005   1.4557e+006    0.0284   -0.0000    0.0000   -0.0000    0.0162
                1.3920   2.6040e-004  -1.1557e-004   1.2660e-004   3.7820e+006   2.7299e+005   1.5192e+006    0.0263   -0.0000    0.0000   -0.0000    0.0169
                1.7399   2.3876e-004  -1.0601e-004   1.3145e-004   3.4675e+006   2.4959e+005   1.5774e+006    0.0241   -0.0000    0.0000   -0.0000    0.0175
                2.0879   2.1713e-004  -9.6449e-005   1.3586e-004   3.1529e+006   2.2618e+005   1.6303e+006    0.0219   -0.0000    0.0000   -0.0000    0.0181
                2.4359   1.9550e-004  -8.6887e-005   1.3982e-004   2.8384e+006   2.0277e+005   1.6779e+006    0.0197   -0.0000    0.0000   -0.0000    0.0186
                2.7839   1.7387e-004  -7.7325e-005   1.4334e-004   2.5238e+006   1.7936e+005   1.7201e+006    0.0175   -0.0000    0.0000   -0.0000    0.0191
                3.1319   1.5224e-004  -6.7763e-005   1.4641e-004   2.2093e+006   1.5595e+005   1.7570e+006    0.0153   -0.0000    0.0000   -0.0000    0.0195

            panel:  2     
           lam_num    nPlies        tPly      fibAng     matID  matName
               (-)       (-)         (m)       (deg)       (-)  (-)
                 1         1    0.001500      0.0000         7  (web-shell)
                 2         1    0.080000      0.0000         8  (web-core)
                 3         1    0.001500      0.0000         7  (web-shell)

               lamina:  1     
              matName:  (web-shell)
                     s           e11           e22           e12           s11           s22           s12   s11_fcT   s11_fcC   s22_fcT   s22_fcC   s12_fcS
                   (m)         (m/m)         (m/m)         (rad)          (Pa)          (Pa)          (Pa)       (-)       (-)       (-)       (-)       (-)
                0.0000  -4.3417e-005   1.9663e-005   1.5218e-004  -6.2694e+005  -3.8186e+004   1.8261e+006    0.0000    0.0029    0.0000    0.0000    0.0203
                0.2953  -6.1437e-005   2.7628e-005   1.5150e-004  -8.8896e+005  -5.7686e+004   1.8180e+006    0.0000    0.0042    0.0000    0.0000    0.0202
                0.5906  -7.9457e-005   3.5593e-005   1.5051e-004  -1.1510e+006  -7.7185e+004   1.8061e+006    0.0000    0.0054    0.0000    0.0000    0.0201
                0.8859  -9.7476e-005   4.3559e-005   1.4920e-004  -1.4130e+006  -9.6685e+004   1.7904e+006    0.0000    0.0066    0.0000    0.0000    0.0199
                1.1812  -1.1550e-004   5.1524e-005   1.4758e-004  -1.6750e+006  -1.1618e+005   1.7709e+006    0.0000    0.0079    0.0000    0.0000    0.0197
                1.4765  -1.3352e-004   5.9489e-005   1.4564e-004  -1.9371e+006  -1.3568e+005   1.7477e+006    0.0000    0.0091    0.0000    0.0000    0.0194
                1.7718  -1.5154e-004   6.7454e-005   1.4339e-004  -2.1991e+006  -1.5518e+005   1.7207e+006    0.0000    0.0103    0.0000    0.0000    0.0191
                2.0671  -1.6955e-004   7.5419e-005   1.4083e-004  -2.4611e+006  -1.7468e+005   1.6900e+006    0.0000    0.0116    0.0000    0.0000    0.0188
                2.3624  -1.8757e-004   8.3385e-005   1.3795e-004  -2.7231e+006  -1.9418e+005   1.6554e+006    0.0000    0.0128    0.0000    0.0000    0.0184
                2.6577  -2.0559e-004   9.1350e-005   1.3476e-004  -2.9852e+006  -2.1368e+005   1.6171e+006    0.0000    0.0140    0.0000    0.0000    0.0180

               lamina:  2     
              matName:  (web-core)
                     s           e11           e22           e12           s11           s22           s12   s11_fcT   s11_fcC   s22_fcT   s22_fcC   s12_fcS
                   (m)         (m/m)         (m/m)         (rad)          (Pa)          (Pa)          (Pa)       (-)       (-)       (-)       (-)       (-)
                0.0000  -4.2928e-005   1.9430e-005   1.5218e-004  -1.0600e+004   1.8718e+003   3.0435e+003    0.0000    0.0000    0.0000   -0.0000    0.0000
                0.2953  -6.0947e-005   2.7395e-005   1.5150e-004  -1.5065e+004   2.6030e+003   3.0300e+003    0.0000    0.0000    0.0000   -0.0000    0.0000
                0.5906  -7.8967e-005   3.5360e-005   1.5051e-004  -1.9531e+004   3.3342e+003   3.0101e+003    0.0000    0.0000    0.0000   -0.0000    0.0000
                0.8859  -9.6987e-005   4.3325e-005   1.4920e-004  -2.3997e+004   4.0655e+003   2.9840e+003    0.0000    0.0000    0.0000   -0.0000    0.0000
                1.1812  -1.1501e-004   5.1290e-005   1.4758e-004  -2.8463e+004   4.7967e+003   2.9516e+003    0.0000    0.0000    0.0000   -0.0000    0.0000
                1.4765  -1.3303e-004   5.9256e-005   1.4564e-004  -3.2928e+004   5.5279e+003   2.9129e+003    0.0000    0.0000    0.0000   -0.0000    0.0000
                1.7718  -1.5105e-004   6.7221e-005   1.4339e-004  -3.7394e+004   6.2592e+003   2.8679e+003    0.0000    0.0000    0.0000   -0.0000    0.0000
                2.0671  -1.6907e-004   7.5186e-005   1.4083e-004  -4.1860e+004   6.9904e+003   2.8166e+003    0.0000    0.0000    0.0000   -0.0000    0.0000
                2.3624  -1.8708e-004   8.3151e-005   1.3795e-004  -4.6326e+004   7.7216e+003   2.7591e+003    0.0000    0.0000    0.0000   -0.0000    0.0000
                2.6577  -2.0510e-004   9.1116e-005   1.3476e-004  -5.0791e+004   8.4529e+003   2.6952e+003    0.0000    0.0000    0.0000   -0.0000    0.0000

               lamina:  3     
              matName:  (web-shell)
                     s           e11           e22           e12           s11           s22           s12   s11_fcT   s11_fcC   s22_fcT   s22_fcC   s12_fcS
                   (m)         (m/m)         (m/m)         (rad)          (Pa)          (Pa)          (Pa)       (-)       (-)       (-)       (-)       (-)
                0.0000  -1.6818e-005   6.9800e-006   1.5218e-004  -2.4880e+005  -2.6678e+004   1.8261e+006    0.0000    0.0012    0.0000    0.0000    0.0203
                0.2953  -3.4838e-005   1.4945e-005   1.5150e-004  -5.1082e+005  -4.6178e+004   1.8180e+006    0.0000    0.0024    0.0000    0.0000    0.0202
                0.5906  -5.2858e-005   2.2910e-005   1.5051e-004  -7.7285e+005  -6.5677e+004   1.8061e+006    0.0000    0.0036    0.0000    0.0000    0.0201
                0.8859  -7.0877e-005   3.0876e-005   1.4920e-004  -1.0349e+006  -8.5177e+004   1.7904e+006    0.0000    0.0049    0.0000    0.0000    0.0199
                1.1812  -8.8897e-005   3.8841e-005   1.4758e-004  -1.2969e+006  -1.0468e+005   1.7709e+006    0.0000    0.0061    0.0000    0.0000    0.0197
                1.4765  -1.0692e-004   4.6806e-005   1.4564e-004  -1.5589e+006  -1.2418e+005   1.7477e+006    0.0000    0.0073    0.0000    0.0000    0.0194
                1.7718  -1.2494e-004   5.4771e-005   1.4339e-004  -1.8209e+006  -1.4368e+005   1.7207e+006    0.0000    0.0085    0.0000    0.0000    0.0191
                2.0671  -1.4296e-004   6.2736e-005   1.4083e-004  -2.0830e+006  -1.6317e+005   1.6900e+006    0.0000    0.0098    0.0000    0.0000    0.0188
                2.3624  -1.6098e-004   7.0702e-005   1.3795e-004  -2.3450e+006  -1.8267e+005   1.6554e+006    0.0000    0.0110    0.0000    0.0000    0.0184
                2.6577  -1.7900e-004   7.8667e-005   1.3476e-004  -2.6070e+006  -2.0217e+005   1.6171e+006    0.0000    0.0122    0.0000    0.0000    0.0180

            panel:  3     
           lam_num    nPlies        tPly      fibAng     matID  matName
               (-)       (-)         (m)       (deg)       (-)  (-)
                 1         1    0.001500      0.0000         7  (web-shell)
                 2         1    0.080000      0.0000         8  (web-core)
                 3         1    0.001500      0.0000         7  (web-shell)

               lamina:  1     
              matName:  (web-shell)
                     s           e11           e22           e12           s11           s22           s12   s11_fcT   s11_fcC   s22_fcT   s22_fcC   s12_fcS
                   (m)         (m/m)         (m/m)         (rad)          (Pa)          (Pa)          (Pa)       (-)       (-)       (-)       (-)       (-)
                0.0000  -5.1628e-004   2.2868e-004   1.6001e-004  -7.5029e+006  -5.4989e+005   1.9201e+006    0.0000    0.0352    0.0000    0.0000    0.0213
                0.1459  -5.2517e-004   2.3261e-004   1.5564e-004  -7.6322e+006  -5.5951e+005   1.8677e+006    0.0000    0.0358    0.0000    0.0000    0.0208
                0.2918  -5.3406e-004   2.3654e-004   1.5119e-004  -7.7615e+006  -5.6913e+005   1.8143e+006    0.0000    0.0364    0.0000    0.0000    0.0202
                0.4377  -5.4295e-004   2.4047e-004   1.4667e-004  -7.8907e+006  -5.7875e+005   1.7600e+006    0.0000    0.0370    0.0000    0.0000    0.0196
                0.5835  -5.5184e-004   2.4440e-004   1.4207e-004  -8.0200e+006  -5.8837e+005   1.7049e+006    0.0000    0.0377    0.0000    0.0000    0.0189
                0.7294  -5.6073e-004   2.4833e-004   1.3739e-004  -8.1493e+006  -5.9799e+005   1.6487e+006    0.0000    0.0383    0.0000    0.0000    0.0183
                0.8753  -5.6962e-004   2.5226e-004   1.3264e-004  -8.2785e+006  -6.0761e+005   1.5917e+006    0.0000    0.0389    0.0000    0.0000    0.0177
                1.0212  -5.7851e-004   2.5619e-004   1.2781e-004  -8.4078e+006  -6.1723e+005   1.5338e+006    0.0000    0.0395    0.0000    0.0000    0.0170
                1.1671  -5.8740e-004   2.6012e-004   1.2291e-004  -8.5371e+006  -6.2685e+005   1.4749e+006    0.0000    0.0401    0.0000    0.0000    0.0164
                1.3130  -5.9629e-004   2.6405e-004   1.1792e-004  -8.6663e+006  -6.3646e+005   1.4151e+006    0.0000    0.0407    0.0000    0.0000    0.0157

               lamina:  2     
              matName:  (web-core)
                     s           e11           e22           e12           s11           s22           s12   s11_fcT   s11_fcC   s22_fcT   s22_fcC   s12_fcS
                   (m)         (m/m)         (m/m)         (rad)          (Pa)          (Pa)          (Pa)       (-)       (-)       (-)       (-)       (-)
                0.0000  -5.1580e-004   2.2845e-004   1.6001e-004  -1.2779e+005   2.1061e+004   3.2002e+003    0.0000    0.0000    0.0000   -0.0000    0.0000
                0.1459  -5.2468e-004   2.3238e-004   1.5564e-004  -1.2999e+005   2.1421e+004   3.1128e+003    0.0000    0.0000    0.0000   -0.0000    0.0000
                0.2918  -5.3357e-004   2.3631e-004   1.5119e-004  -1.3219e+005   2.1782e+004   3.0239e+003    0.0000    0.0000    0.0000   -0.0000    0.0000
                0.4377  -5.4246e-004   2.4024e-004   1.4667e-004  -1.3440e+005   2.2143e+004   2.9334e+003    0.0000    0.0000    0.0000   -0.0000    0.0000
                0.5835  -5.5135e-004   2.4417e-004   1.4207e-004  -1.3660e+005   2.2504e+004   2.8414e+003    0.0000    0.0000    0.0000   -0.0000    0.0000
                0.7294  -5.6024e-004   2.4810e-004   1.3739e-004  -1.3880e+005   2.2864e+004   2.7479e+003    0.0000    0.0000    0.0000   -0.0000    0.0000
                0.8753  -5.6913e-004   2.5203e-004   1.3264e-004  -1.4101e+005   2.3225e+004   2.6528e+003    0.0000    0.0000    0.0000   -0.0000    0.0000
                1.0212  -5.7802e-004   2.5596e-004   1.2781e-004  -1.4321e+005   2.3586e+004   2.5563e+003    0.0000    0.0000    0.0000   -0.0000    0.0000
                1.1671  -5.8691e-004   2.5989e-004   1.2291e-004  -1.4541e+005   2.3947e+004   2.4581e+003    0.0000    0.0000    0.0000   -0.0000    0.0000
                1.3130  -5.9580e-004   2.6382e-004   1.1792e-004  -1.4762e+005   2.4307e+004   2.3585e+003    0.0000    0.0000    0.0000   -0.0000    0.0000

               lamina:  3     
              matName:  (web-shell)
                     s           e11           e22           e12           s11           s22           s12   s11_fcT   s11_fcC   s22_fcT   s22_fcC   s12_fcS
                   (m)         (m/m)         (m/m)         (rad)          (Pa)          (Pa)          (Pa)       (-)       (-)       (-)       (-)       (-)
                0.0000  -4.8968e-004   2.1600e-004   1.6001e-004  -7.1248e+006  -5.3838e+005   1.9201e+006    0.0000    0.0334    0.0000    0.0000    0.0213
                0.1459  -4.9857e-004   2.1993e-004   1.5564e-004  -7.2540e+006  -5.4800e+005   1.8677e+006    0.0000    0.0341    0.0000    0.0000    0.0208
                0.2918  -5.0746e-004   2.2386e-004   1.5119e-004  -7.3833e+006  -5.5762e+005   1.8143e+006    0.0000    0.0347    0.0000    0.0000    0.0202
                0.4377  -5.1635e-004   2.2779e-004   1.4667e-004  -7.5126e+006  -5.6724e+005   1.7600e+006    0.0000    0.0353    0.0000    0.0000    0.0196
                0.5835  -5.2524e-004   2.3172e-004   1.4207e-004  -7.6418e+006  -5.7686e+005   1.7049e+006    0.0000    0.0359    0.0000    0.0000    0.0189
                0.7294  -5.3413e-004   2.3565e-004   1.3739e-004  -7.7711e+006  -5.8648e+005   1.6487e+006    0.0000    0.0365    0.0000    0.0000    0.0183
                0.8753  -5.4302e-004   2.3958e-004   1.3264e-004  -7.9003e+006  -5.9610e+005   1.5917e+006    0.0000    0.0371    0.0000    0.0000    0.0177
                1.0212  -5.5191e-004   2.4351e-004   1.2781e-004  -8.0296e+006  -6.0572e+005   1.5338e+006    0.0000    0.0377    0.0000    0.0000    0.0170
                1.1671  -5.6080e-004   2.4744e-004   1.2291e-004  -8.1589e+006  -6.1534e+005   1.4749e+006    0.0000    0.0383    0.0000    0.0000    0.0164
                1.3130  -5.6969e-004   2.5137e-004   1.1792e-004  -8.2881e+006  -6.2496e+005   1.4151e+006    0.0000    0.0389    0.0000    0.0000    0.0157

================================================================================
sec        =  13     
zSec       =  18.8000  (m)
nPanelsTop =  5      
nPanelsBot =  5      
nWebs      =  3      

    Top:  panel  nNode   nLam     xc_St    xc_End         b         t         E_eff         G_eff      nu_eff     density  buckleCrit
            (-)    (-)    (-)       (-)       (-)       (m)       (m)          (Pa)          (Pa)         (-)    (kg/m^3)         (-)
              1     12      5    0.0000    0.2864    2.8546    0.0740   6.4337e+009   1.5729e+009      0.3938    567.0959      0.0002
              2      6      7    0.2864    0.4796    1.4632    0.1470   4.0452e+010   3.4483e+009      0.2941   1912.1313      0.0000
              3      2      5    0.4796    0.4805    0.0073    0.0740   6.4337e+009   1.5729e+009      0.3938    567.0959      0.0000
              4      7      5    0.4805    0.7178    1.8742    0.0740   6.4337e+009   1.5729e+009      0.3938    567.0959      0.0600
              5     12      5    0.7178    1.0000    2.2794    0.0740   6.4337e+009   1.5729e+009      0.3938    567.0959      0.2159

            panel:  1     
           lam_num    nPlies        tPly      fibAng     matID  matName
               (-)       (-)         (m)       (deg)       (-)  (-)
                 1         1    0.005000      0.0000         2  (blade-shell)
                 2         1    0.003237      0.0000         1  (blade-root)
                 3         1    0.057572      0.0000         5  (LEP-core)
                 4         1    0.003237      0.0000         1  (blade-root)
                 5         1    0.005000      0.0000         2  (blade-shell)

               lamina:  1     
              matName:  (blade-shell)
                     s           e11           e22           e12           s11           s22           s12   s11_fcT   s11_fcC   s22_fcT   s22_fcC   s12_fcS
                   (m)         (m/m)         (m/m)         (rad)          (Pa)          (Pa)          (Pa)       (-)       (-)       (-)       (-)       (-)
                0.0000   1.0781e-003  -4.2467e-004   1.0062e-004   3.0226e+007   9.9875e+004   7.0432e+005    0.2099   -0.0000    0.0000   -0.0000    0.0117
                0.1859   1.0841e-003  -4.2703e-004   7.2071e-005   3.0394e+007   1.0043e+005   5.0450e+005    0.2111   -0.0000    0.0000   -0.0000    0.0084
                0.4067   1.0779e-003  -4.2460e-004   3.8171e-005   3.0222e+007   9.9872e+004   2.6720e+005    0.2099   -0.0000    0.0000   -0.0000    0.0045
                0.6221   1.0562e-003  -4.1604e-004   5.5181e-006   2.9612e+007   9.7895e+004   3.8626e+004    0.2056   -0.0000    0.0000   -0.0000    0.0006
                0.8491   1.0199e-003  -4.0174e-004   2.7987e-005   2.8595e+007   9.4576e+004   1.9591e+005    0.1986   -0.0000    0.0000   -0.0000    0.0033
                1.0948   9.6982e-004  -3.8201e-004   6.2753e-005   2.7191e+007   8.9980e+004   4.3927e+005    0.1888   -0.0000    0.0000   -0.0000    0.0073
                1.3554   9.0593e-004  -3.5684e-004   9.7554e-005   2.5400e+007   8.4105e+004   6.8288e+005    0.1764   -0.0000    0.0000   -0.0000    0.0114
                1.6336   8.2890e-004  -3.2650e-004   1.3193e-004   2.3240e+007   7.6998e+004   9.2354e+005    0.1614   -0.0000    0.0000   -0.0000    0.0154
                1.9309   7.3969e-004  -2.9136e-004   1.6519e-004   2.0739e+007   6.8753e+004   1.1563e+006    0.1440   -0.0000    0.0000   -0.0000    0.0193
                2.2458   6.3880e-004  -2.5162e-004   1.9617e-004   1.7910e+007   5.9417e+004   1.3732e+006    0.1244   -0.0000    0.0000   -0.0000    0.0229
                2.5794   5.2742e-004  -2.0774e-004   2.2396e-004   1.4787e+007   4.9084e+004   1.5677e+006    0.1027   -0.0000    0.0000   -0.0000    0.0261
                2.8546   4.3318e-004  -1.7062e-004   2.4284e-004   1.2145e+007   4.0313e+004   1.6999e+006    0.0843   -0.0000    0.0000   -0.0000    0.0283

               lamina:  2     
              matName:  (blade-root)
                     s           e11           e22           e12           s11           s22           s12   s11_fcT   s11_fcC   s22_fcT   s22_fcC   s12_fcS
                   (m)         (m/m)         (m/m)         (rad)          (Pa)          (Pa)          (Pa)       (-)       (-)       (-)       (-)       (-)
                0.0000   1.0758e-003  -4.2378e-004   1.0062e-004   3.0164e+007   9.9819e+004   7.0432e+005    0.2095   -0.0000    0.0000   -0.0000    0.0117
                0.1859   1.0818e-003  -4.2613e-004   7.2071e-005   3.0331e+007   1.0037e+005   5.0450e+005    0.2106   -0.0000    0.0000   -0.0000    0.0084
                0.4067   1.0757e-003  -4.2372e-004   3.8171e-005   3.0160e+007   9.9817e+004   2.6720e+005    0.2094   -0.0000    0.0000   -0.0000    0.0045
                0.6221   1.0541e-003  -4.1520e-004   5.5181e-006   2.9553e+007   9.7843e+004   3.8626e+004    0.2052   -0.0000    0.0000   -0.0000    0.0006
                0.8491   1.0179e-003  -4.0097e-004   2.7987e-005   2.8540e+007   9.4528e+004   1.9591e+005    0.1982   -0.0000    0.0000   -0.0000    0.0033
                1.0948   9.6807e-004  -3.8132e-004   6.2753e-005   2.7142e+007   8.9937e+004   4.3927e+005    0.1885   -0.0000    0.0000   -0.0000    0.0073
                1.3554   9.0439e-004  -3.5623e-004   9.7554e-005   2.5357e+007   8.4067e+004   6.8288e+005    0.1761   -0.0000    0.0000   -0.0000    0.0114
                1.6336   8.2758e-004  -3.2598e-004   1.3193e-004   2.3203e+007   7.6965e+004   9.2354e+005    0.1611   -0.0000    0.0000   -0.0000    0.0154
                1.9309   7.3860e-004  -2.9092e-004   1.6519e-004   2.0708e+007   6.8725e+004   1.1563e+006    0.1438   -0.0000    0.0000   -0.0000    0.0193
                2.2458   6.3794e-004  -2.5127e-004   1.9617e-004   1.7886e+007   5.9395e+004   1.3732e+006    0.1242   -0.0000    0.0000   -0.0000    0.0229
                2.5794   5.2676e-004  -2.0748e-004   2.2396e-004   1.4769e+007   4.9067e+004   1.5677e+006    0.1026   -0.0000    0.0000   -0.0000    0.0261
                2.8546   4.3264e-004  -1.7041e-004   2.4284e-004   1.2130e+007   4.0300e+004   1.6999e+006    0.0842   -0.0000    0.0000   -0.0000    0.0283

               lamina:  3     
              matName:  (LEP-core)
                     s           e11           e22           e12           s11           s22           s12   s11_fcT   s11_fcC   s22_fcT   s22_fcC   s12_fcS
                   (m)         (m/m)         (m/m)         (rad)          (Pa)          (Pa)          (Pa)       (-)       (-)       (-)       (-)       (-)
                0.0000   1.0744e-003  -4.2320e-004   1.0062e-004   2.7069e+005  -2.8823e+004   2.0123e+003    0.0000   -0.0000    0.0000    0.0000    0.0000
                0.1859   1.0804e-003  -4.2555e-004   7.2071e-005   2.7220e+005  -2.8984e+004   1.4414e+003    0.0000   -0.0000    0.0000    0.0000    0.0000
                0.4067   1.0743e-003  -4.2315e-004   3.8171e-005   2.7066e+005  -2.8820e+004   7.6342e+002    0.0000   -0.0000    0.0000    0.0000    0.0000
                0.6221   1.0527e-003  -4.1466e-004   5.5181e-006   2.6523e+005  -2.8241e+004   1.1036e+002    0.0000   -0.0000    0.0000    0.0000    0.0000
                0.8491   1.0167e-003  -4.0047e-004   2.7987e-005   2.5616e+005  -2.7274e+004   5.5974e+002    0.0000   -0.0000    0.0000    0.0000    0.0000
                1.0948   9.6693e-004  -3.8086e-004   6.2753e-005   2.4362e+005  -2.5939e+004   1.2551e+003    0.0000   -0.0000    0.0000    0.0000    0.0000
                1.3554   9.0340e-004  -3.5584e-004   9.7554e-005   2.2761e+005  -2.4233e+004   1.9511e+003    0.0000   -0.0000    0.0000    0.0000    0.0000
                1.6336   8.2673e-004  -3.2564e-004   1.3193e-004   2.0830e+005  -2.2176e+004   2.6387e+003    0.0000   -0.0000    0.0000    0.0000    0.0000
                1.9309   7.3789e-004  -2.9064e-004   1.6519e-004   1.8591e+005  -1.9793e+004   3.3039e+003    0.0000   -0.0000    0.0000    0.0000    0.0000
                2.2458   6.3738e-004  -2.5105e-004   1.9617e-004   1.6059e+005  -1.7096e+004   3.9233e+003    0.0000   -0.0000    0.0000    0.0000    0.0000
                2.5794   5.2634e-004  -2.0731e-004   2.2396e-004   1.3261e+005  -1.4117e+004   4.4791e+003    0.0000   -0.0000    0.0000    0.0000    0.0000
                2.8546   4.3229e-004  -1.7027e-004   2.4284e-004   1.0892e+005  -1.1595e+004   4.8569e+003    0.0000   -0.0000    0.0000    0.0000    0.0000

               lamina:  4     
              matName:  (blade-root)
                     s           e11           e22           e12           s11           s22           s12   s11_fcT   s11_fcC   s22_fcT   s22_fcC   s12_fcS
                   (m)         (m/m)         (m/m)         (rad)          (Pa)          (Pa)          (Pa)       (-)       (-)       (-)       (-)       (-)
                0.0000   1.0485e-003  -4.1290e-004   1.0062e-004   2.9399e+007   9.9138e+004   7.0432e+005    0.2042   -0.0000    0.0000   -0.0000    0.0117
                0.1859   1.0544e-003  -4.1521e-004   7.2071e-005   2.9563e+007   9.9691e+004   5.0450e+005    0.2053   -0.0000    0.0000   -0.0000    0.0084
                0.4067   1.0487e-003  -4.1297e-004   3.8171e-005   2.9404e+007   9.9144e+004   2.6720e+005    0.2042   -0.0000    0.0000   -0.0000    0.0045
                0.6221   1.0285e-003  -4.0502e-004   5.5181e-006   2.8838e+007   9.7206e+004   3.8626e+004    0.2003   -0.0000    0.0000   -0.0000    0.0006
                0.8491   9.9433e-004  -3.9156e-004   2.7987e-005   2.7879e+007   9.3939e+004   1.9591e+005    0.1936   -0.0000    0.0000   -0.0000    0.0033
                1.0948   9.4674e-004  -3.7282e-004   6.2753e-005   2.6544e+007   8.9405e+004   4.3927e+005    0.1843   -0.0000    0.0000   -0.0000    0.0073
                1.3554   8.8573e-004  -3.4880e-004   9.7554e-005   2.4834e+007   8.3602e+004   6.8288e+005    0.1725   -0.0000    0.0000   -0.0000    0.0114
                1.6336   8.1156e-004  -3.1959e-004   1.3193e-004   2.2754e+007   7.6566e+004   9.2354e+005    0.1580   -0.0000    0.0000   -0.0000    0.0154
                1.9309   7.2528e-004  -2.8562e-004   1.6519e-004   2.0335e+007   6.8394e+004   1.1563e+006    0.1412   -0.0000    0.0000   -0.0000    0.0193
                2.2458   6.2742e-004  -2.4708e-004   1.9617e-004   1.7592e+007   5.9133e+004   1.3732e+006    0.1222   -0.0000    0.0000   -0.0000    0.0229
                2.5794   5.1873e-004  -2.0428e-004   2.2396e-004   1.4544e+007   4.8867e+004   1.5677e+006    0.1010   -0.0000    0.0000   -0.0000    0.0261
                2.8546   4.2603e-004  -1.6778e-004   2.4284e-004   1.1945e+007   4.0135e+004   1.6999e+006    0.0830   -0.0000    0.0000   -0.0000    0.0283

               lamina:  5     
              matName:  (blade-shell)
                     s           e11           e22           e12           s11           s22           s12   s11_fcT   s11_fcC   s22_fcT   s22_fcC   s12_fcS
                   (m)         (m/m)         (m/m)         (rad)          (Pa)          (Pa)          (Pa)       (-)       (-)       (-)       (-)       (-)
                0.0000   1.0471e-003  -4.1232e-004   1.0062e-004   2.9358e+007   9.9102e+004   7.0432e+005    0.2039   -0.0000    0.0000   -0.0000    0.0117
                0.1859   1.0529e-003  -4.1463e-004   7.2071e-005   2.9522e+007   9.9655e+004   5.0450e+005    0.2050   -0.0000    0.0000   -0.0000    0.0084
                0.4067   1.0473e-003  -4.1240e-004   3.8171e-005   2.9363e+007   9.9109e+004   2.6720e+005    0.2039   -0.0000    0.0000   -0.0000    0.0045
                0.6221   1.0272e-003  -4.0448e-004   5.5181e-006   2.8799e+007   9.7172e+004   3.8626e+004    0.2000   -0.0000    0.0000   -0.0000    0.0006
                0.8491   9.9307e-004  -3.9106e-004   2.7987e-005   2.7844e+007   9.3908e+004   1.9591e+005    0.1934   -0.0000    0.0000   -0.0000    0.0033
                1.0948   9.4561e-004  -3.7237e-004   6.2753e-005   2.6513e+007   8.9377e+004   4.3927e+005    0.1841   -0.0000    0.0000   -0.0000    0.0073
                1.3554   8.8473e-004  -3.4840e-004   9.7554e-005   2.4806e+007   8.3577e+004   6.8288e+005    0.1723   -0.0000    0.0000   -0.0000    0.0114
                1.6336   8.1070e-004  -3.1925e-004   1.3193e-004   2.2730e+007   7.6544e+004   9.2354e+005    0.1578   -0.0000    0.0000   -0.0000    0.0154
                1.9309   7.2457e-004  -2.8534e-004   1.6519e-004   2.0315e+007   6.8376e+004   1.1563e+006    0.1411   -0.0000    0.0000   -0.0000    0.0193
                2.2458   6.2686e-004  -2.4686e-004   1.9617e-004   1.7576e+007   5.9119e+004   1.3732e+006    0.1221   -0.0000    0.0000   -0.0000    0.0229
                2.5794   5.1830e-004  -2.0411e-004   2.2396e-004   1.4532e+007   4.8857e+004   1.5677e+006    0.1009   -0.0000    0.0000   -0.0000    0.0261
                2.8546   4.2568e-004  -1.6764e-004   2.4284e-004   1.1935e+007   4.0126e+004   1.6999e+006    0.0829   -0.0000    0.0000   -0.0000    0.0283

            panel:  2     
           lam_num    nPlies        tPly      fibAng     matID  matName
               (-)       (-)         (m)       (deg)       (-)  (-)
                 1         1    0.005000      0.0000         2  (blade-shell)
                 2         1    0.003237      0.0000         1  (blade-root)
                 3         1    0.065249      0.0000         3  (spar-uni)
                 4         1    0.000002      0.0000         4  (spar-core)
                 5         1    0.065249      0.0000         3  (spar-uni)
                 6         1    0.003237      0.0000         1  (blade-root)
                 7         1    0.005000      0.0000         2  (blade-shell)

               lamina:  1     
              matName:  (blade-shell)
                     s           e11           e22           e12           s11           s22           s12   s11_fcT   s11_fcC   s22_fcT   s22_fcC   s12_fcS
                   (m)         (m/m)         (m/m)         (rad)          (Pa)          (Pa)          (Pa)       (-)       (-)       (-)       (-)       (-)
                0.0000   4.4593e-004  -1.3163e-004   4.5369e-005   1.2771e+007   7.1128e+005   3.1758e+005    0.0887   -0.0000    0.0000   -0.0000    0.0053
                0.0728   4.1578e-004  -1.2263e-004   5.7824e-005   1.1908e+007   6.6465e+005   4.0477e+005    0.0827   -0.0000    0.0000   -0.0000    0.0067
                0.4413   2.8489e-004  -8.4047e-005   1.0933e-004   8.1590e+006   4.5515e+005   7.6531e+005    0.0567   -0.0000    0.0000   -0.0000    0.0128
                0.8235   1.4718e-004  -4.3430e-005   1.4219e-004   4.2151e+006   2.3501e+005   9.9531e+005    0.0293   -0.0000    0.0000   -0.0000    0.0166
                1.2180   5.6075e-006  -1.6979e-006   1.5401e-004   1.6033e+005   8.2946e+003   1.0781e+006    0.0011   -0.0000    0.0000   -0.0000    0.0180
                1.4632  -8.2645e-005   2.4321e-005   1.5003e-004  -2.3673e+006  -1.3296e+005   1.0502e+006    0.0000    0.0111    0.0000    0.0000    0.0175

               lamina:  2     
              matName:  (blade-root)
                     s           e11           e22           e12           s11           s22           s12   s11_fcT   s11_fcC   s22_fcT   s22_fcC   s12_fcS
                   (m)         (m/m)         (m/m)         (rad)          (Pa)          (Pa)          (Pa)       (-)       (-)       (-)       (-)       (-)
                0.0000   4.4458e-004  -1.3120e-004   4.5369e-005   1.2732e+007   7.0959e+005   3.1758e+005    0.0884   -0.0000    0.0000   -0.0000    0.0053
                0.0728   4.1480e-004  -1.2232e-004   5.7824e-005   1.1880e+007   6.6343e+005   4.0477e+005    0.0825   -0.0000    0.0000   -0.0000    0.0067
                0.4413   2.8417e-004  -8.3818e-005   1.0933e-004   8.1384e+006   4.5424e+005   7.6531e+005    0.0565   -0.0000    0.0000   -0.0000    0.0128
                0.8235   1.4678e-004  -4.3303e-005   1.4219e-004   4.2038e+006   2.3451e+005   9.9531e+005    0.0292   -0.0000    0.0000   -0.0000    0.0166
                1.2180   5.4659e-006  -1.6530e-006   1.5401e-004   1.5629e+005   8.1167e+003   1.0781e+006    0.0011   -0.0000    0.0000   -0.0000    0.0180
                1.4632  -8.2613e-005   2.4311e-005   1.5003e-004  -2.3663e+006  -1.3292e+005   1.0502e+006    0.0000    0.0111    0.0000    0.0000    0.0175

               lamina:  3     
              matName:  (spar-uni)
                     s           e11           e22           e12           s11           s22           s12   s11_fcT   s11_fcC   s22_fcT   s22_fcC   s12_fcS
                   (m)         (m/m)         (m/m)         (rad)          (Pa)          (Pa)          (Pa)       (-)       (-)       (-)       (-)       (-)
                0.0000   4.4371e-004  -1.3092e-004   4.5369e-005   1.8609e+007  -9.6129e+004   1.3611e+005    0.0191   -0.0000    0.0000    0.0000    0.0045
                0.0728   4.1417e-004  -1.2212e-004   5.7824e-005   1.7370e+007  -8.8493e+004   1.7347e+005    0.0179   -0.0000    0.0000    0.0000    0.0058
                0.4413   2.8370e-004  -8.3669e-005   1.0933e-004   1.1898e+007  -6.0849e+004   3.2799e+005    0.0122   -0.0000    0.0000    0.0000    0.0109
                0.8235   1.4653e-004  -4.3221e-005   1.4219e-004   6.1452e+006  -3.1540e+004   4.2656e+005    0.0063   -0.0000    0.0000    0.0000    0.0142
                1.2180   5.3742e-006  -1.6239e-006   1.5401e-004   2.2524e+005  -1.7119e+003   4.6204e+005    0.0002   -0.0000    0.0000    0.0000    0.0154
                1.4632  -8.2593e-005   2.4304e-005   1.5003e-004  -3.4642e+006   1.6934e+004   4.5008e+005    0.0000    0.0049    0.0000   -0.0000    0.0150

               lamina:  4     
              matName:  (spar-core)
                     s           e11           e22           e12           s11           s22           s12   s11_fcT   s11_fcC   s22_fcT   s22_fcC   s12_fcS
                   (m)         (m/m)         (m/m)         (rad)          (Pa)          (Pa)          (Pa)       (-)       (-)       (-)       (-)       (-)
                0.0000   4.2609e-004  -1.2533e-004   4.5369e-005   1.1100e+005   7.1273e+002   9.0738e+002    0.0000   -0.0000    0.0000   -0.0000    0.0000
                0.0728   4.0142e-004  -1.1808e-004   5.7824e-005   1.0457e+005   6.7146e+002   1.1565e+003    0.0000   -0.0000    0.0000   -0.0000    0.0000
                0.4413   2.7427e-004  -8.0676e-005   1.0933e-004   7.1448e+004   4.5878e+002   2.1866e+003    0.0000   -0.0000    0.0000   -0.0000    0.0000
                0.8235   1.4132e-004  -4.1569e-005   1.4219e-004   3.6814e+004   2.3639e+002   2.8437e+003    0.0000   -0.0000    0.0000   -0.0000    0.0000
                1.2180   3.5261e-006  -1.0372e-006   1.5401e-004   9.1855e+002   5.8982e+000   3.0803e+003    0.0000   -0.0000    0.0000   -0.0000    0.0000
                1.4632  -8.2179e-005   2.4172e-005   1.5003e-004  -2.1408e+004  -1.3746e+002   3.0005e+003    0.0000    0.0000    0.0000    0.0000    0.0000

               lamina:  5     
              matName:  (spar-uni)
                     s           e11           e22           e12           s11           s22           s12   s11_fcT   s11_fcC   s22_fcT   s22_fcC   s12_fcS
                   (m)         (m/m)         (m/m)         (rad)          (Pa)          (Pa)          (Pa)       (-)       (-)       (-)       (-)       (-)
                0.0000   4.2609e-004  -1.2533e-004   4.5369e-005   1.7872e+007  -8.6646e+004   1.3611e+005    0.0184   -0.0000    0.0000    0.0000    0.0045
                0.0728   4.0142e-004  -1.1808e-004   5.7824e-005   1.6837e+007  -8.1629e+004   1.7347e+005    0.0173   -0.0000    0.0000    0.0000    0.0058
                0.4413   2.7427e-004  -8.0676e-005   1.0933e-004   1.1504e+007  -5.5774e+004   3.2799e+005    0.0118   -0.0000    0.0000    0.0000    0.0109
                0.8235   1.4132e-004  -4.1569e-005   1.4219e-004   5.9274e+006  -2.8738e+004   4.2656e+005    0.0061   -0.0000    0.0000    0.0000    0.0142
                1.2180   3.5260e-006  -1.0372e-006   1.5401e-004   1.4789e+005  -7.1702e+002   4.6204e+005    0.0002   -0.0000    0.0000    0.0000    0.0154
                1.4632  -8.2179e-005   2.4172e-005   1.5003e-004  -3.4468e+006   1.6711e+004   4.5008e+005    0.0000    0.0049    0.0000   -0.0000    0.0150

               lamina:  6     
              matName:  (blade-root)
                     s           e11           e22           e12           s11           s22           s12   s11_fcT   s11_fcC   s22_fcT   s22_fcC   s12_fcS
                   (m)         (m/m)         (m/m)         (rad)          (Pa)          (Pa)          (Pa)       (-)       (-)       (-)       (-)       (-)
                0.0000   4.0848e-004  -1.1974e-004   4.5369e-005   1.1703e+007   6.6423e+005   3.1758e+005    0.0813   -0.0000    0.0000   -0.0000    0.0053
                0.0728   3.8867e-004  -1.1403e-004   5.7824e-005   1.1135e+007   6.3060e+005   4.0477e+005    0.0773   -0.0000    0.0000   -0.0000    0.0067
                0.4413   2.6484e-004  -7.7683e-005   1.0933e-004   7.5876e+006   4.2996e+005   7.6531e+005    0.0527   -0.0000    0.0000   -0.0000    0.0128
                0.8235   1.3612e-004  -3.9917e-005   1.4219e-004   3.8997e+006   2.2111e+005   9.9531e+005    0.0271   -0.0000    0.0000   -0.0000    0.0166
                1.2180   1.6779e-006  -4.5049e-007   1.5401e-004   4.8325e+004   3.3582e+003   1.0781e+006    0.0003   -0.0000    0.0000   -0.0000    0.0180
                1.4632  -8.1764e-005   2.4041e-005   1.5003e-004  -2.3421e+006  -1.3186e+005   1.0502e+006    0.0000    0.0110    0.0000    0.0000    0.0175

               lamina:  7     
              matName:  (blade-shell)
                     s           e11           e22           e12           s11           s22           s12   s11_fcT   s11_fcC   s22_fcT   s22_fcC   s12_fcS
                   (m)         (m/m)         (m/m)         (rad)          (Pa)          (Pa)          (Pa)       (-)       (-)       (-)       (-)       (-)
                0.0000   4.0760e-004  -1.1946e-004   4.5369e-005   1.1678e+007   6.6313e+005   3.1758e+005    0.0811   -0.0000    0.0000   -0.0000    0.0053
                0.0728   3.8803e-004  -1.1383e-004   5.7824e-005   1.1117e+007   6.2980e+005   4.0477e+005    0.0772   -0.0000    0.0000   -0.0000    0.0067
                0.4413   2.6438e-004  -7.7534e-005   1.0933e-004   7.5743e+006   4.2937e+005   7.6531e+005    0.0526   -0.0000    0.0000   -0.0000    0.0128
                0.8235   1.3586e-004  -3.9835e-005   1.4219e-004   3.8923e+006   2.2078e+005   9.9531e+005    0.0270   -0.0000    0.0000   -0.0000    0.0166
                1.2180   1.5863e-006  -4.2139e-007   1.5401e-004   4.5712e+004   3.2430e+003   1.0781e+006    0.0003   -0.0000    0.0000   -0.0000    0.0180
                1.4632  -8.1744e-005   2.4034e-005   1.5003e-004  -2.3416e+006  -1.3183e+005   1.0502e+006    0.0000    0.0110    0.0000    0.0000    0.0175

            panel:  3     
           lam_num    nPlies        tPly      fibAng     matID  matName
               (-)       (-)         (m)       (deg)       (-)  (-)
                 1         1    0.005000      0.0000         2  (blade-shell)
                 2         1    0.003237      0.0000         1  (blade-root)
                 3         1    0.057572      0.0000         6  (TEP-core)
                 4         1    0.003237      0.0000         1  (blade-root)
                 5         1    0.005000      0.0000         2  (blade-shell)

               lamina:  1     
              matName:  (blade-shell)
                     s           e11           e22           e12           s11           s22           s12   s11_fcT   s11_fcC   s22_fcT   s22_fcC   s12_fcS
                   (m)         (m/m)         (m/m)         (rad)          (Pa)          (Pa)          (Pa)       (-)       (-)       (-)       (-)       (-)
                0.0000  -8.2345e-005   3.2432e-005   6.5283e-004  -2.3088e+006  -7.7094e+003   4.5698e+006    0.0000    0.0108    0.0000    0.0000    0.0762
                0.0073  -8.4885e-005   3.3432e-005   6.5274e-004  -2.3800e+006  -7.9474e+003   4.5692e+006    0.0000    0.0112    0.0000    0.0000    0.0762

               lamina:  2     
              matName:  (blade-root)
                     s           e11           e22           e12           s11           s22           s12   s11_fcT   s11_fcC   s22_fcT   s22_fcC   s12_fcS
                   (m)         (m/m)         (m/m)         (rad)          (Pa)          (Pa)          (Pa)       (-)       (-)       (-)       (-)       (-)
                0.0000  -8.2333e-005   3.2426e-005   6.5283e-004  -2.3084e+006  -7.7091e+003   4.5698e+006    0.0000    0.0108    0.0000    0.0000    0.0762
                0.0073  -8.4873e-005   3.3427e-005   6.5274e-004  -2.3796e+006  -7.9471e+003   4.5692e+006    0.0000    0.0112    0.0000    0.0000    0.0762

               lamina:  3     
              matName:  (TEP-core)
                     s           e11           e22           e12           s11           s22           s12   s11_fcT   s11_fcC   s22_fcT   s22_fcC   s12_fcS
                   (m)         (m/m)         (m/m)         (rad)          (Pa)          (Pa)          (Pa)       (-)       (-)       (-)       (-)       (-)
                0.0000  -8.2324e-005   3.2423e-005   6.5283e-004  -2.0742e+004   2.2074e+003   1.3057e+004    0.0000    0.0000    0.0000   -0.0000    0.0000
                0.0073  -8.4864e-005   3.3424e-005   6.5274e-004  -2.1382e+004   2.2755e+003   1.3055e+004    0.0000    0.0000    0.0000   -0.0000    0.0000

               lamina:  4     
              matName:  (blade-root)
                     s           e11           e22           e12           s11           s22           s12   s11_fcT   s11_fcC   s22_fcT   s22_fcC   s12_fcS
                   (m)         (m/m)         (m/m)         (rad)          (Pa)          (Pa)          (Pa)       (-)       (-)       (-)       (-)       (-)
                0.0000  -8.2177e-005   3.2365e-005   6.5283e-004  -2.3040e+006  -7.7052e+003   4.5698e+006    0.0000    0.0108    0.0000    0.0000    0.0762
                0.0073  -8.4717e-005   3.3365e-005   6.5274e-004  -2.3753e+006  -7.9432e+003   4.5692e+006    0.0000    0.0112    0.0000    0.0000    0.0762

               lamina:  5     
              matName:  (blade-shell)
                     s           e11           e22           e12           s11           s22           s12   s11_fcT   s11_fcC   s22_fcT   s22_fcC   s12_fcS
                   (m)         (m/m)         (m/m)         (rad)          (Pa)          (Pa)          (Pa)       (-)       (-)       (-)       (-)       (-)
                0.0000  -8.2169e-005   3.2361e-005   6.5283e-004  -2.3038e+006  -7.7050e+003   4.5698e+006    0.0000    0.0108    0.0000    0.0000    0.0762
                0.0073  -8.4709e-005   3.3362e-005   6.5274e-004  -2.3750e+006  -7.9430e+003   4.5692e+006    0.0000    0.0112    0.0000    0.0000    0.0762

            panel:  4     
           lam_num    nPlies        tPly      fibAng     matID  matName
               (-)       (-)         (m)       (deg)       (-)  (-)
                 1         1    0.005000      0.0000         2  (blade-shell)
                 2         1    0.003237      0.0000         1  (blade-root)
                 3         1    0.057572      0.0000         6  (TEP-core)
                 4         1    0.003237      0.0000         1  (blade-root)
                 5         1    0.005000      0.0000         2  (blade-shell)

               lamina:  1     
              matName:  (blade-shell)
                     s           e11           e22           e12           s11           s22           s12   s11_fcT   s11_fcC   s22_fcT   s22_fcC   s12_fcS
                   (m)         (m/m)         (m/m)         (rad)          (Pa)          (Pa)          (Pa)       (-)       (-)       (-)       (-)       (-)
                0.0000  -8.4885e-005   3.3432e-005   5.8640e-004  -2.3800e+006  -7.9474e+003   4.1048e+006    0.0000    0.0112    0.0000    0.0000    0.0684
                0.1503  -1.3790e-004   5.4315e-005   5.8631e-004  -3.8664e+006  -1.2882e+004   4.1042e+006    0.0000    0.0182    0.0000    0.0000    0.0684
                0.5590  -2.8110e-004   1.1071e-004   5.8631e-004  -7.8813e+006  -2.6268e+004   4.1042e+006    0.0000    0.0370    0.0000    0.0000    0.0684
                0.9670  -4.2372e-004   1.6689e-004   5.8390e-004  -1.1880e+007  -3.9602e+004   4.0873e+006    0.0000    0.0558    0.0000    0.0000    0.0681
                1.3686  -5.6373e-004   2.2203e-004   5.7160e-004  -1.5806e+007  -5.2701e+004   4.0012e+006    0.0000    0.0742    0.0000    0.0000    0.0667
                1.7591  -6.9950e-004   2.7550e-004   5.5093e-004  -1.9612e+007  -6.5410e+004   3.8565e+006    0.0000    0.0921    0.0000    0.0000    0.0643
                1.8742  -7.3958e-004   2.9129e-004   5.2243e-004  -2.0736e+007  -6.9155e+004   3.6570e+006    0.0000    0.0974    0.0000    0.0000    0.0609

               lamina:  2     
              matName:  (blade-root)
                     s           e11           e22           e12           s11           s22           s12   s11_fcT   s11_fcC   s22_fcT   s22_fcC   s12_fcS
                   (m)         (m/m)         (m/m)         (rad)          (Pa)          (Pa)          (Pa)       (-)       (-)       (-)       (-)       (-)
                0.0000  -8.4873e-005   3.3427e-005   5.8640e-004  -2.3796e+006  -7.9471e+003   4.1048e+006    0.0000    0.0112    0.0000    0.0000    0.0684
                0.1503  -1.3783e-004   5.4284e-005   5.8631e-004  -3.8643e+006  -1.2880e+004   4.1042e+006    0.0000    0.0181    0.0000    0.0000    0.0684
                0.5590  -2.8096e-004   1.1066e-004   5.8631e-004  -7.8773e+006  -2.6265e+004   4.1042e+006    0.0000    0.0370    0.0000    0.0000    0.0684
                0.9670  -4.2352e-004   1.6681e-004   5.8390e-004  -1.1874e+007  -3.9597e+004   4.0873e+006    0.0000    0.0557    0.0000    0.0000    0.0681
                1.3686  -5.6349e-004   2.2193e-004   5.7160e-004  -1.5799e+007  -5.2695e+004   4.0012e+006    0.0000    0.0742    0.0000    0.0000    0.0667
                1.7591  -6.9923e-004   2.7540e-004   5.5093e-004  -1.9605e+007  -6.5403e+004   3.8565e+006    0.0000    0.0920    0.0000    0.0000    0.0643
                1.8742  -7.3930e-004   2.9118e-004   5.2243e-004  -2.0728e+007  -6.9148e+004   3.6570e+006    0.0000    0.0973    0.0000    0.0000    0.0609

               lamina:  3     
              matName:  (TEP-core)
                     s           e11           e22           e12           s11           s22           s12   s11_fcT   s11_fcC   s22_fcT   s22_fcC   s12_fcS
                   (m)         (m/m)         (m/m)         (rad)          (Pa)          (Pa)          (Pa)       (-)       (-)       (-)       (-)       (-)
                0.0000  -8.4864e-005   3.3424e-005   5.8640e-004  -2.1382e+004   2.2755e+003   1.1728e+004    0.0000    0.0000    0.0000   -0.0000    0.0000
                0.1503  -1.3778e-004   5.4264e-005   5.8631e-004  -3.4713e+004   3.6946e+003   1.1726e+004    0.0000    0.0000    0.0000   -0.0000    0.0000
                0.5590  -2.8087e-004   1.1062e-004   5.8631e-004  -7.0766e+004   7.5317e+003   1.1726e+004    0.0000    0.0000    0.0000   -0.0000    0.0000
                0.9670  -4.2339e-004   1.6676e-004   5.8390e-004  -1.0668e+005   1.1354e+004   1.1678e+004    0.0000    0.0000    0.0000   -0.0000    0.0000
                1.3686  -5.6334e-004   2.2187e-004   5.7160e-004  -1.4194e+005   1.5106e+004   1.1432e+004    0.0000    0.0000    0.0000   -0.0000    0.0000
                1.7591  -6.9906e-004   2.7533e-004   5.5093e-004  -1.7613e+005   1.8745e+004   1.1019e+004    0.0000    0.0000    0.0000   -0.0000    0.0000
                1.8742  -7.3912e-004   2.9110e-004   5.2243e-004  -1.8622e+005   1.9819e+004   1.0449e+004    0.0000    0.0000    0.0000   -0.0000    0.0000

               lamina:  4     
              matName:  (blade-root)
                     s           e11           e22           e12           s11           s22           s12   s11_fcT   s11_fcC   s22_fcT   s22_fcC   s12_fcS
                   (m)         (m/m)         (m/m)         (rad)          (Pa)          (Pa)          (Pa)       (-)       (-)       (-)       (-)       (-)
                0.0000  -8.4717e-005   3.3365e-005   5.8640e-004  -2.3753e+006  -7.9432e+003   4.1048e+006    0.0000    0.0112    0.0000    0.0000    0.0684
                0.1503  -1.3689e-004   5.3910e-005   5.8631e-004  -3.8380e+006  -1.2857e+004   4.1042e+006    0.0000    0.0180    0.0000    0.0000    0.0684
                0.5590  -2.7926e-004   1.0998e-004   5.8631e-004  -7.8299e+006  -2.6223e+004   4.1042e+006    0.0000    0.0368    0.0000    0.0000    0.0684
                0.9670  -4.2110e-004   1.6584e-004   5.8390e-004  -1.1807e+007  -3.9537e+004   4.0873e+006    0.0000    0.0554    0.0000    0.0000    0.0681
                1.3686  -5.6059e-004   2.2078e-004   5.7160e-004  -1.5717e+007  -5.2622e+004   4.0012e+006    0.0000    0.0738    0.0000    0.0000    0.0667
                1.7591  -6.9603e-004   2.7412e-004   5.5093e-004  -1.9515e+007  -6.5323e+004   3.8565e+006    0.0000    0.0916    0.0000    0.0000    0.0643
                1.8742  -7.3585e-004   2.8980e-004   5.2243e-004  -2.0631e+007  -6.9062e+004   3.6570e+006    0.0000    0.0969    0.0000    0.0000    0.0609

               lamina:  5     
              matName:  (blade-shell)
                     s           e11           e22           e12           s11           s22           s12   s11_fcT   s11_fcC   s22_fcT   s22_fcC   s12_fcS
                   (m)         (m/m)         (m/m)         (rad)          (Pa)          (Pa)          (Pa)       (-)       (-)       (-)       (-)       (-)
                0.0000  -8.4709e-005   3.3362e-005   5.8640e-004  -2.3750e+006  -7.9430e+003   4.1048e+006    0.0000    0.0112    0.0000    0.0000    0.0684
                0.1503  -1.3684e-004   5.3890e-005   5.8631e-004  -3.8366e+006  -1.2856e+004   4.1042e+006    0.0000    0.0180    0.0000    0.0000    0.0684
                0.5590  -2.7917e-004   1.0995e-004   5.8631e-004  -7.8273e+006  -2.6220e+004   4.1042e+006    0.0000    0.0367    0.0000    0.0000    0.0684
                0.9670  -4.2097e-004   1.6579e-004   5.8390e-004  -1.1803e+007  -3.9533e+004   4.0873e+006    0.0000    0.0554    0.0000    0.0000    0.0681
                1.3686  -5.6043e-004   2.2071e-004   5.7160e-004  -1.5713e+007  -5.2618e+004   4.0012e+006    0.0000    0.0738    0.0000    0.0000    0.0667
                1.7591  -6.9586e-004   2.7405e-004   5.5093e-004  -1.9510e+007  -6.5319e+004   3.8565e+006    0.0000    0.0916    0.0000    0.0000    0.0643
                1.8742  -7.3566e-004   2.8973e-004   5.2243e-004  -2.0626e+007  -6.9058e+004   3.6570e+006    0.0000    0.0968    0.0000    0.0000    0.0609

            panel:  5     
           lam_num    nPlies        tPly      fibAng     matID  matName
               (-)       (-)         (m)       (deg)       (-)  (-)
                 1         1    0.005000      0.0000         2  (blade-shell)
                 2         1    0.003237      0.0000         1  (blade-root)
                 3         1    0.057572      0.0000         6  (TEP-core)
                 4         1    0.003237      0.0000         1  (blade-root)
                 5         1    0.005000      0.0000         2  (blade-shell)

               lamina:  1     
              matName:  (blade-shell)
                     s           e11           e22           e12           s11           s22           s12   s11_fcT   s11_fcC   s22_fcT   s22_fcC   s12_fcS
                   (m)         (m/m)         (m/m)         (rad)          (Pa)          (Pa)          (Pa)       (-)       (-)       (-)       (-)       (-)
                0.0000  -7.3958e-004   2.9129e-004   4.8696e-004  -2.0736e+007  -6.9155e+004   3.4088e+006    0.0000    0.0974    0.0000    0.0000    0.0568
                0.2588  -8.2940e-004   3.2666e-004   4.7505e-004  -2.3254e+007  -7.7567e+004   3.3253e+006    0.0000    0.1092    0.0000    0.0000    0.0554
                0.6119  -9.5182e-004   3.7488e-004   4.1196e-004  -2.6686e+007  -8.9033e+004   2.8837e+006    0.0000    0.1253    0.0000    0.0000    0.0481
                0.9394  -1.0653e-003   4.1957e-004   3.8275e-004  -2.9868e+007  -9.9663e+004   2.6793e+006    0.0000    0.1402    0.0000    0.0000    0.0447
                1.2380  -1.1687e-003   4.6029e-004   3.3750e-004  -3.2767e+007  -1.0935e+005   2.3625e+006    0.0000    0.1538    0.0000    0.0000    0.0394
                1.5037  -1.2607e-003   4.9652e-004   2.8997e-004  -3.5346e+007  -1.1797e+005   2.0298e+006    0.0000    0.1659    0.0000    0.0000    0.0338
                1.7335  -1.3403e-003   5.2788e-004   2.4197e-004  -3.7579e+007  -1.2542e+005   1.6938e+006    0.0000    0.1764    0.0000    0.0000    0.0282
                1.9257  -1.4069e-003   5.5410e-004   1.9549e-004  -3.9446e+007  -1.3165e+005   1.3685e+006    0.0000    0.1852    0.0000    0.0000    0.0228
                2.0774  -1.4596e-003   5.7487e-004   1.5247e-004  -4.0923e+007  -1.3656e+005   1.0673e+006    0.0000    0.1921    0.0000    0.0000    0.0178
                2.1883  -1.4981e-003   5.9002e-004   1.1446e-004  -4.2002e+007  -1.4013e+005   8.0125e+005    0.0000    0.1972    0.0000    0.0000    0.0134
                2.2456  -1.5224e-003   5.9963e-004   8.3165e-005  -4.2685e+007  -1.4209e+005   5.8215e+005    0.0000    0.2004    0.0000    0.0000    0.0097
                2.2794  -1.5338e-003   6.0413e-004   5.9563e-005  -4.3003e+007  -1.4280e+005   4.1694e+005    0.0000    0.2019    0.0000    0.0000    0.0069

               lamina:  2     
              matName:  (blade-root)
                     s           e11           e22           e12           s11           s22           s12   s11_fcT   s11_fcC   s22_fcT   s22_fcC   s12_fcS
                   (m)         (m/m)         (m/m)         (rad)          (Pa)          (Pa)          (Pa)       (-)       (-)       (-)       (-)       (-)
                0.0000  -7.3930e-004   2.9118e-004   4.8696e-004  -2.0728e+007  -6.9148e+004   3.4088e+006    0.0000    0.0973    0.0000    0.0000    0.0568
                0.2588  -8.2911e-004   3.2655e-004   4.7505e-004  -2.3246e+007  -7.7560e+004   3.3253e+006    0.0000    0.1091    0.0000    0.0000    0.0554
                0.6119  -9.5152e-004   3.7476e-004   4.1196e-004  -2.6678e+007  -8.9026e+004   2.8837e+006    0.0000    0.1252    0.0000    0.0000    0.0481
                0.9394  -1.0650e-003   4.1945e-004   3.8275e-004  -2.9860e+007  -9.9656e+004   2.6793e+006    0.0000    0.1402    0.0000    0.0000    0.0447
                1.2380  -1.1684e-003   4.6016e-004   3.3750e-004  -3.2758e+007  -1.0934e+005   2.3625e+006    0.0000    0.1538    0.0000    0.0000    0.0394
                1.5037  -1.2604e-003   4.9639e-004   2.8997e-004  -3.5337e+007  -1.1796e+005   2.0298e+006    0.0000    0.1659    0.0000    0.0000    0.0338
                1.7335  -1.3400e-003   5.2775e-004   2.4197e-004  -3.7570e+007  -1.2541e+005   1.6938e+006    0.0000    0.1764    0.0000    0.0000    0.0282
                1.9257  -1.4065e-003   5.5396e-004   1.9549e-004  -3.9436e+007  -1.3164e+005   1.3685e+006    0.0000    0.1851    0.0000    0.0000    0.0228
                2.0774  -1.4592e-003   5.7471e-004   1.5247e-004  -4.0912e+007  -1.3655e+005   1.0673e+006    0.0000    0.1921    0.0000    0.0000    0.0178
                2.1883  -1.4976e-003   5.8984e-004   1.1446e-004  -4.1989e+007  -1.4012e+005   8.0125e+005    0.0000    0.1971    0.0000    0.0000    0.0134
                2.2456  -1.5213e-003   5.9919e-004   8.3165e-005  -4.2654e+007  -1.4206e+005   5.8215e+005    0.0000    0.2003    0.0000    0.0000    0.0097
                2.2794  -1.5320e-003   6.0341e-004   5.9563e-005  -4.2952e+007  -1.4275e+005   4.1694e+005    0.0000    0.2017    0.0000    0.0000    0.0069

               lamina:  3     
              matName:  (TEP-core)
                     s           e11           e22           e12           s11           s22           s12   s11_fcT   s11_fcC   s22_fcT   s22_fcC   s12_fcS
                   (m)         (m/m)         (m/m)         (rad)          (Pa)          (Pa)          (Pa)       (-)       (-)       (-)       (-)       (-)
                0.0000  -7.3912e-004   2.9110e-004   4.8696e-004  -1.8622e+005   1.9819e+004   9.7393e+003    0.0000    0.0000    0.0000   -0.0000    0.0000
                0.2588  -8.2892e-004   3.2647e-004   4.7505e-004  -2.0885e+005   2.2227e+004   9.5009e+003    0.0000    0.0000    0.0000   -0.0000    0.0000
                0.6119  -9.5132e-004   3.7468e-004   4.1196e-004  -2.3969e+005   2.5509e+004   8.2392e+003    0.0000    0.0000    0.0000   -0.0000    0.0000
                0.9394  -1.0648e-003   4.1937e-004   3.8275e-004  -2.6828e+005   2.8552e+004   7.6551e+003    0.0000    0.0000    0.0000   -0.0000    0.0000
                1.2380  -1.1682e-003   4.6008e-004   3.3750e-004  -2.9433e+005   3.1323e+004   6.7501e+003    0.0000    0.0000    0.0000   -0.0000    0.0000
                1.5037  -1.2602e-003   4.9631e-004   2.8997e-004  -3.1750e+005   3.3790e+004   5.7994e+003    0.0000    0.0000    0.0000   -0.0000    0.0000
                1.7335  -1.3398e-003   5.2767e-004   2.4197e-004  -3.3756e+005   3.5924e+004   4.8394e+003    0.0000    0.0000    0.0000   -0.0000    0.0000
                1.9257  -1.4063e-003   5.5387e-004   1.9549e-004  -3.5433e+005   3.7709e+004   3.9099e+003    0.0000    0.0000    0.0000   -0.0000    0.0000
                2.0774  -1.4589e-003   5.7460e-004   1.5247e-004  -3.6759e+005   3.9120e+004   3.0495e+003    0.0000    0.0000    0.0000   -0.0000    0.0000
                2.1883  -1.4973e-003   5.8971e-004   1.1446e-004  -3.7725e+005   4.0149e+004   2.2893e+003    0.0000    0.0000    0.0000   -0.0000    0.0000
                2.2456  -1.5206e-003   5.9891e-004   8.3165e-005  -3.8312e+005   4.0779e+004   1.6633e+003    0.0000    0.0000    0.0000   -0.0000    0.0000
                2.2794  -1.5308e-003   6.0294e-004   5.9563e-005  -3.8569e+005   4.1058e+004   1.1913e+003    0.0000    0.0000    0.0000   -0.0000    0.0000

               lamina:  4     
              matName:  (blade-root)
                     s           e11           e22           e12           s11           s22           s12   s11_fcT   s11_fcC   s22_fcT   s22_fcC   s12_fcS
                   (m)         (m/m)         (m/m)         (rad)          (Pa)          (Pa)          (Pa)       (-)       (-)       (-)       (-)       (-)
                0.0000  -7.3585e-004   2.8980e-004   4.8696e-004  -2.0631e+007  -6.9062e+004   3.4088e+006    0.0000    0.0969    0.0000    0.0000    0.0568
                0.2588  -8.2555e-004   3.2513e-004   4.7505e-004  -2.3146e+007  -7.7471e+004   3.3253e+006    0.0000    0.1087    0.0000    0.0000    0.0554
                0.6119  -9.4785e-004   3.7330e-004   4.1196e-004  -2.6575e+007  -8.8934e+004   2.8837e+006    0.0000    0.1248    0.0000    0.0000    0.0481
                0.9394  -1.0612e-003   4.1795e-004   3.8275e-004  -2.9754e+007  -9.9562e+004   2.6793e+006    0.0000    0.1397    0.0000    0.0000    0.0447
                1.2380  -1.1645e-003   4.5864e-004   3.3750e-004  -3.2651e+007  -1.0924e+005   2.3625e+006    0.0000    0.1533    0.0000    0.0000    0.0394
                1.5037  -1.2565e-003   4.9487e-004   2.8997e-004  -3.5230e+007  -1.1786e+005   2.0298e+006    0.0000    0.1654    0.0000    0.0000    0.0338
                1.7335  -1.3360e-003   5.2616e-004   2.4197e-004  -3.7458e+007  -1.2531e+005   1.6938e+006    0.0000    0.1759    0.0000    0.0000    0.0282
                1.9257  -1.4023e-003   5.5226e-004   1.9549e-004  -3.9316e+007  -1.3153e+005   1.3685e+006    0.0000    0.1846    0.0000    0.0000    0.0228
                2.0774  -1.4543e-003   5.7275e-004   1.5247e-004  -4.0775e+007  -1.3643e+005   1.0673e+006    0.0000    0.1914    0.0000    0.0000    0.0178
                2.1883  -1.4918e-003   5.8754e-004   1.1446e-004  -4.1828e+007  -1.3998e+005   8.0125e+005    0.0000    0.1964    0.0000    0.0000    0.0134
                2.2456  -1.5079e-003   5.9383e-004   8.3165e-005  -4.2277e+007  -1.4173e+005   5.8215e+005    0.0000    0.1985    0.0000    0.0000    0.0097
                2.2794  -1.5100e-003   5.9467e-004   5.9563e-005  -4.2338e+007  -1.4221e+005   4.1694e+005    0.0000    0.1988    0.0000    0.0000    0.0069

               lamina:  5     
              matName:  (blade-shell)
                     s           e11           e22           e12           s11           s22           s12   s11_fcT   s11_fcC   s22_fcT   s22_fcC   s12_fcS
                   (m)         (m/m)         (m/m)         (rad)          (Pa)          (Pa)          (Pa)       (-)       (-)       (-)       (-)       (-)
                0.0000  -7.3566e-004   2.8973e-004   4.8696e-004  -2.0626e+007  -6.9058e+004   3.4088e+006    0.0000    0.0968    0.0000    0.0000    0.0568
                0.2588  -8.2536e-004   3.2505e-004   4.7505e-004  -2.3141e+007  -7.7466e+004   3.3253e+006    0.0000    0.1086    0.0000    0.0000    0.0554
                0.6119  -9.4766e-004   3.7322e-004   4.1196e-004  -2.6570e+007  -8.8930e+004   2.8837e+006    0.0000    0.1247    0.0000    0.0000    0.0481
                0.9394  -1.0610e-003   4.1787e-004   3.8275e-004  -2.9749e+007  -9.9557e+004   2.6793e+006    0.0000    0.1397    0.0000    0.0000    0.0447
                1.2380  -1.1643e-003   4.5855e-004   3.3750e-004  -3.2645e+007  -1.0924e+005   2.3625e+006    0.0000    0.1533    0.0000    0.0000    0.0394
                1.5037  -1.2563e-003   4.9479e-004   2.8997e-004  -3.5224e+007  -1.1786e+005   2.0298e+006    0.0000    0.1654    0.0000    0.0000    0.0338
                1.7335  -1.3358e-003   5.2608e-004   2.4197e-004  -3.7452e+007  -1.2531e+005   1.6938e+006    0.0000    0.1758    0.0000    0.0000    0.0282
                1.9257  -1.4020e-003   5.5217e-004   1.9549e-004  -3.9309e+007  -1.3153e+005   1.3685e+006    0.0000    0.1846    0.0000    0.0000    0.0228
                2.0774  -1.4540e-003   5.7265e-004   1.5247e-004  -4.0768e+007  -1.3642e+005   1.0673e+006    0.0000    0.1914    0.0000    0.0000    0.0178
                2.1883  -1.4915e-003   5.8742e-004   1.1446e-004  -4.1819e+007  -1.3997e+005   8.0125e+005    0.0000    0.1963    0.0000    0.0000    0.0134
                2.2456  -1.5071e-003   5.9354e-004   8.3165e-005  -4.2256e+007  -1.4171e+005   5.8215e+005    0.0000    0.1984    0.0000    0.0000    0.0097
                2.2794  -1.5089e-003   5.9421e-004   5.9563e-005  -4.2305e+007  -1.4218e+005   4.1694e+005    0.0000    0.1986    0.0000    0.0000    0.0069

  Bottom:  panel  nNode   nLam     xc_St    xc_End         b         t         E_eff         G_eff      nu_eff     density  buckleCrit
            (-)    (-)    (-)       (-)       (-)       (m)       (m)          (Pa)          (Pa)         (-)    (kg/m^3)         (-)
              1     12      5    0.0000    0.2864    2.9425    0.0740   6.4337e+009   1.5729e+009      0.3938    567.0959      0.0010
              2      6      7    0.2864    0.4796    1.4817    0.1470   4.0452e+010   3.4483e+009      0.2941   1912.1313      0.0001
              3      2      5    0.4796    0.4805    0.0076    0.0740   6.4337e+009   1.5729e+009      0.3938    567.0959      0.0000
              4      7      5    0.4805    0.7178    1.9797    0.0740   6.4337e+009   1.5729e+009      0.3938    567.0959      0.0941
              5     12      5    0.7178    1.0000    2.2314    0.0740   6.4337e+009   1.5729e+009      0.3938    567.0959      0.0944

            panel:  1     
           lam_num    nPlies        tPly      fibAng     matID  matName
               (-)       (-)         (m)       (deg)       (-)  (-)
                 1         1    0.005000      0.0000         2  (blade-shell)
                 2         1    0.003237      0.0000         1  (blade-root)
                 3         1    0.057572      0.0000         5  (LEP-core)
                 4         1    0.003237      0.0000         1  (blade-root)
                 5         1    0.005000      0.0000         2  (blade-shell)

               lamina:  1     
              matName:  (blade-shell)
                     s           e11           e22           e12           s11           s22           s12   s11_fcT   s11_fcC   s22_fcT   s22_fcC   s12_fcS
                   (m)         (m/m)         (m/m)         (rad)          (Pa)          (Pa)          (Pa)       (-)       (-)       (-)       (-)       (-)
                0.0000   1.0779e-003  -4.2460e-004   1.0062e-004   3.0222e+007   9.9910e+004   7.0432e+005    0.2099   -0.0000    0.0000   -0.0000    0.0117
                0.1865   1.0575e-003  -4.1657e-004   1.2892e-004   2.9650e+007   9.8035e+004   9.0241e+005    0.2059   -0.0000    0.0000   -0.0000    0.0150
                0.4053   1.0208e-003  -4.0210e-004   1.6126e-004   2.8620e+007   9.4688e+004   1.1288e+006    0.1988   -0.0000    0.0000   -0.0000    0.0188
                0.6265   9.7098e-004  -3.8247e-004   1.9261e-004   2.7223e+007   9.0142e+004   1.3483e+006    0.1891   -0.0000    0.0000   -0.0000    0.0225
                0.8655   9.0793e-004  -3.5763e-004   2.2461e-004   2.5456e+007   8.4351e+004   1.5723e+006    0.1768   -0.0000    0.0000   -0.0000    0.0262
                1.1265   8.3209e-004  -3.2775e-004   2.5700e-004   2.3329e+007   7.7361e+004   1.7990e+006    0.1620   -0.0000    0.0000   -0.0000    0.0300
                1.4045   7.4480e-004  -2.9336e-004   2.8830e-004   2.0882e+007   6.9306e+004   2.0181e+006    0.1450   -0.0000    0.0000   -0.0000    0.0336
                1.6989   6.4727e-004  -2.5495e-004   3.1759e-004   1.8148e+007   6.0290e+004   2.2232e+006    0.1260   -0.0000    0.0000   -0.0000    0.0371
                2.0094   5.4057e-004  -2.1292e-004   3.4400e-004   1.5156e+007   5.0427e+004   2.4080e+006    0.1053   -0.0000    0.0000   -0.0000    0.0401
                2.3320   4.2665e-004  -1.6804e-004   3.6641e-004   1.1962e+007   3.9900e+004   2.5649e+006    0.0831   -0.0000    0.0000   -0.0000    0.0427
                2.6681   3.0712e-004  -1.2095e-004   3.8419e-004   8.6108e+006   2.8839e+004   2.6893e+006    0.0598   -0.0000    0.0000   -0.0000    0.0448
                2.9425   2.1105e-004  -8.3111e-005   3.9450e-004   5.9174e+006   1.9919e+004   2.7615e+006    0.0411   -0.0000    0.0000   -0.0000    0.0460

               lamina:  2     
              matName:  (blade-root)
                     s           e11           e22           e12           s11           s22           s12   s11_fcT   s11_fcC   s22_fcT   s22_fcC   s12_fcS
                   (m)         (m/m)         (m/m)         (rad)          (Pa)          (Pa)          (Pa)       (-)       (-)       (-)       (-)       (-)
                0.0000   1.0758e-003  -4.2375e-004   1.0062e-004   3.0162e+007   9.9856e+004   7.0432e+005    0.2095   -0.0000    0.0000   -0.0000    0.0117
                0.1865   1.0554e-003  -4.1574e-004   1.2892e-004   2.9592e+007   9.7983e+004   9.0241e+005    0.2055   -0.0000    0.0000   -0.0000    0.0150
                0.4053   1.0189e-003  -4.0135e-004   1.6126e-004   2.8567e+007   9.4641e+004   1.1288e+006    0.1984   -0.0000    0.0000   -0.0000    0.0188
                0.6265   9.6933e-004  -3.8181e-004   1.9261e-004   2.7177e+007   9.0101e+004   1.3483e+006    0.1887   -0.0000    0.0000   -0.0000    0.0225
                0.8655   9.0651e-004  -3.5706e-004   2.2461e-004   2.5416e+007   8.4316e+004   1.5723e+006    0.1765   -0.0000    0.0000   -0.0000    0.0262
                1.1265   8.3090e-004  -3.2728e-004   2.5700e-004   2.3296e+007   7.7331e+004   1.7990e+006    0.1618   -0.0000    0.0000   -0.0000    0.0300
                1.4045   7.4385e-004  -2.9299e-004   2.8830e-004   2.0855e+007   6.9282e+004   2.0181e+006    0.1448   -0.0000    0.0000   -0.0000    0.0336
                1.6989   6.4656e-004  -2.5466e-004   3.1759e-004   1.8128e+007   6.0273e+004   2.2232e+006    0.1259   -0.0000    0.0000   -0.0000    0.0371
                2.0094   5.4013e-004  -2.1274e-004   3.4400e-004   1.5144e+007   5.0416e+004   2.4080e+006    0.1052   -0.0000    0.0000   -0.0000    0.0401
                2.3320   4.2650e-004  -1.6798e-004   3.6641e-004   1.1958e+007   3.9896e+004   2.5649e+006    0.0830   -0.0000    0.0000   -0.0000    0.0427
                2.6681   3.0721e-004  -1.2099e-004   3.8419e-004   8.6133e+006   2.8842e+004   2.6893e+006    0.0598   -0.0000    0.0000   -0.0000    0.0448
                2.9425   2.1126e-004  -8.3195e-005   3.9450e-004   5.9233e+006   1.9924e+004   2.7615e+006    0.0411   -0.0000    0.0000   -0.0000    0.0460

               lamina:  3     
              matName:  (LEP-core)
                     s           e11           e22           e12           s11           s22           s12   s11_fcT   s11_fcC   s22_fcT   s22_fcC   s12_fcS
                   (m)         (m/m)         (m/m)         (rad)          (Pa)          (Pa)          (Pa)       (-)       (-)       (-)       (-)       (-)
                0.0000   1.0744e-003  -4.2320e-004   1.0062e-004   2.7069e+005  -2.8823e+004   2.0123e+003    0.0000   -0.0000    0.0000    0.0000    0.0000
                0.1865   1.0541e-003  -4.1520e-004   1.2892e-004   2.6558e+005  -2.8278e+004   2.5783e+003    0.0000   -0.0000    0.0000    0.0000    0.0000
                0.4053   1.0177e-003  -4.0086e-004   1.6126e-004   2.5641e+005  -2.7300e+004   3.2252e+003    0.0000   -0.0000    0.0000    0.0000    0.0000
                0.6265   9.6826e-004  -3.8138e-004   1.9261e-004   2.4396e+005  -2.5973e+004   3.8522e+003    0.0000   -0.0000    0.0000    0.0000    0.0000
                0.8655   9.0559e-004  -3.5670e-004   2.2461e-004   2.2817e+005  -2.4291e+004   4.4922e+003    0.0000   -0.0000    0.0000    0.0000    0.0000
                1.1265   8.3012e-004  -3.2697e-004   2.5700e-004   2.0915e+005  -2.2266e+004   5.1400e+003    0.0000   -0.0000    0.0000    0.0000    0.0000
                1.4045   7.4323e-004  -2.9274e-004   2.8830e-004   1.8726e+005  -1.9935e+004   5.7661e+003    0.0000   -0.0000    0.0000    0.0000    0.0000
                1.6989   6.4611e-004  -2.5448e-004   3.1759e-004   1.6279e+005  -1.7329e+004   6.3519e+003    0.0000   -0.0000    0.0000    0.0000    0.0000
                2.0094   5.3984e-004  -2.1263e-004   3.4400e-004   1.3602e+005  -1.4478e+004   6.8801e+003    0.0000   -0.0000    0.0000    0.0000    0.0000
                2.3320   4.2640e-004  -1.6794e-004   3.6641e-004   1.0743e+005  -1.1434e+004   7.3282e+003    0.0000   -0.0000    0.0000    0.0000    0.0000
                2.6681   3.0883e-004  -1.2163e-004   3.8419e-004   7.7811e+004  -8.2814e+003   7.6838e+003    0.0000   -0.0000    0.0000    0.0000    0.0000
                2.9425   2.1501e-004  -8.4689e-005   3.9450e-004   5.4173e+004  -5.7673e+003   7.8901e+003    0.0000   -0.0000    0.0000    0.0000    0.0000

               lamina:  4     
              matName:  (blade-root)
                     s           e11           e22           e12           s11           s22           s12   s11_fcT   s11_fcC   s22_fcT   s22_fcC   s12_fcS
                   (m)         (m/m)         (m/m)         (rad)          (Pa)          (Pa)          (Pa)       (-)       (-)       (-)       (-)       (-)
                0.0000   1.0497e-003  -4.1335e-004   1.0062e-004   2.9430e+007   9.9205e+004   7.0432e+005    0.2044   -0.0000    0.0000   -0.0000    0.0117
                0.1865   1.0302e-003  -4.0569e-004   1.2892e-004   2.8885e+007   9.7354e+004   9.0241e+005    0.2006   -0.0000    0.0000   -0.0000    0.0150
                0.4053   9.9592e-004  -3.9219e-004   1.6126e-004   2.7923e+007   9.4068e+004   1.1288e+006    0.1939   -0.0000    0.0000   -0.0000    0.0188
                0.6265   9.4927e-004  -3.7382e-004   1.9261e-004   2.6615e+007   8.9601e+004   1.3483e+006    0.1848   -0.0000    0.0000   -0.0000    0.0225
                0.8655   8.8923e-004  -3.5018e-004   2.2461e-004   2.4932e+007   8.3885e+004   1.5723e+006    0.1731   -0.0000    0.0000   -0.0000    0.0262
                1.1265   8.1640e-004  -3.2150e-004   2.5700e-004   2.2890e+007   7.6970e+004   1.7990e+006    0.1590   -0.0000    0.0000   -0.0000    0.0300
                1.4045   7.3232e-004  -2.8840e-004   2.8830e-004   2.0533e+007   6.8995e+004   2.0181e+006    0.1426   -0.0000    0.0000   -0.0000    0.0336
                1.6989   6.3798e-004  -2.5124e-004   3.1759e-004   1.7887e+007   6.0059e+004   2.2232e+006    0.1242   -0.0000    0.0000   -0.0000    0.0371
                2.0094   5.3474e-004  -2.1059e-004   3.4400e-004   1.4993e+007   5.0281e+004   2.4080e+006    0.1041   -0.0000    0.0000   -0.0000    0.0401
                2.3320   4.2464e-004  -1.6724e-004   3.6641e-004   1.1906e+007   3.9850e+004   2.5649e+006    0.0827   -0.0000    0.0000   -0.0000    0.0427
                2.6681   3.0892e-004  -1.2167e-004   3.8419e-004   8.6613e+006   2.8884e+004   2.6893e+006    0.0601   -0.0000    0.0000   -0.0000    0.0448
                2.9425   2.1522e-004  -8.4773e-005   3.9450e-004   6.0342e+006   2.0023e+004   2.7615e+006    0.0419   -0.0000    0.0000   -0.0000    0.0460

               lamina:  5     
              matName:  (blade-shell)
                     s           e11           e22           e12           s11           s22           s12   s11_fcT   s11_fcC   s22_fcT   s22_fcC   s12_fcS
                   (m)         (m/m)         (m/m)         (rad)          (Pa)          (Pa)          (Pa)       (-)       (-)       (-)       (-)       (-)
                0.0000   1.0483e-003  -4.1279e-004   1.0062e-004   2.9391e+007   9.9171e+004   7.0432e+005    0.2041   -0.0000    0.0000   -0.0000    0.0117
                0.1865   1.0289e-003  -4.0516e-004   1.2892e-004   2.8848e+007   9.7321e+004   9.0241e+005    0.2003   -0.0000    0.0000   -0.0000    0.0150
                0.4053   9.9469e-004  -3.9170e-004   1.6126e-004   2.7889e+007   9.4037e+004   1.1288e+006    0.1937   -0.0000    0.0000   -0.0000    0.0188
                0.6265   9.4820e-004  -3.7339e-004   1.9261e-004   2.6585e+007   8.9574e+004   1.3483e+006    0.1846   -0.0000    0.0000   -0.0000    0.0225
                0.8655   8.8831e-004  -3.4981e-004   2.2461e-004   2.4906e+007   8.3862e+004   1.5723e+006    0.1730   -0.0000    0.0000   -0.0000    0.0262
                1.1265   8.1563e-004  -3.2119e-004   2.5700e-004   2.2868e+007   7.6951e+004   1.7990e+006    0.1588   -0.0000    0.0000   -0.0000    0.0300
                1.4045   7.3171e-004  -2.8815e-004   2.8830e-004   2.0516e+007   6.8980e+004   2.0181e+006    0.1425   -0.0000    0.0000   -0.0000    0.0336
                1.6989   6.3752e-004  -2.5106e-004   3.1759e-004   1.7875e+007   6.0047e+004   2.2232e+006    0.1241   -0.0000    0.0000   -0.0000    0.0371
                2.0094   5.3445e-004  -2.1048e-004   3.4400e-004   1.4985e+007   5.0274e+004   2.4080e+006    0.1041   -0.0000    0.0000   -0.0000    0.0401
                2.3320   4.2454e-004  -1.6720e-004   3.6641e-004   1.1903e+007   3.9847e+004   2.5649e+006    0.0827   -0.0000    0.0000   -0.0000    0.0427
                2.6681   3.0906e-004  -1.2173e-004   3.8419e-004   8.6653e+006   2.8888e+004   2.6893e+006    0.0602   -0.0000    0.0000   -0.0000    0.0448
                2.9425   2.1555e-004  -8.4903e-005   3.9450e-004   6.0433e+006   2.0031e+004   2.7615e+006    0.0420   -0.0000    0.0000   -0.0000    0.0460

            panel:  2     
           lam_num    nPlies        tPly      fibAng     matID  matName
               (-)       (-)         (m)       (deg)       (-)  (-)
                 1         1    0.005000      0.0000         2  (blade-shell)
                 2         1    0.003237      0.0000         1  (blade-root)
                 3         1    0.065249      0.0000         3  (spar-uni)
                 4         1    0.000002      0.0000         4  (spar-core)
                 5         1    0.065249      0.0000         3  (spar-uni)
                 6         1    0.003237      0.0000         1  (blade-root)
                 7         1    0.005000      0.0000         2  (blade-shell)

               lamina:  1     
              matName:  (blade-shell)
                     s           e11           e22           e12           s11           s22           s12   s11_fcT   s11_fcC   s22_fcT   s22_fcC   s12_fcS
                   (m)         (m/m)         (m/m)         (rad)          (Pa)          (Pa)          (Pa)       (-)       (-)       (-)       (-)       (-)
                0.0000   2.0389e-004  -5.9714e-005   1.0538e-004   5.8418e+006   3.3236e+005   7.3766e+005    0.0406   -0.0000    0.0000   -0.0000    0.0123
                0.0692   1.7112e-004  -4.9871e-005   1.1119e-004   4.9045e+006   2.8270e+005   7.7836e+005    0.0341   -0.0000    0.0000   -0.0000    0.0130
                0.4361   4.2008e-005  -1.1751e-005   1.3085e-004   1.2070e+006   7.6879e+004   9.1595e+005    0.0084   -0.0000    0.0000   -0.0000    0.0153
                0.8209  -9.1464e-005   2.7733e-005   1.3182e-004  -2.6149e+006  -1.3471e+005   9.2273e+005    0.0000    0.0123    0.0000    0.0000    0.0154
                1.2259  -2.2156e-004   6.6123e-005   1.1201e-004  -6.3406e+006  -3.4241e+005   7.8404e+005    0.0000    0.0298    0.0000    0.0000    0.0131
                1.4817  -3.0028e-004   8.9352e-005   8.8887e-005  -8.5952e+006  -4.6811e+005   6.2221e+005    0.0000    0.0404    0.0000    0.0000    0.0104

               lamina:  2     
              matName:  (blade-root)
                     s           e11           e22           e12           s11           s22           s12   s11_fcT   s11_fcC   s22_fcT   s22_fcC   s12_fcS
                   (m)         (m/m)         (m/m)         (rad)          (Pa)          (Pa)          (Pa)       (-)       (-)       (-)       (-)       (-)
                0.0000   2.0441e-004  -5.9880e-005   1.0538e-004   5.8567e+006   3.3302e+005   7.3766e+005    0.0407   -0.0000    0.0000   -0.0000    0.0123
                0.0692   1.7206e-004  -5.0169e-005   1.1119e-004   4.9313e+006   2.8388e+005   7.7836e+005    0.0342   -0.0000    0.0000   -0.0000    0.0130
                0.4361   4.3236e-005  -1.2141e-005   1.3085e-004   1.2420e+006   7.8421e+004   9.1595e+005    0.0086   -0.0000    0.0000   -0.0000    0.0153
                0.8209  -8.9042e-005   2.6964e-005   1.3182e-004  -2.5458e+006  -1.3167e+005   9.2273e+005    0.0000    0.0120    0.0000    0.0000    0.0154
                1.2259  -2.1878e-004   6.5240e-005   1.1201e-004  -6.2614e+006  -3.3892e+005   7.8404e+005    0.0000    0.0294    0.0000    0.0000    0.0131
                1.4817  -2.9729e-004   8.8402e-005   8.8887e-005  -8.5099e+006  -4.6435e+005   6.2221e+005    0.0000    0.0400    0.0000    0.0000    0.0104

               lamina:  3     
              matName:  (spar-uni)
                     s           e11           e22           e12           s11           s22           s12   s11_fcT   s11_fcC   s22_fcT   s22_fcC   s12_fcS
                   (m)         (m/m)         (m/m)         (rad)          (Pa)          (Pa)          (Pa)       (-)       (-)       (-)       (-)       (-)
                0.0000   2.1498e-004  -6.3234e-005   1.0538e-004   9.0168e+006  -4.3716e+004   3.1614e+005    0.0093   -0.0000    0.0000    0.0000    0.0105
                0.0692   1.9101e-004  -5.6183e-005   1.1119e-004   8.0114e+006  -3.8841e+004   3.3358e+005    0.0082   -0.0000    0.0000    0.0000    0.0111
                0.4361   6.7982e-005  -1.9997e-005   1.3085e-004   2.8514e+006  -1.3824e+004   3.9255e+005    0.0029   -0.0000    0.0000    0.0000    0.0131
                0.8209  -8.7474e-005   2.6467e-005   1.3182e-004  -3.6659e+006   2.8377e+004   3.9546e+005    0.0000    0.0052    0.0000   -0.0000    0.0132
                1.2259  -2.1698e-004   6.4669e-005   1.1201e-004  -9.0974e+006   5.6273e+004   3.3602e+005    0.0000    0.0130    0.0000   -0.0000    0.0112
                1.4817  -2.9535e-004   8.7787e-005   8.8887e-005  -1.2384e+007   7.3143e+004   2.6666e+005    0.0000    0.0176    0.0000   -0.0000    0.0089

               lamina:  4     
              matName:  (spar-core)
                     s           e11           e22           e12           s11           s22           s12   s11_fcT   s11_fcC   s22_fcT   s22_fcC   s12_fcS
                   (m)         (m/m)         (m/m)         (rad)          (Pa)          (Pa)          (Pa)       (-)       (-)       (-)       (-)       (-)
                0.0000   2.1498e-004  -6.3235e-005   1.0538e-004   5.6002e+004   3.5960e+002   2.1076e+003    0.0000   -0.0000    0.0000   -0.0000    0.0000
                0.0692   1.9101e-004  -5.6184e-005   1.1119e-004   4.9757e+004   3.1950e+002   2.2239e+003    0.0000   -0.0000    0.0000   -0.0000    0.0000
                0.4361   6.7983e-005  -1.9997e-005   1.3085e-004   1.7710e+004   1.1372e+002   2.6170e+003    0.0000   -0.0000    0.0000   -0.0000    0.0000
                0.8209  -5.5863e-005   1.6432e-005   1.3182e-004  -1.4552e+004  -9.3443e+001   2.6364e+003    0.0000    0.0000    0.0000    0.0000    0.0000
                1.2259  -1.8071e-004   5.3155e-005   1.1201e-004  -4.7076e+004  -3.0228e+002   2.2401e+003    0.0000    0.0000    0.0000    0.0000    0.0000
                1.4817  -2.5630e-004   7.5389e-005   8.8887e-005  -6.6766e+004  -4.2872e+002   1.7777e+003    0.0000    0.0000    0.0000    0.0000    0.0000

               lamina:  5     
              matName:  (spar-uni)
                     s           e11           e22           e12           s11           s22           s12   s11_fcT   s11_fcC   s22_fcT   s22_fcC   s12_fcS
                   (m)         (m/m)         (m/m)         (rad)          (Pa)          (Pa)          (Pa)       (-)       (-)       (-)       (-)       (-)
                0.0000   2.2554e-004  -6.6589e-005   1.0538e-004   9.4590e+006  -4.9404e+004   3.1614e+005    0.0097   -0.0000    0.0000    0.0000    0.0105
                0.0692   2.0995e-004  -6.2197e-005   1.1119e-004   8.8042e+006  -4.9040e+004   3.3358e+005    0.0091   -0.0000    0.0000    0.0000    0.0111
                0.4361   9.2729e-005  -2.7852e-005   1.3085e-004   3.8870e+006  -2.7146e+004   3.9255e+005    0.0040   -0.0000    0.0000    0.0000    0.0131
                0.8209  -5.5862e-005   1.6431e-005   1.3182e-004  -2.3430e+006   1.1359e+004   3.9546e+005    0.0000    0.0033    0.0000   -0.0000    0.0132
                1.2259  -1.8071e-004   5.3155e-005   1.1201e-004  -7.5795e+006   3.6747e+004   3.3602e+005    0.0000    0.0108    0.0000   -0.0000    0.0112
                1.4817  -2.5630e-004   7.5389e-005   8.8887e-005  -1.0750e+007   5.2118e+004   2.6666e+005    0.0000    0.0153    0.0000   -0.0000    0.0089

               lamina:  6     
              matName:  (blade-root)
                     s           e11           e22           e12           s11           s22           s12   s11_fcT   s11_fcC   s22_fcT   s22_fcC   s12_fcS
                   (m)         (m/m)         (m/m)         (rad)          (Pa)          (Pa)          (Pa)       (-)       (-)       (-)       (-)       (-)
                0.0000   2.2607e-004  -6.6755e-005   1.0538e-004   6.4740e+006   3.6022e+005   7.3766e+005    0.0450   -0.0000    0.0000   -0.0000    0.0123
                0.0692   2.1089e-004  -6.2496e-005   1.1119e-004   6.0380e+006   3.3266e+005   7.7836e+005    0.0419   -0.0000    0.0000   -0.0000    0.0130
                0.4361   9.3956e-005  -2.8242e-005   1.3085e-004   2.6876e+006   1.4214e+005   9.1595e+005    0.0187   -0.0000    0.0000   -0.0000    0.0153
                0.8209  -2.4251e-005   6.3966e-006   1.3182e-004  -6.9913e+005  -5.0273e+004   9.2273e+005    0.0000    0.0033    0.0000    0.0000    0.0154
                1.2259  -1.4444e-004   4.1641e-005   1.1201e-004  -4.1425e+006  -2.4553e+005   7.8404e+005    0.0000    0.0194    0.0000    0.0000    0.0131
                1.4817  -2.1724e-004   6.2991e-005   8.8887e-005  -6.2283e+006  -3.6379e+005   6.2221e+005    0.0000    0.0292    0.0000    0.0000    0.0104

               lamina:  7     
              matName:  (blade-shell)
                     s           e11           e22           e12           s11           s22           s12   s11_fcT   s11_fcC   s22_fcT   s22_fcC   s12_fcS
                   (m)         (m/m)         (m/m)         (rad)          (Pa)          (Pa)          (Pa)       (-)       (-)       (-)       (-)       (-)
                0.0000   2.2688e-004  -6.7012e-005   1.0538e-004   6.4970e+006   3.6124e+005   7.3766e+005    0.0451   -0.0000    0.0000   -0.0000    0.0123
                0.0692   2.1234e-004  -6.2957e-005   1.1119e-004   6.0794e+006   3.3448e+005   7.7836e+005    0.0422   -0.0000    0.0000   -0.0000    0.0130
                0.4361   9.5853e-005  -2.8844e-005   1.3085e-004   2.7417e+006   1.4452e+005   9.1595e+005    0.0190   -0.0000    0.0000   -0.0000    0.0153
                0.8209  -2.2682e-005   5.8988e-006   1.3182e-004  -6.5443e+005  -4.8303e+004   9.2273e+005    0.0000    0.0031    0.0000    0.0000    0.0154
                1.2259  -1.4264e-004   4.1070e-005   1.1201e-004  -4.0912e+006  -2.4327e+005   7.8404e+005    0.0000    0.0192    0.0000    0.0000    0.0131
                1.4817  -2.1531e-004   6.2376e-005   8.8887e-005  -6.1731e+006  -3.6136e+005   6.2221e+005    0.0000    0.0290    0.0000    0.0000    0.0104

            panel:  3     
           lam_num    nPlies        tPly      fibAng     matID  matName
               (-)       (-)         (m)       (deg)       (-)  (-)
                 1         1    0.005000      0.0000         2  (blade-shell)
                 2         1    0.003237      0.0000         1  (blade-root)
                 3         1    0.057572      0.0000         6  (TEP-core)
                 4         1    0.003237      0.0000         1  (blade-root)
                 5         1    0.005000      0.0000         2  (blade-shell)

               lamina:  1     
              matName:  (blade-shell)
                     s           e11           e22           e12           s11           s22           s12   s11_fcT   s11_fcC   s22_fcT   s22_fcC   s12_fcS
                   (m)         (m/m)         (m/m)         (rad)          (Pa)          (Pa)          (Pa)       (-)       (-)       (-)       (-)       (-)
                0.0000  -2.7202e-004   1.0717e-004   3.8678e-004  -7.6265e+006  -2.4875e+004   2.7075e+006    0.0000    0.0358    0.0000    0.0000    0.0451
                0.0076  -2.7427e-004   1.0806e-004   3.8649e-004  -7.6895e+006  -2.5086e+004   2.7055e+006    0.0000    0.0361    0.0000    0.0000    0.0451

               lamina:  2     
              matName:  (blade-root)
                     s           e11           e22           e12           s11           s22           s12   s11_fcT   s11_fcC   s22_fcT   s22_fcC   s12_fcS
                   (m)         (m/m)         (m/m)         (rad)          (Pa)          (Pa)          (Pa)       (-)       (-)       (-)       (-)       (-)
                0.0000  -2.7082e-004   1.0669e-004   3.8678e-004  -7.5928e+006  -2.4845e+004   2.7075e+006    0.0000    0.0356    0.0000    0.0000    0.0451
                0.0076  -2.7306e-004   1.0758e-004   3.8649e-004  -7.6558e+006  -2.5056e+004   2.7055e+006    0.0000    0.0359    0.0000    0.0000    0.0451

               lamina:  3     
              matName:  (TEP-core)
                     s           e11           e22           e12           s11           s22           s12   s11_fcT   s11_fcC   s22_fcT   s22_fcC   s12_fcS
                   (m)         (m/m)         (m/m)         (rad)          (Pa)          (Pa)          (Pa)       (-)       (-)       (-)       (-)       (-)
                0.0000  -2.7004e-004   1.0638e-004   3.8678e-004  -6.8035e+004   7.2492e+003   7.7357e+003    0.0000    0.0000    0.0000   -0.0000    0.0000
                0.0076  -2.7228e-004   1.0727e-004   3.8649e-004  -6.8601e+004   7.3095e+003   7.7299e+003    0.0000    0.0000    0.0000   -0.0000    0.0000

               lamina:  4     
              matName:  (blade-root)
                     s           e11           e22           e12           s11           s22           s12   s11_fcT   s11_fcC   s22_fcT   s22_fcC   s12_fcS
                   (m)         (m/m)         (m/m)         (rad)          (Pa)          (Pa)          (Pa)       (-)       (-)       (-)       (-)       (-)
                0.0000  -2.5617e-004   1.0086e-004   3.8678e-004  -7.1826e+006  -2.4481e+004   2.7075e+006    0.0000    0.0337    0.0000    0.0000    0.0451
                0.0076  -2.5842e-004   1.0175e-004   3.8649e-004  -7.2457e+006  -2.4691e+004   2.7055e+006    0.0000    0.0340    0.0000    0.0000    0.0451

               lamina:  5     
              matName:  (blade-shell)
                     s           e11           e22           e12           s11           s22           s12   s11_fcT   s11_fcC   s22_fcT   s22_fcC   s12_fcS
                   (m)         (m/m)         (m/m)         (rad)          (Pa)          (Pa)          (Pa)       (-)       (-)       (-)       (-)       (-)
                0.0000  -2.5539e-004   1.0055e-004   3.8678e-004  -7.1608e+006  -2.4461e+004   2.7075e+006    0.0000    0.0336    0.0000    0.0000    0.0451
                0.0076  -2.5764e-004   1.0144e-004   3.8649e-004  -7.2239e+006  -2.4672e+004   2.7055e+006    0.0000    0.0339    0.0000    0.0000    0.0451

            panel:  4     
           lam_num    nPlies        tPly      fibAng     matID  matName
               (-)       (-)         (m)       (deg)       (-)  (-)
                 1         1    0.005000      0.0000         2  (blade-shell)
                 2         1    0.003237      0.0000         1  (blade-root)
                 3         1    0.057572      0.0000         6  (TEP-core)
                 4         1    0.003237      0.0000         1  (blade-root)
                 5         1    0.005000      0.0000         2  (blade-shell)

               lamina:  1     
              matName:  (blade-shell)
                     s           e11           e22           e12           s11           s22           s12   s11_fcT   s11_fcC   s22_fcT   s22_fcC   s12_fcS
                   (m)         (m/m)         (m/m)         (rad)          (Pa)          (Pa)          (Pa)       (-)       (-)       (-)       (-)       (-)
                0.0000  -2.7427e-004   1.0806e-004   4.4444e-004  -7.6895e+006  -2.5086e+004   3.1111e+006    0.0000    0.0361    0.0000    0.0000    0.0519
                0.1572  -3.2121e-004   1.2655e-004   4.4415e-004  -9.0057e+006  -2.9451e+004   3.1091e+006    0.0000    0.0423    0.0000    0.0000    0.0518
                0.5896  -4.4541e-004   1.7546e-004   4.4415e-004  -1.2488e+007  -4.1064e+004   3.1091e+006    0.0000    0.0586    0.0000    0.0000    0.0518
                1.0229  -5.6733e-004   2.2348e-004   4.3761e-004  -1.5906e+007  -5.2472e+004   3.0633e+006    0.0000    0.0747    0.0000    0.0000    0.0511
                1.4488  -6.8625e-004   2.7032e-004   4.1430e-004  -1.9240e+007  -6.3615e+004   2.9001e+006    0.0000    0.0903    0.0000    0.0000    0.0483
                1.8595  -8.0138e-004   3.1566e-004   3.8327e-004  -2.2468e+007  -7.4411e+004   2.6829e+006    0.0000    0.1055    0.0000    0.0000    0.0447
                1.9797  -8.3544e-004   3.2907e-004   3.4538e-004  -2.3423e+007  -7.7619e+004   2.4177e+006    0.0000    0.1100    0.0000    0.0000    0.0403

               lamina:  2     
              matName:  (blade-root)
                     s           e11           e22           e12           s11           s22           s12   s11_fcT   s11_fcC   s22_fcT   s22_fcC   s12_fcS
                   (m)         (m/m)         (m/m)         (rad)          (Pa)          (Pa)          (Pa)       (-)       (-)       (-)       (-)       (-)
                0.0000  -2.7306e-004   1.0758e-004   4.4444e-004  -7.6558e+006  -2.5056e+004   3.1111e+006    0.0000    0.0359    0.0000    0.0000    0.0519
                0.1572  -3.1994e-004   1.2604e-004   4.4415e-004  -8.9701e+006  -2.9420e+004   3.1091e+006    0.0000    0.0421    0.0000    0.0000    0.0518
                0.5896  -4.4409e-004   1.7494e-004   4.4415e-004  -1.2451e+007  -4.1031e+004   3.1091e+006    0.0000    0.0585    0.0000    0.0000    0.0518
                1.0229  -5.6598e-004   2.2295e-004   4.3761e-004  -1.5868e+007  -5.2438e+004   3.0633e+006    0.0000    0.0745    0.0000    0.0000    0.0511
                1.4488  -6.8490e-004   2.6978e-004   4.1430e-004  -1.9203e+007  -6.3581e+004   2.9001e+006    0.0000    0.0902    0.0000    0.0000    0.0483
                1.8595  -8.0004e-004   3.1513e-004   3.8327e-004  -2.2431e+007  -7.4377e+004   2.6829e+006    0.0000    0.1053    0.0000    0.0000    0.0447
                1.9797  -8.3414e-004   3.2856e-004   3.4538e-004  -2.3387e+007  -7.7586e+004   2.4177e+006    0.0000    0.1098    0.0000    0.0000    0.0403

               lamina:  3     
              matName:  (TEP-core)
                     s           e11           e22           e12           s11           s22           s12   s11_fcT   s11_fcC   s22_fcT   s22_fcC   s12_fcS
                   (m)         (m/m)         (m/m)         (rad)          (Pa)          (Pa)          (Pa)       (-)       (-)       (-)       (-)       (-)
                0.0000  -2.7228e-004   1.0727e-004   4.4444e-004  -6.8601e+004   7.3095e+003   8.8888e+003    0.0000    0.0000    0.0000   -0.0000    0.0000
                0.1572  -3.1912e-004   1.2572e-004   4.4415e-004  -8.0401e+004   8.5657e+003   8.8831e+003    0.0000    0.0000    0.0000   -0.0000    0.0000
                0.5896  -4.4324e-004   1.7460e-004   4.4415e-004  -1.1167e+005   1.1894e+004   8.8831e+003    0.0000    0.0000    0.0000   -0.0000    0.0000
                1.0229  -5.6510e-004   2.2260e-004   4.3761e-004  -1.4238e+005   1.5162e+004   8.7522e+003    0.0000    0.0000    0.0000   -0.0000    0.0000
                1.4488  -6.8402e-004   2.6943e-004   4.1430e-004  -1.7234e+005   1.8350e+004   8.2860e+003    0.0000    0.0000    0.0000   -0.0000    0.0000
                1.8595  -7.9918e-004   3.1479e-004   3.8327e-004  -2.0136e+005   2.1438e+004   7.6655e+003    0.0000    0.0000    0.0000   -0.0000    0.0000
                1.9797  -8.3329e-004   3.2822e-004   3.4538e-004  -2.0995e+005   2.2352e+004   6.9076e+003    0.0000    0.0000    0.0000   -0.0000    0.0000

               lamina:  4     
              matName:  (blade-root)
                     s           e11           e22           e12           s11           s22           s12   s11_fcT   s11_fcC   s22_fcT   s22_fcC   s12_fcS
                   (m)         (m/m)         (m/m)         (rad)          (Pa)          (Pa)          (Pa)       (-)       (-)       (-)       (-)       (-)
                0.0000  -2.5842e-004   1.0175e-004   4.4444e-004  -7.2457e+006  -2.4691e+004   3.1111e+006    0.0000    0.0340    0.0000    0.0000    0.0519
                0.1572  -3.0450e-004   1.1989e-004   4.4415e-004  -8.5377e+006  -2.9035e+004   3.1091e+006    0.0000    0.0401    0.0000    0.0000    0.0518
                0.5896  -4.2806e-004   1.6856e-004   4.4415e-004  -1.2002e+007  -4.0632e+004   3.1091e+006    0.0000    0.0563    0.0000    0.0000    0.0518
                1.0229  -5.4956e-004   2.1641e-004   4.3761e-004  -1.5409e+007  -5.2029e+004   3.0633e+006    0.0000    0.0723    0.0000    0.0000    0.0511
                1.4488  -6.6847e-004   2.6324e-004   4.1430e-004  -1.8742e+007  -6.3171e+004   2.9001e+006    0.0000    0.0880    0.0000    0.0000    0.0483
                1.8595  -7.8381e-004   3.0866e-004   3.8327e-004  -2.1976e+007  -7.3973e+004   2.6829e+006    0.0000    0.1032    0.0000    0.0000    0.0447
                1.9797  -8.1830e-004   3.2225e-004   3.4538e-004  -2.2943e+007  -7.7192e+004   2.4177e+006    0.0000    0.1077    0.0000    0.0000    0.0403

               lamina:  5     
              matName:  (blade-shell)
                     s           e11           e22           e12           s11           s22           s12   s11_fcT   s11_fcC   s22_fcT   s22_fcC   s12_fcS
                   (m)         (m/m)         (m/m)         (rad)          (Pa)          (Pa)          (Pa)       (-)       (-)       (-)       (-)       (-)
                0.0000  -2.5764e-004   1.0144e-004   4.4444e-004  -7.2239e+006  -2.4672e+004   3.1111e+006    0.0000    0.0339    0.0000    0.0000    0.0519
                0.1572  -3.0368e-004   1.1957e-004   4.4415e-004  -8.5147e+006  -2.9014e+004   3.1091e+006    0.0000    0.0400    0.0000    0.0000    0.0518
                0.5896  -4.2721e-004   1.6822e-004   4.4415e-004  -1.1978e+007  -4.0611e+004   3.1091e+006    0.0000    0.0562    0.0000    0.0000    0.0518
                1.0229  -5.4869e-004   2.1606e-004   4.3761e-004  -1.5384e+007  -5.2008e+004   3.0633e+006    0.0000    0.0722    0.0000    0.0000    0.0511
                1.4488  -6.6760e-004   2.6289e-004   4.1430e-004  -1.8718e+007  -6.3150e+004   2.9001e+006    0.0000    0.0879    0.0000    0.0000    0.0483
                1.8595  -7.8295e-004   3.0832e-004   3.8327e-004  -2.1952e+007  -7.3951e+004   2.6829e+006    0.0000    0.1031    0.0000    0.0000    0.0447
                1.9797  -8.1746e-004   3.2191e-004   3.4538e-004  -2.2920e+007  -7.7171e+004   2.4177e+006    0.0000    0.1076    0.0000    0.0000    0.0403

            panel:  5     
           lam_num    nPlies        tPly      fibAng     matID  matName
               (-)       (-)         (m)       (deg)       (-)  (-)
                 1         1    0.005000      0.0000         2  (blade-shell)
                 2         1    0.003237      0.0000         1  (blade-root)
                 3         1    0.057572      0.0000         6  (TEP-core)
                 4         1    0.003237      0.0000         1  (blade-root)
                 5         1    0.005000      0.0000         2  (blade-shell)

               lamina:  1     
              matName:  (blade-shell)
                     s           e11           e22           e12           s11           s22           s12   s11_fcT   s11_fcC   s22_fcT   s22_fcC   s12_fcS
                   (m)         (m/m)         (m/m)         (rad)          (Pa)          (Pa)          (Pa)       (-)       (-)       (-)       (-)       (-)
                0.0000  -8.3544e-004   3.2907e-004   3.0191e-004  -2.3423e+007  -7.7619e+004   2.1134e+006    0.0000    0.1100    0.0000    0.0000    0.0352
                0.2687  -9.1187e-004   3.5917e-004   2.8789e-004  -2.5566e+007  -8.4797e+004   2.0152e+006    0.0000    0.1200    0.0000    0.0000    0.0336
                0.6300  -1.0167e-003   4.0046e-004   3.3286e-004  -2.8506e+007  -9.4657e+004   2.3300e+006    0.0000    0.1338    0.0000    0.0000    0.0388
                0.9594  -1.1150e-003   4.3918e-004   2.9937e-004  -3.1262e+007  -1.0392e+005   2.0956e+006    0.0000    0.1468    0.0000    0.0000    0.0349
                1.2539  -1.2058e-003   4.7492e-004   2.4959e-004  -3.3807e+007  -1.1249e+005   1.7471e+006    0.0000    0.1587    0.0000    0.0000    0.0291
                1.5120  -1.2878e-003   5.0720e-004   1.9935e-004  -3.6105e+007  -1.2025e+005   1.3955e+006    0.0000    0.1695    0.0000    0.0000    0.0233
                1.7334  -1.3597e-003   5.3552e-004   1.5038e-004  -3.8122e+007  -1.2706e+005   1.0527e+006    0.0000    0.1790    0.0000    0.0000    0.0175
                1.9171  -1.4205e-003   5.5946e-004   1.0420e-004  -3.9826e+007  -1.3283e+005   7.2941e+005    0.0000    0.1870    0.0000    0.0000    0.0122
                2.0622  -1.4691e-003   5.7861e-004   6.2118e-005  -4.1190e+007  -1.3746e+005   4.3482e+005    0.0000    0.1934    0.0000    0.0000    0.0072
                2.1665  -1.5048e-003   5.9267e-004   2.5407e-005  -4.2191e+007  -1.4084e+005   1.7785e+005    0.0000    0.1981    0.0000    0.0000    0.0030
                2.2148  -1.5277e-003   6.0170e-004   4.7737e-006  -4.2832e+007  -1.4257e+005   3.3416e+004    0.0000    0.2011    0.0000    0.0000    0.0006
                2.2314  -1.5342e-003   6.0432e-004   2.7104e-005  -4.3016e+007  -1.4270e+005   1.8973e+005    0.0000    0.2020    0.0000    0.0000    0.0032

               lamina:  2     
              matName:  (blade-root)
                     s           e11           e22           e12           s11           s22           s12   s11_fcT   s11_fcC   s22_fcT   s22_fcC   s12_fcS
                   (m)         (m/m)         (m/m)         (rad)          (Pa)          (Pa)          (Pa)       (-)       (-)       (-)       (-)       (-)
                0.0000  -8.3414e-004   3.2856e-004   3.0191e-004  -2.3387e+007  -7.7586e+004   2.1134e+006    0.0000    0.1098    0.0000    0.0000    0.0352
                0.2687  -9.1060e-004   3.5867e-004   2.8789e-004  -2.5531e+007  -8.4766e+004   2.0152e+006    0.0000    0.1199    0.0000    0.0000    0.0336
                0.6300  -1.0155e-003   3.9999e-004   3.3286e-004  -2.8472e+007  -9.4627e+004   2.3300e+006    0.0000    0.1337    0.0000    0.0000    0.0388
                0.9594  -1.1139e-003   4.3875e-004   2.9937e-004  -3.1232e+007  -1.0390e+005   2.0956e+006    0.0000    0.1466    0.0000    0.0000    0.0349
                1.2539  -1.2048e-003   4.7453e-004   2.4959e-004  -3.3780e+007  -1.1247e+005   1.7471e+006    0.0000    0.1586    0.0000    0.0000    0.0291
                1.5120  -1.2869e-003   5.0687e-004   1.9935e-004  -3.6082e+007  -1.2023e+005   1.3955e+006    0.0000    0.1694    0.0000    0.0000    0.0233
                1.7334  -1.3590e-003   5.3525e-004   1.5038e-004  -3.8103e+007  -1.2704e+005   1.0527e+006    0.0000    0.1789    0.0000    0.0000    0.0175
                1.9171  -1.4199e-003   5.5925e-004   1.0420e-004  -3.9812e+007  -1.3282e+005   7.2941e+005    0.0000    0.1869    0.0000    0.0000    0.0122
                2.0622  -1.4687e-003   5.7846e-004   6.2118e-005  -4.1180e+007  -1.3746e+005   4.3482e+005    0.0000    0.1933    0.0000    0.0000    0.0072
                2.1665  -1.5045e-003   5.9254e-004   2.5407e-005  -4.2182e+007  -1.4083e+005   1.7785e+005    0.0000    0.1980    0.0000    0.0000    0.0030
                2.2148  -1.5265e-003   6.0125e-004   4.7737e-006  -4.2800e+007  -1.4254e+005   3.3416e+004    0.0000    0.2009    0.0000    0.0000    0.0006
                2.2314  -1.5322e-003   6.0349e-004   2.7104e-005  -4.2957e+007  -1.4265e+005   1.8973e+005    0.0000    0.2017    0.0000    0.0000    0.0032

               lamina:  3     
              matName:  (TEP-core)
                     s           e11           e22           e12           s11           s22           s12   s11_fcT   s11_fcC   s22_fcT   s22_fcC   s12_fcS
                   (m)         (m/m)         (m/m)         (rad)          (Pa)          (Pa)          (Pa)       (-)       (-)       (-)       (-)       (-)
                0.0000  -8.3329e-004   3.2822e-004   3.0191e-004  -2.0995e+005   2.2352e+004   6.0382e+003    0.0000    0.0000    0.0000   -0.0000    0.0000
                0.2687  -9.0978e-004   3.5834e-004   2.8789e-004  -2.2922e+005   2.4403e+004   5.7578e+003    0.0000    0.0000    0.0000   -0.0000    0.0000
                0.6300  -1.0147e-003   3.9968e-004   3.3286e-004  -2.5567e+005   2.7216e+004   6.6571e+003    0.0000    0.0000    0.0000   -0.0000    0.0000
                0.9594  -1.1132e-003   4.3847e-004   2.9937e-004  -2.8048e+005   2.9856e+004   5.9874e+003    0.0000    0.0000    0.0000   -0.0000    0.0000
                1.2539  -1.2042e-003   4.7429e-004   2.4959e-004  -3.0340e+005   3.2294e+004   4.9918e+003    0.0000    0.0000    0.0000   -0.0000    0.0000
                1.5120  -1.2864e-003   5.0666e-004   1.9935e-004  -3.2412e+005   3.4497e+004   3.9871e+003    0.0000    0.0000    0.0000   -0.0000    0.0000
                1.7334  -1.3586e-003   5.3507e-004   1.5038e-004  -3.4230e+005   3.6431e+004   3.0077e+003    0.0000    0.0000    0.0000   -0.0000    0.0000
                1.9171  -1.4196e-003   5.5911e-004   1.0420e-004  -3.5768e+005   3.8067e+004   2.0840e+003    0.0000    0.0000    0.0000   -0.0000    0.0000
                2.0622  -1.4685e-003   5.7836e-004   6.2118e-005  -3.6999e+005   3.9376e+004   1.2424e+003    0.0000    0.0000    0.0000   -0.0000    0.0000
                2.1665  -1.5043e-003   5.9246e-004   2.5407e-005  -3.7902e+005   4.0336e+004   5.0813e+002    0.0000    0.0000    0.0000   -0.0000    0.0000
                2.2148  -1.5258e-003   6.0095e-004   4.7737e-006  -3.8443e+005   4.0918e+004   9.5474e+001    0.0000    0.0000    0.0000   -0.0000    0.0000
                2.2314  -1.5308e-003   6.0295e-004   2.7104e-005  -3.8569e+005   4.1060e+004   5.4209e+002    0.0000    0.0000    0.0000   -0.0000    0.0000

               lamina:  4     
              matName:  (blade-root)
                     s           e11           e22           e12           s11           s22           s12   s11_fcT   s11_fcC   s22_fcT   s22_fcC   s12_fcS
                   (m)         (m/m)         (m/m)         (rad)          (Pa)          (Pa)          (Pa)       (-)       (-)       (-)       (-)       (-)
                0.0000  -8.1830e-004   3.2225e-004   3.0191e-004  -2.2943e+007  -7.7192e+004   2.1134e+006    0.0000    0.1077    0.0000    0.0000    0.0352
                0.2687  -8.9517e-004   3.5252e-004   2.8789e-004  -2.5099e+007  -8.4381e+004   2.0152e+006    0.0000    0.1178    0.0000    0.0000    0.0336
                0.6300  -1.0009e-003   3.9418e-004   3.3286e-004  -2.8064e+007  -9.4264e+004   2.3300e+006    0.0000    0.1318    0.0000    0.0000    0.0388
                0.9594  -1.1007e-003   4.3347e-004   2.9937e-004  -3.0861e+007  -1.0357e+005   2.0956e+006    0.0000    0.1449    0.0000    0.0000    0.0349
                1.2539  -1.1931e-003   4.6988e-004   2.4959e-004  -3.3453e+007  -1.1218e+005   1.7471e+006    0.0000    0.1571    0.0000    0.0000    0.0291
                1.5120  -1.2769e-003   5.0289e-004   1.9935e-004  -3.5802e+007  -1.1998e+005   1.3955e+006    0.0000    0.1681    0.0000    0.0000    0.0233
                1.7334  -1.3507e-003   5.3195e-004   1.5038e-004  -3.7871e+007  -1.2683e+005   1.0527e+006    0.0000    0.1778    0.0000    0.0000    0.0175
                1.9171  -1.4135e-003   5.5669e-004   1.0420e-004  -3.9631e+007  -1.3266e+005   7.2941e+005    0.0000    0.1861    0.0000    0.0000    0.0122
                2.0622  -1.4641e-003   5.7662e-004   6.2118e-005  -4.1050e+007  -1.3734e+005   4.3482e+005    0.0000    0.1927    0.0000    0.0000    0.0072
                2.1665  -1.5006e-003   5.9100e-004   2.5407e-005  -4.2074e+007  -1.4074e+005   1.7785e+005    0.0000    0.1975    0.0000    0.0000    0.0030
                2.2148  -1.5127e-003   5.9573e-004   4.7737e-006  -4.2412e+007  -1.4219e+005   3.3416e+004    0.0000    0.1991    0.0000    0.0000    0.0006
                2.2314  -1.5068e-003   5.9340e-004   2.7104e-005  -4.2248e+007  -1.4202e+005   1.8973e+005    0.0000    0.1983    0.0000    0.0000    0.0032

               lamina:  5     
              matName:  (blade-shell)
                     s           e11           e22           e12           s11           s22           s12   s11_fcT   s11_fcC   s22_fcT   s22_fcC   s12_fcS
                   (m)         (m/m)         (m/m)         (rad)          (Pa)          (Pa)          (Pa)       (-)       (-)       (-)       (-)       (-)
                0.0000  -8.1746e-004   3.2191e-004   3.0191e-004  -2.2920e+007  -7.7171e+004   2.1134e+006    0.0000    0.1076    0.0000    0.0000    0.0352
                0.2687  -8.9435e-004   3.5220e-004   2.8789e-004  -2.5076e+007  -8.4361e+004   2.0152e+006    0.0000    0.1177    0.0000    0.0000    0.0336
                0.6300  -1.0002e-003   3.9387e-004   3.3286e-004  -2.8042e+007  -9.4245e+004   2.3300e+006    0.0000    0.1317    0.0000    0.0000    0.0388
                0.9594  -1.1000e-003   4.3319e-004   2.9937e-004  -3.0841e+007  -1.0355e+005   2.0956e+006    0.0000    0.1448    0.0000    0.0000    0.0349
                1.2539  -1.1925e-003   4.6964e-004   2.4959e-004  -3.3435e+007  -1.1216e+005   1.7471e+006    0.0000    0.1570    0.0000    0.0000    0.0291
                1.5120  -1.2764e-003   5.0267e-004   1.9935e-004  -3.5787e+007  -1.1996e+005   1.3955e+006    0.0000    0.1680    0.0000    0.0000    0.0233
                1.7334  -1.3503e-003   5.3178e-004   1.5038e-004  -3.7858e+007  -1.2682e+005   1.0527e+006    0.0000    0.1777    0.0000    0.0000    0.0175
                1.9171  -1.4132e-003   5.5655e-004   1.0420e-004  -3.9622e+007  -1.3265e+005   7.2941e+005    0.0000    0.1860    0.0000    0.0000    0.0122
                2.0622  -1.4639e-003   5.7653e-004   6.2118e-005  -4.1044e+007  -1.3733e+005   4.3482e+005    0.0000    0.1927    0.0000    0.0000    0.0072
                2.1665  -1.5004e-003   5.9092e-004   2.5407e-005  -4.2068e+007  -1.4073e+005   1.7785e+005    0.0000    0.1975    0.0000    0.0000    0.0030
                2.2148  -1.5119e-003   5.9543e-004   4.7737e-006  -4.2391e+007  -1.4217e+005   3.3416e+004    0.0000    0.1990    0.0000    0.0000    0.0006
                2.2314  -1.5055e-003   5.9287e-004   2.7104e-005  -4.2211e+007  -1.4198e+005   1.8973e+005    0.0000    0.1982    0.0000    0.0000    0.0032

     Web:  panel  nNode   nLam     xc_St    xc_End         b         t         E_eff         G_eff      nu_eff     density  buckleCrit
            (-)    (-)    (-)       (-)       (-)       (m)       (m)          (Pa)          (Pa)         (-)    (kg/m^3)         (-)
              1     10      3    0.2864    0.2864    3.0246    0.0830   7.6445e+008   4.5301e+008      0.4420    257.1084      0.0006
              2     10      3    0.4805    0.4805    2.5483    0.0830   7.6445e+008   4.5301e+008      0.4420    257.1084      0.0005
              3     10      3    0.7178    0.7178    1.2137    0.0830   7.6445e+008   4.5301e+008      0.4420    257.1084      0.0001

            panel:  1     
           lam_num    nPlies        tPly      fibAng     matID  matName
               (-)       (-)         (m)       (deg)       (-)  (-)
                 1         1    0.001500      0.0000         7  (web-shell)
                 2         1    0.080000      0.0000         8  (web-core)
                 3         1    0.001500      0.0000         7  (web-shell)

               lamina:  1     
              matName:  (web-shell)
                     s           e11           e22           e12           s11           s22           s12   s11_fcT   s11_fcC   s22_fcT   s22_fcC   s12_fcS
                   (m)         (m/m)         (m/m)         (rad)          (Pa)          (Pa)          (Pa)       (-)       (-)       (-)       (-)       (-)
                0.0000   4.0762e-004  -1.7954e-004   1.4071e-004   5.9332e+006   4.5306e+005   1.6885e+006    0.0412   -0.0000    0.0000   -0.0000    0.0188
                0.3361   3.8417e-004  -1.6917e-004   1.4899e-004   5.5923e+006   4.2769e+005   1.7879e+006    0.0388   -0.0000    0.0000   -0.0000    0.0199
                0.6721   3.6072e-004  -1.5881e-004   1.5681e-004   5.2513e+006   4.0231e+005   1.8817e+006    0.0365   -0.0000    0.0000   -0.0000    0.0209
                1.0082   3.3728e-004  -1.4844e-004   1.6416e-004   4.9103e+006   3.7694e+005   1.9699e+006    0.0341   -0.0000    0.0000   -0.0000    0.0219
                1.3443   3.1383e-004  -1.3808e-004   1.7104e-004   4.5694e+006   3.5157e+005   2.0525e+006    0.0317   -0.0000    0.0000   -0.0000    0.0228
                1.6803   2.9038e-004  -1.2771e-004   1.7745e-004   4.2284e+006   3.2619e+005   2.1294e+006    0.0294   -0.0000    0.0000   -0.0000    0.0237
                2.0164   2.6693e-004  -1.1735e-004   1.8339e-004   3.8874e+006   3.0082e+005   2.2007e+006    0.0270   -0.0000    0.0000   -0.0000    0.0245
                2.3525   2.4348e-004  -1.0698e-004   1.8886e-004   3.5465e+006   2.7544e+005   2.2664e+006    0.0246   -0.0000    0.0000   -0.0000    0.0252
                2.6885   2.2003e-004  -9.6620e-005   1.9387e-004   3.2055e+006   2.5007e+005   2.3264e+006    0.0223   -0.0000    0.0000   -0.0000    0.0258
                3.0246   1.9658e-004  -8.6255e-005   1.9840e-004   2.8645e+006   2.2469e+005   2.3808e+006    0.0199   -0.0000    0.0000   -0.0000    0.0265

               lamina:  2     
              matName:  (web-core)
                     s           e11           e22           e12           s11           s22           s12   s11_fcT   s11_fcC   s22_fcT   s22_fcC   s12_fcS
                   (m)         (m/m)         (m/m)         (rad)          (Pa)          (Pa)          (Pa)       (-)       (-)       (-)       (-)       (-)
                0.0000   4.4447e-004  -1.9711e-004   1.4071e-004   1.1010e+005  -1.8219e+004   2.8142e+003    0.0000   -0.0000    0.0000    0.0000    0.0000
                0.3361   4.2102e-004  -1.8674e-004   1.4899e-004   1.0428e+005  -1.7268e+004   2.9799e+003    0.0000   -0.0000    0.0000    0.0000    0.0000
                0.6721   3.9757e-004  -1.7638e-004   1.5681e-004   9.8473e+004  -1.6316e+004   3.1362e+003    0.0000   -0.0000    0.0000    0.0000    0.0000
                1.0082   3.7412e-004  -1.6601e-004   1.6416e-004   9.2661e+004  -1.5365e+004   3.2832e+003    0.0000   -0.0000    0.0000    0.0000    0.0000
                1.3443   3.5067e-004  -1.5565e-004   1.7104e-004   8.6850e+004  -1.4413e+004   3.4208e+003    0.0000   -0.0000    0.0000    0.0000    0.0000
                1.6803   3.2722e-004  -1.4528e-004   1.7745e-004   8.1039e+004  -1.3462e+004   3.5490e+003    0.0000   -0.0000    0.0000    0.0000    0.0000
                2.0164   3.0377e-004  -1.3492e-004   1.8339e-004   7.5228e+004  -1.2510e+004   3.6678e+003    0.0000   -0.0000    0.0000    0.0000    0.0000
                2.3525   2.8032e-004  -1.2455e-004   1.8886e-004   6.9417e+004  -1.1559e+004   3.7773e+003    0.0000   -0.0000    0.0000    0.0000    0.0000
                2.6885   2.5688e-004  -1.1419e-004   1.9387e-004   6.3605e+004  -1.0607e+004   3.8774e+003    0.0000   -0.0000    0.0000    0.0000    0.0000
                3.0246   2.3343e-004  -1.0382e-004   1.9840e-004   5.7794e+004  -9.6555e+003   3.9681e+003    0.0000   -0.0000    0.0000    0.0000    0.0000

               lamina:  3     
              matName:  (web-shell)
                     s           e11           e22           e12           s11           s22           s12   s11_fcT   s11_fcC   s22_fcT   s22_fcC   s12_fcS
                   (m)         (m/m)         (m/m)         (rad)          (Pa)          (Pa)          (Pa)       (-)       (-)       (-)       (-)       (-)
                0.0000   4.4516e-004  -1.9744e-004   1.4071e-004   6.4668e+006   4.6930e+005   1.6885e+006    0.0449   -0.0000    0.0000   -0.0000    0.0188
                0.3361   4.2171e-004  -1.8707e-004   1.4899e-004   6.1259e+006   4.4393e+005   1.7879e+006    0.0425   -0.0000    0.0000   -0.0000    0.0199
                0.6721   3.9826e-004  -1.7671e-004   1.5681e-004   5.7849e+006   4.1855e+005   1.8817e+006    0.0402   -0.0000    0.0000   -0.0000    0.0209
                1.0082   3.7481e-004  -1.6634e-004   1.6416e-004   5.4439e+006   3.9318e+005   1.9699e+006    0.0378   -0.0000    0.0000   -0.0000    0.0219
                1.3443   3.5136e-004  -1.5598e-004   1.7104e-004   5.1030e+006   3.6780e+005   2.0525e+006    0.0354   -0.0000    0.0000   -0.0000    0.0228
                1.6803   3.2791e-004  -1.4561e-004   1.7745e-004   4.7620e+006   3.4243e+005   2.1294e+006    0.0331   -0.0000    0.0000   -0.0000    0.0237
                2.0164   3.0446e-004  -1.3525e-004   1.8339e-004   4.4210e+006   3.1705e+005   2.2007e+006    0.0307   -0.0000    0.0000   -0.0000    0.0245
                2.3525   2.8101e-004  -1.2488e-004   1.8886e-004   4.0800e+006   2.9168e+005   2.2664e+006    0.0283   -0.0000    0.0000   -0.0000    0.0252
                2.6885   2.5757e-004  -1.1452e-004   1.9387e-004   3.7391e+006   2.6631e+005   2.3264e+006    0.0260   -0.0000    0.0000   -0.0000    0.0258
                3.0246   2.3412e-004  -1.0415e-004   1.9840e-004   3.3981e+006   2.4093e+005   2.3808e+006    0.0236   -0.0000    0.0000   -0.0000    0.0265

            panel:  2     
           lam_num    nPlies        tPly      fibAng     matID  matName
               (-)       (-)         (m)       (deg)       (-)  (-)
                 1         1    0.001500      0.0000         7  (web-shell)
                 2         1    0.080000      0.0000         8  (web-core)
                 3         1    0.001500      0.0000         7  (web-shell)

               lamina:  1     
              matName:  (web-shell)
                     s           e11           e22           e12           s11           s22           s12   s11_fcT   s11_fcC   s22_fcT   s22_fcC   s12_fcS
                   (m)         (m/m)         (m/m)         (rad)          (Pa)          (Pa)          (Pa)       (-)       (-)       (-)       (-)       (-)
                0.0000  -1.0385e-004   4.6569e-005   2.0552e-004  -1.5038e+006  -9.9952e+004   2.4662e+006    0.0000    0.0071    0.0000    0.0000    0.0274
                0.2831  -1.2315e-004   5.5102e-005   2.0393e-004  -1.7845e+006  -1.2084e+005   2.4471e+006    0.0000    0.0084    0.0000    0.0000    0.0272
                0.5663  -1.4245e-004   6.3634e-005   2.0201e-004  -2.0652e+006  -1.4173e+005   2.4241e+006    0.0000    0.0097    0.0000    0.0000    0.0269
                0.8494  -1.6176e-004   7.2166e-005   1.9977e-004  -2.3459e+006  -1.6262e+005   2.3972e+006    0.0000    0.0110    0.0000    0.0000    0.0266
                1.1326  -1.8106e-004   8.0699e-005   1.9720e-004  -2.6266e+006  -1.8350e+005   2.3665e+006    0.0000    0.0123    0.0000    0.0000    0.0263
                1.4157  -2.0036e-004   8.9231e-005   1.9431e-004  -2.9073e+006  -2.0439e+005   2.3318e+006    0.0000    0.0136    0.0000    0.0000    0.0259
                1.6989  -2.1966e-004   9.7764e-005   1.9110e-004  -3.1879e+006  -2.2528e+005   2.2932e+006    0.0000    0.0150    0.0000    0.0000    0.0255
                1.9820  -2.3897e-004   1.0630e-004   1.8756e-004  -3.4686e+006  -2.4617e+005   2.2507e+006    0.0000    0.0163    0.0000    0.0000    0.0250
                2.2652  -2.5827e-004   1.1483e-004   1.8369e-004  -3.7493e+006  -2.6706e+005   2.2043e+006    0.0000    0.0176    0.0000    0.0000    0.0245
                2.5483  -2.7757e-004   1.2336e-004   1.7950e-004  -4.0300e+006  -2.8794e+005   2.1540e+006    0.0000    0.0189    0.0000    0.0000    0.0239

               lamina:  2     
              matName:  (web-core)
                     s           e11           e22           e12           s11           s22           s12   s11_fcT   s11_fcC   s22_fcT   s22_fcC   s12_fcS
                   (m)         (m/m)         (m/m)         (rad)          (Pa)          (Pa)          (Pa)       (-)       (-)       (-)       (-)       (-)
                0.0000  -1.0316e-004   4.6240e-005   2.0552e-004  -2.5510e+004   4.3694e+003   4.1103e+003    0.0000    0.0000    0.0000   -0.0000    0.0000
                0.2831  -1.2246e-004   5.4772e-005   2.0393e-004  -3.0294e+004   5.1527e+003   4.0785e+003    0.0000    0.0000    0.0000   -0.0000    0.0000
                0.5663  -1.4176e-004   6.3304e-005   2.0201e-004  -3.5077e+004   5.9360e+003   4.0402e+003    0.0000    0.0000    0.0000   -0.0000    0.0000
                0.8494  -1.6106e-004   7.1837e-005   1.9977e-004  -3.9861e+004   6.7193e+003   3.9954e+003    0.0000    0.0000    0.0000   -0.0000    0.0000
                1.1326  -1.8037e-004   8.0369e-005   1.9720e-004  -4.4645e+004   7.5026e+003   3.9441e+003    0.0000    0.0000    0.0000   -0.0000    0.0000
                1.4157  -1.9967e-004   8.8901e-005   1.9431e-004  -4.9428e+004   8.2859e+003   3.8863e+003    0.0000    0.0000    0.0000   -0.0000    0.0000
                1.6989  -2.1897e-004   9.7434e-005   1.9110e-004  -5.4212e+004   9.0692e+003   3.8220e+003    0.0000    0.0000    0.0000   -0.0000    0.0000
                1.9820  -2.3828e-004   1.0597e-004   1.8756e-004  -5.8996e+004   9.8525e+003   3.7511e+003    0.0000    0.0000    0.0000   -0.0000    0.0000
                2.2652  -2.5758e-004   1.1450e-004   1.8369e-004  -6.3780e+004   1.0636e+004   3.6738e+003    0.0000    0.0000    0.0000   -0.0000    0.0000
                2.5483  -2.7688e-004   1.2303e-004   1.7950e-004  -6.8563e+004   1.1419e+004   3.5900e+003    0.0000    0.0000    0.0000   -0.0000    0.0000

               lamina:  3     
              matName:  (web-shell)
                     s           e11           e22           e12           s11           s22           s12   s11_fcT   s11_fcC   s22_fcT   s22_fcC   s12_fcS
                   (m)         (m/m)         (m/m)         (rad)          (Pa)          (Pa)          (Pa)       (-)       (-)       (-)       (-)       (-)
                0.0000  -6.6279e-005   2.8656e-005   2.0552e-004  -9.6975e+005  -8.3698e+004   2.4662e+006    0.0000    0.0046    0.0000    0.0000    0.0274
                0.2831  -8.5582e-005   3.7188e-005   2.0393e-004  -1.2504e+006  -1.0459e+005   2.4471e+006    0.0000    0.0059    0.0000    0.0000    0.0272
                0.5663  -1.0488e-004   4.5720e-005   2.0201e-004  -1.5311e+006  -1.2547e+005   2.4241e+006    0.0000    0.0072    0.0000    0.0000    0.0269
                0.8494  -1.2419e-004   5.4253e-005   1.9977e-004  -1.8118e+006  -1.4636e+005   2.3972e+006    0.0000    0.0085    0.0000    0.0000    0.0266
                1.1326  -1.4349e-004   6.2785e-005   1.9720e-004  -2.0925e+006  -1.6725e+005   2.3665e+006    0.0000    0.0098    0.0000    0.0000    0.0263
                1.4157  -1.6279e-004   7.1318e-005   1.9431e-004  -2.3732e+006  -1.8814e+005   2.3318e+006    0.0000    0.0111    0.0000    0.0000    0.0259
                1.6989  -1.8210e-004   7.9850e-005   1.9110e-004  -2.6538e+006  -2.0903e+005   2.2932e+006    0.0000    0.0125    0.0000    0.0000    0.0255
                1.9820  -2.0140e-004   8.8382e-005   1.8756e-004  -2.9345e+006  -2.2991e+005   2.2507e+006    0.0000    0.0138    0.0000    0.0000    0.0250
                2.2652  -2.2070e-004   9.6915e-005   1.8369e-004  -3.2152e+006  -2.5080e+005   2.2043e+006    0.0000    0.0151    0.0000    0.0000    0.0245
                2.5483  -2.4000e-004   1.0545e-004   1.7950e-004  -3.4959e+006  -2.7169e+005   2.1540e+006    0.0000    0.0164    0.0000    0.0000    0.0239

            panel:  3     
           lam_num    nPlies        tPly      fibAng     matID  matName
               (-)       (-)         (m)       (deg)       (-)  (-)
                 1         1    0.001500      0.0000         7  (web-shell)
                 2         1    0.080000      0.0000         8  (web-core)
                 3         1    0.001500      0.0000         7  (web-shell)

               lamina:  1     
              matName:  (web-shell)
                     s           e11           e22           e12           s11           s22           s12   s11_fcT   s11_fcC   s22_fcT   s22_fcC   s12_fcS
                   (m)         (m/m)         (m/m)         (rad)          (Pa)          (Pa)          (Pa)       (-)       (-)       (-)       (-)       (-)
                0.0000  -7.5499e-004   3.3439e-004   1.9541e-004  -1.0972e+007  -8.0456e+005   2.3450e+006    0.0000    0.0515    0.0000    0.0000    0.0261
                0.1349  -7.6415e-004   3.3844e-004   1.8947e-004  -1.1105e+007  -8.1448e+005   2.2737e+006    0.0000    0.0521    0.0000    0.0000    0.0253
                0.2697  -7.7331e-004   3.4249e-004   1.8346e-004  -1.1239e+007  -8.2439e+005   2.2015e+006    0.0000    0.0528    0.0000    0.0000    0.0245
                0.4046  -7.8248e-004   3.4654e-004   1.7737e-004  -1.1372e+007  -8.3431e+005   2.1284e+006    0.0000    0.0534    0.0000    0.0000    0.0236
                0.5394  -7.9164e-004   3.5059e-004   1.7120e-004  -1.1505e+007  -8.4423e+005   2.0545e+006    0.0000    0.0540    0.0000    0.0000    0.0228
                0.6743  -8.0080e-004   3.5464e-004   1.6497e-004  -1.1638e+007  -8.5414e+005   1.9796e+006    0.0000    0.0546    0.0000    0.0000    0.0220
                0.8092  -8.0997e-004   3.5869e-004   1.5866e-004  -1.1772e+007  -8.6406e+005   1.9039e+006    0.0000    0.0553    0.0000    0.0000    0.0212
                0.9440  -8.1913e-004   3.6275e-004   1.5228e-004  -1.1905e+007  -8.7398e+005   1.8273e+006    0.0000    0.0559    0.0000    0.0000    0.0203
                1.0789  -8.2829e-004   3.6680e-004   1.4582e-004  -1.2038e+007  -8.8389e+005   1.7498e+006    0.0000    0.0565    0.0000    0.0000    0.0194
                1.2137  -8.3746e-004   3.7085e-004   1.3929e-004  -1.2171e+007  -8.9381e+005   1.6715e+006    0.0000    0.0571    0.0000    0.0000    0.0186

               lamina:  2     
              matName:  (web-core)
                     s           e11           e22           e12           s11           s22           s12   s11_fcT   s11_fcC   s22_fcT   s22_fcC   s12_fcS
                   (m)         (m/m)         (m/m)         (rad)          (Pa)          (Pa)          (Pa)       (-)       (-)       (-)       (-)       (-)
                0.0000  -7.5429e-004   3.3406e-004   1.9541e-004  -1.8688e+005   3.0792e+004   3.9083e+003    0.0000    0.0000    0.0000   -0.0000    0.0000
                0.1349  -7.6346e-004   3.3811e-004   1.8947e-004  -1.8915e+005   3.1164e+004   3.7894e+003    0.0000    0.0000    0.0000   -0.0000    0.0000
                0.2697  -7.7262e-004   3.4216e-004   1.8346e-004  -1.9142e+005   3.1536e+004   3.6691e+003    0.0000    0.0000    0.0000   -0.0000    0.0000
                0.4046  -7.8178e-004   3.4621e-004   1.7737e-004  -1.9369e+005   3.1908e+004   3.5473e+003    0.0000    0.0000    0.0000   -0.0000    0.0000
                0.5394  -7.9095e-004   3.5026e-004   1.7120e-004  -1.9596e+005   3.2280e+004   3.4241e+003    0.0000    0.0000    0.0000   -0.0000    0.0000
                0.6743  -8.0011e-004   3.5431e-004   1.6497e-004  -1.9823e+005   3.2652e+004   3.2994e+003    0.0000    0.0000    0.0000   -0.0000    0.0000
                0.8092  -8.0928e-004   3.5836e-004   1.5866e-004  -2.0050e+005   3.3023e+004   3.1732e+003    0.0000    0.0000    0.0000   -0.0000    0.0000
                0.9440  -8.1844e-004   3.6242e-004   1.5228e-004  -2.0278e+005   3.3395e+004   3.0455e+003    0.0000    0.0000    0.0000   -0.0000    0.0000
                1.0789  -8.2760e-004   3.6647e-004   1.4582e-004  -2.0505e+005   3.3767e+004   2.9164e+003    0.0000    0.0000    0.0000   -0.0000    0.0000
                1.2137  -8.3677e-004   3.7052e-004   1.3929e-004  -2.0732e+005   3.4139e+004   2.7858e+003    0.0000    0.0000    0.0000   -0.0000    0.0000

               lamina:  3     
              matName:  (web-shell)
                     s           e11           e22           e12           s11           s22           s12   s11_fcT   s11_fcC   s22_fcT   s22_fcC   s12_fcS
                   (m)         (m/m)         (m/m)         (rad)          (Pa)          (Pa)          (Pa)       (-)       (-)       (-)       (-)       (-)
                0.0000  -7.1741e-004   3.1648e-004   1.9541e-004  -1.0438e+007  -7.8831e+005   2.3450e+006    0.0000    0.0490    0.0000    0.0000    0.0261
                0.1349  -7.2658e-004   3.2053e-004   1.8947e-004  -1.0571e+007  -7.9822e+005   2.2737e+006    0.0000    0.0496    0.0000    0.0000    0.0253
                0.2697  -7.3574e-004   3.2458e-004   1.8346e-004  -1.0704e+007  -8.0814e+005   2.2015e+006    0.0000    0.0503    0.0000    0.0000    0.0245
                0.4046  -7.4490e-004   3.2863e-004   1.7737e-004  -1.0838e+007  -8.1806e+005   2.1284e+006    0.0000    0.0509    0.0000    0.0000    0.0236
                0.5394  -7.5407e-004   3.3268e-004   1.7120e-004  -1.0971e+007  -8.2797e+005   2.0545e+006    0.0000    0.0515    0.0000    0.0000    0.0228
                0.6743  -7.6323e-004   3.3673e-004   1.6497e-004  -1.1104e+007  -8.3789e+005   1.9796e+006    0.0000    0.0521    0.0000    0.0000    0.0220
                0.8092  -7.7239e-004   3.4078e-004   1.5866e-004  -1.1237e+007  -8.4780e+005   1.9039e+006    0.0000    0.0528    0.0000    0.0000    0.0212
                0.9440  -7.8156e-004   3.4483e-004   1.5228e-004  -1.1371e+007  -8.5772e+005   1.8273e+006    0.0000    0.0534    0.0000    0.0000    0.0203
                1.0789  -7.9072e-004   3.4888e-004   1.4582e-004  -1.1504e+007  -8.6764e+005   1.7498e+006    0.0000    0.0540    0.0000    0.0000    0.0194
                1.2137  -7.9988e-004   3.5293e-004   1.3929e-004  -1.1637e+007  -8.7755e+005   1.6715e+006    0.0000    0.0546    0.0000    0.0000    0.0186

================================================================================
sec        =  14     
zSec       =  19.5000  (m)
nPanelsTop =  5      
nPanelsBot =  5      
nWebs      =  3      

    Top:  panel  nNode   nLam     xc_St    xc_End         b         t         E_eff         G_eff      nu_eff     density  buckleCrit
            (-)    (-)    (-)       (-)       (-)       (m)       (m)          (Pa)          (Pa)         (-)    (kg/m^3)         (-)
              1     12      3    0.0000    0.2837    2.8125    0.0700   4.2251e+009   1.0171e+009      0.3899    435.7143      0.0005
              2      6      5    0.2837    0.4763    1.4636    0.1460   4.1054e+010   3.2739e+009      0.2887   1915.1820      0.0000
              3      2      3    0.4763    0.4772    0.0072    0.0700   4.2251e+009   1.0171e+009      0.3899    435.7143      0.0000
              4      7      3    0.4772    0.7119    1.8596    0.0700   4.2251e+009   1.0171e+009      0.3899    435.7143      0.1115
              5     12      3    0.7119    1.0000    2.3078    0.0700   4.2251e+009   1.0171e+009      0.3899    435.7143      0.2934

            panel:  1     
           lam_num    nPlies        tPly      fibAng     matID  matName
               (-)       (-)         (m)       (deg)       (-)  (-)
                 1         1    0.005000      0.0000         2  (blade-shell)
                 2         1    0.060000      0.0000         5  (LEP-core)
                 3         1    0.005000      0.0000         2  (blade-shell)

               lamina:  1     
              matName:  (blade-shell)
                     s           e11           e22           e12           s11           s22           s12   s11_fcT   s11_fcC   s22_fcT   s22_fcC   s12_fcS
                   (m)         (m/m)         (m/m)         (rad)          (Pa)          (Pa)          (Pa)       (-)       (-)       (-)       (-)       (-)
                0.0000   1.5614e-003  -6.0890e-004   1.3052e-004   4.3814e+007   2.3825e+005   9.1365e+005    0.3043   -0.0000    0.0000   -0.0000    0.0152
                0.1813   1.5649e-003  -6.1028e-004   8.9283e-005   4.3913e+007   2.3880e+005   6.2498e+005    0.3050   -0.0000    0.0000   -0.0000    0.0104
                0.3982   1.5496e-003  -6.0431e-004   4.0101e-005   4.3484e+007   2.3650e+005   2.8071e+005    0.3020   -0.0000    0.0000   -0.0000    0.0047
                0.6089   1.5116e-003  -5.8948e-004   6.8473e-006   4.2417e+007   2.3079e+005   4.7931e+004    0.2946   -0.0000    0.0000   -0.0000    0.0008
                0.8331   1.4525e-003  -5.6640e-004   5.5270e-005   4.0757e+007   2.2186e+005   3.8689e+005    0.2830   -0.0000    0.0000   -0.0000    0.0064
                1.0759   1.3730e-003  -5.3541e-004   1.0529e-004   3.8528e+007   2.0984e+005   7.3702e+005    0.2676   -0.0000    0.0000   -0.0000    0.0123
                1.3347   1.2736e-003  -4.9663e-004   1.5526e-004   3.5738e+007   1.9476e+005   1.0868e+006    0.2482   -0.0000    0.0000   -0.0000    0.0181
                1.6117   1.1552e-003  -4.5046e-004   2.0439e-004   3.2416e+007   1.7675e+005   1.4307e+006    0.2251   -0.0000    0.0000   -0.0000    0.0238
                1.9084   1.0193e-003  -3.9746e-004   2.5155e-004   2.8603e+007   1.5605e+005   1.7608e+006    0.1986   -0.0000    0.0000   -0.0000    0.0293
                2.2231   8.6676e-004  -3.3798e-004   2.9497e-004   2.4322e+007   1.3280e+005   2.0648e+006    0.1689   -0.0000    0.0000   -0.0000    0.0344
                2.5572   6.9941e-004  -2.7272e-004   3.3328e-004   1.9626e+007   1.0722e+005   2.3330e+006    0.1363   -0.0000    0.0000   -0.0000    0.0389
                2.8125   5.6896e-004  -2.2185e-004   3.5701e-004   1.5966e+007   8.7242e+004   2.4991e+006    0.1109   -0.0000    0.0000   -0.0000    0.0417

               lamina:  2     
              matName:  (LEP-core)
                     s           e11           e22           e12           s11           s22           s12   s11_fcT   s11_fcC   s22_fcT   s22_fcC   s12_fcS
                   (m)         (m/m)         (m/m)         (rad)          (Pa)          (Pa)          (Pa)       (-)       (-)       (-)       (-)       (-)
                0.0000   1.5583e-003  -6.0767e-004   1.3052e-004   3.9314e+005  -4.0052e+004   2.6104e+003    0.0000   -0.0000    0.0000    0.0000    0.0000
                0.1813   1.5618e-003  -6.0905e-004   8.9283e-005   3.9403e+005  -4.0143e+004   1.7857e+003    0.0000   -0.0000    0.0000    0.0000    0.0000
                0.3982   1.5466e-003  -6.0311e-004   4.0101e-005   3.9019e+005  -3.9751e+004   8.0202e+002    0.0000   -0.0000    0.0000    0.0000    0.0000
                0.6089   1.5088e-003  -5.8836e-004   6.8473e-006   3.8066e+005  -3.8778e+004   1.3695e+002    0.0000   -0.0000    0.0000    0.0000    0.0000
                0.8331   1.4499e-003  -5.6538e-004   5.5270e-005   3.6579e+005  -3.7262e+004   1.1054e+003    0.0000   -0.0000    0.0000    0.0000    0.0000
                1.0759   1.3707e-003  -5.3451e-004   1.0529e-004   3.4582e+005  -3.5226e+004   2.1058e+003    0.0000   -0.0000    0.0000    0.0000    0.0000
                1.3347   1.2716e-003  -4.9585e-004   1.5526e-004   3.2081e+005  -3.2677e+004   3.1051e+003    0.0000   -0.0000    0.0000    0.0000    0.0000
                1.6117   1.1536e-003  -4.4981e-004   2.0439e-004   2.9103e+005  -2.9641e+004   4.0878e+003    0.0000   -0.0000    0.0000    0.0000    0.0000
                1.9084   1.0180e-003  -3.9693e-004   2.5155e-004   2.5682e+005  -2.6156e+004   5.0309e+003    0.0000   -0.0000    0.0000    0.0000    0.0000
                2.2231   8.6576e-004  -3.3758e-004   2.9497e-004   2.1843e+005  -2.2244e+004   5.8993e+003    0.0000   -0.0000    0.0000    0.0000    0.0000
                2.5572   6.9869e-004  -2.7243e-004   3.3328e-004   1.7627e+005  -1.7950e+004   6.6656e+003    0.0000   -0.0000    0.0000    0.0000    0.0000
                2.8125   5.6840e-004  -2.2163e-004   3.5701e-004   1.4340e+005  -1.4602e+004   7.1403e+003    0.0000   -0.0000    0.0000    0.0000    0.0000

               lamina:  3     
              matName:  (blade-shell)
                     s           e11           e22           e12           s11           s22           s12   s11_fcT   s11_fcC   s22_fcT   s22_fcC   s12_fcS
                   (m)         (m/m)         (m/m)         (rad)          (Pa)          (Pa)          (Pa)       (-)       (-)       (-)       (-)       (-)
                0.0000   1.5212e-003  -5.9293e-004   1.3052e-004   4.2687e+007   2.3635e+005   9.1365e+005    0.2964   -0.0000    0.0000   -0.0000    0.0152
                0.1813   1.5247e-003  -5.9432e-004   8.9283e-005   4.2787e+007   2.3690e+005   6.2498e+005    0.2971   -0.0000    0.0000   -0.0000    0.0104
                0.3982   1.5105e-003  -5.8877e-004   4.0101e-005   4.2387e+007   2.3466e+005   2.8071e+005    0.2944   -0.0000    0.0000   -0.0000    0.0047
                0.6089   1.4751e-003  -5.7498e-004   6.8473e-006   4.1394e+007   2.2907e+005   4.7931e+004    0.2875   -0.0000    0.0000   -0.0000    0.0008
                0.8331   1.4192e-003  -5.5319e-004   5.5270e-005   3.9825e+007   2.2030e+005   3.8689e+005    0.2766   -0.0000    0.0000   -0.0000    0.0064
                1.0759   1.3434e-003  -5.2367e-004   1.0529e-004   3.7699e+007   2.0844e+005   7.3702e+005    0.2618   -0.0000    0.0000   -0.0000    0.0123
                1.3347   1.2481e-003  -4.8653e-004   1.5526e-004   3.5025e+007   1.9356e+005   1.0868e+006    0.2432   -0.0000    0.0000   -0.0000    0.0181
                1.6117   1.1338e-003  -4.4198e-004   2.0439e-004   3.1817e+007   1.7574e+005   1.4307e+006    0.2210   -0.0000    0.0000   -0.0000    0.0238
                1.9084   1.0021e-003  -3.9062e-004   2.5155e-004   2.8120e+007   1.5524e+005   1.7608e+006    0.1953   -0.0000    0.0000   -0.0000    0.0293
                2.2231   8.5377e-004  -3.3282e-004   2.9497e-004   2.3958e+007   1.3218e+005   2.0648e+006    0.1664   -0.0000    0.0000   -0.0000    0.0344
                2.5572   6.9001e-004  -2.6899e-004   3.3328e-004   1.9363e+007   1.0678e+005   2.3330e+006    0.1345   -0.0000    0.0000   -0.0000    0.0389
                2.8125   5.6170e-004  -2.1897e-004   3.5701e-004   1.5762e+007   8.6900e+004   2.4991e+006    0.1095   -0.0000    0.0000   -0.0000    0.0417

            panel:  2     
           lam_num    nPlies        tPly      fibAng     matID  matName
               (-)       (-)         (m)       (deg)       (-)  (-)
                 1         1    0.005000      0.0000         2  (blade-shell)
                 2         1    0.068000      0.0000         3  (spar-uni)
                 3         1    0.000002      0.0000         4  (spar-core)
                 4         1    0.068000      0.0000         3  (spar-uni)
                 5         1    0.005000      0.0000         2  (blade-shell)

               lamina:  1     
              matName:  (blade-shell)
                     s           e11           e22           e12           s11           s22           s12   s11_fcT   s11_fcC   s22_fcT   s22_fcC   s12_fcS
                   (m)         (m/m)         (m/m)         (rad)          (Pa)          (Pa)          (Pa)       (-)       (-)       (-)       (-)       (-)
                0.0000   5.8272e-004  -1.6854e-004   3.8461e-005   1.6709e+007   9.8229e+005   2.6923e+005    0.1160   -0.0000    0.0000   -0.0000    0.0045
                0.0937   5.2774e-004  -1.5255e-004   6.0907e-005   1.5133e+007   8.9090e+005   4.2635e+005    0.1051   -0.0000    0.0000   -0.0000    0.0071
                0.4632   3.3287e-004  -9.6211e-005   1.2997e-004   9.5451e+006   5.6206e+005   9.0979e+005    0.0663   -0.0000    0.0000   -0.0000    0.0152
                0.8469   1.2885e-004  -3.7217e-005   1.6863e-004   3.6951e+006   2.1798e+005   1.1804e+006    0.0257   -0.0000    0.0000   -0.0000    0.0197
                1.2433  -8.0271e-005   2.3229e-005   1.7313e-004  -2.3016e+006  -1.3512e+005   1.2119e+006    0.0000    0.0108    0.0000    0.0000    0.0202
                1.4636  -1.9704e-004   5.6991e-005   1.6007e-004  -5.6500e+006  -3.3212e+005   1.1205e+006    0.0000    0.0265    0.0000    0.0000    0.0187

               lamina:  2     
              matName:  (spar-uni)
                     s           e11           e22           e12           s11           s22           s12   s11_fcT   s11_fcC   s22_fcT   s22_fcC   s12_fcS
                   (m)         (m/m)         (m/m)         (rad)          (Pa)          (Pa)          (Pa)       (-)       (-)       (-)       (-)       (-)
                0.0000   5.8127e-004  -1.6810e-004   3.8461e-005   2.4392e+007  -7.6789e+004   1.1538e+005    0.0251   -0.0000    0.0000    0.0000    0.0038
                0.0937   5.2680e-004  -1.5227e-004   6.0907e-005   2.2107e+007  -6.8440e+004   1.8272e+005    0.0227   -0.0000    0.0000    0.0000    0.0061
                0.4632   3.3232e-004  -9.6044e-005   1.2997e-004   1.3945e+007  -4.3059e+004   3.8991e+005    0.0143   -0.0000    0.0000    0.0000    0.0130
                0.8469   1.2876e-004  -3.7188e-005   1.6863e-004   5.4032e+006  -1.6326e+004   5.0590e+005    0.0056   -0.0000    0.0000    0.0000    0.0169
                1.2433  -8.0017e-005   2.3151e-005   1.7313e-004  -3.3577e+006   1.0736e+004   5.1940e+005    0.0000    0.0048    0.0000   -0.0000    0.0173
                1.4636  -1.9654e-004   5.6840e-005   1.6007e-004  -8.2475e+006   2.5987e+004   4.8020e+005    0.0000    0.0117    0.0000   -0.0000    0.0160

               lamina:  3     
              matName:  (spar-core)
                     s           e11           e22           e12           s11           s22           s12   s11_fcT   s11_fcC   s22_fcT   s22_fcC   s12_fcS
                   (m)         (m/m)         (m/m)         (rad)          (Pa)          (Pa)          (Pa)       (-)       (-)       (-)       (-)       (-)
                0.0000   5.6152e-004  -1.6209e-004   3.8461e-005   1.4654e+005   1.8184e+003   7.6922e+002    0.0000   -0.0000    0.0000   -0.0000    0.0000
                0.0937   5.1411e-004  -1.4841e-004   6.0907e-005   1.3417e+005   1.6649e+003   1.2181e+003    0.0000   -0.0000    0.0000   -0.0000    0.0000
                0.4632   3.2482e-004  -9.3765e-005   1.2997e-004   8.4769e+004   1.0519e+003   2.5994e+003    0.0000   -0.0000    0.0000   -0.0000    0.0000
                0.8469   1.2747e-004  -3.6795e-005   1.6863e-004   3.3265e+004   4.1279e+002   3.3727e+003    0.0000   -0.0000    0.0000   -0.0000    0.0000
                1.2433  -7.6552e-005   2.2098e-005   1.7313e-004  -1.9978e+004  -2.4791e+002   3.4627e+003    0.0000    0.0000    0.0000    0.0000    0.0000
                1.4636  -1.8976e-004   5.4778e-005   1.6007e-004  -4.9523e+004  -6.1453e+002   3.2013e+003    0.0000    0.0000    0.0000    0.0000    0.0000

               lamina:  4     
              matName:  (spar-uni)
                     s           e11           e22           e12           s11           s22           s12   s11_fcT   s11_fcC   s22_fcT   s22_fcC   s12_fcS
                   (m)         (m/m)         (m/m)         (rad)          (Pa)          (Pa)          (Pa)       (-)       (-)       (-)       (-)       (-)
                0.0000   5.6152e-004  -1.6209e-004   3.8461e-005   2.3564e+007  -6.9951e+004   1.1538e+005    0.0242   -0.0000    0.0000    0.0000    0.0038
                0.0937   5.1411e-004  -1.4841e-004   6.0907e-005   2.1575e+007  -6.4045e+004   1.8272e+005    0.0222   -0.0000    0.0000    0.0000    0.0061
                0.4632   3.2482e-004  -9.3765e-005   1.2997e-004   1.3631e+007  -4.0465e+004   3.8991e+005    0.0140   -0.0000    0.0000    0.0000    0.0130
                0.8469   1.2747e-004  -3.6795e-005   1.6863e-004   5.3491e+006  -1.5879e+004   5.0590e+005    0.0055   -0.0000    0.0000    0.0000    0.0169
                1.2433  -7.6552e-005   2.2098e-005   1.7313e-004  -3.2125e+006   9.5365e+003   5.1940e+005    0.0000    0.0046    0.0000   -0.0000    0.0173
                1.4636  -1.8976e-004   5.4778e-005   1.6007e-004  -7.9634e+006   2.3640e+004   4.8020e+005    0.0000    0.0113    0.0000   -0.0000    0.0160

               lamina:  5     
              matName:  (blade-shell)
                     s           e11           e22           e12           s11           s22           s12   s11_fcT   s11_fcC   s22_fcT   s22_fcC   s12_fcS
                   (m)         (m/m)         (m/m)         (rad)          (Pa)          (Pa)          (Pa)       (-)       (-)       (-)       (-)       (-)
                0.0000   5.4177e-004  -1.5609e-004   3.8461e-005   1.5539e+007   9.2251e+005   2.6923e+005    0.1079   -0.0000    0.0000   -0.0000    0.0045
                0.0937   5.0141e-004  -1.4455e-004   6.0907e-005   1.4381e+007   8.5248e+005   4.2635e+005    0.0999   -0.0000    0.0000   -0.0000    0.0071
                0.4632   3.1733e-004  -9.1486e-005   1.2997e-004   9.1010e+006   5.3938e+005   9.0979e+005    0.0632   -0.0000    0.0000   -0.0000    0.0152
                0.8469   1.2618e-004  -3.6403e-005   1.6863e-004   3.6186e+006   2.1407e+005   1.1804e+006    0.0251   -0.0000    0.0000   -0.0000    0.0197
                1.2433  -7.3088e-005   2.1045e-005   1.7313e-004  -2.0963e+006  -1.2464e+005   1.2119e+006    0.0000    0.0098    0.0000    0.0000    0.0202
                1.4636  -1.8298e-004   5.2717e-005   1.6007e-004  -5.2482e+006  -3.1160e+005   1.1205e+006    0.0000    0.0246    0.0000    0.0000    0.0187

            panel:  3     
           lam_num    nPlies        tPly      fibAng     matID  matName
               (-)       (-)         (m)       (deg)       (-)  (-)
                 1         1    0.005000      0.0000         2  (blade-shell)
                 2         1    0.060000      0.0000         6  (TEP-core)
                 3         1    0.005000      0.0000         2  (blade-shell)

               lamina:  1     
              matName:  (blade-shell)
                     s           e11           e22           e12           s11           s22           s12   s11_fcT   s11_fcC   s22_fcT   s22_fcC   s12_fcS
                   (m)         (m/m)         (m/m)         (rad)          (Pa)          (Pa)          (Pa)       (-)       (-)       (-)       (-)       (-)
                0.0000  -1.9232e-004   7.4988e-005   1.0746e-003  -5.3966e+006  -2.9487e+004   7.5222e+006    0.0000    0.0253    0.0000    0.0000    0.1254
                0.0072  -1.9602e-004   7.6433e-005   1.0744e-003  -5.5006e+006  -3.0058e+004   7.5207e+006    0.0000    0.0258    0.0000    0.0000    0.1253

               lamina:  2     
              matName:  (TEP-core)
                     s           e11           e22           e12           s11           s22           s12   s11_fcT   s11_fcC   s22_fcT   s22_fcC   s12_fcS
                   (m)         (m/m)         (m/m)         (rad)          (Pa)          (Pa)          (Pa)       (-)       (-)       (-)       (-)       (-)
                0.0000  -1.9212e-004   7.4912e-005   1.0746e-003  -4.8471e+004   4.9358e+003   2.1492e+004    0.0000    0.0000    0.0000   -0.0000    0.0000
                0.0072  -1.9583e-004   7.6357e-005   1.0744e-003  -4.9406e+004   5.0309e+003   2.1488e+004    0.0000    0.0000    0.0000   -0.0000    0.0000

               lamina:  3     
              matName:  (blade-shell)
                     s           e11           e22           e12           s11           s22           s12   s11_fcT   s11_fcC   s22_fcT   s22_fcC   s12_fcS
                   (m)         (m/m)         (m/m)         (rad)          (Pa)          (Pa)          (Pa)       (-)       (-)       (-)       (-)       (-)
                0.0000  -1.8982e-004   7.4000e-005   1.0746e-003  -5.3268e+006  -2.9370e+004   7.5222e+006    0.0000    0.0250    0.0000    0.0000    0.1254
                0.0072  -1.9353e-004   7.5444e-005   1.0744e-003  -5.4308e+006  -2.9940e+004   7.5207e+006    0.0000    0.0255    0.0000    0.0000    0.1253

            panel:  4     
           lam_num    nPlies        tPly      fibAng     matID  matName
               (-)       (-)         (m)       (deg)       (-)  (-)
                 1         1    0.005000      0.0000         2  (blade-shell)
                 2         1    0.060000      0.0000         6  (TEP-core)
                 3         1    0.005000      0.0000         2  (blade-shell)

               lamina:  1     
              matName:  (blade-shell)
                     s           e11           e22           e12           s11           s22           s12   s11_fcT   s11_fcC   s22_fcT   s22_fcC   s12_fcS
                   (m)         (m/m)         (m/m)         (rad)          (Pa)          (Pa)          (Pa)       (-)       (-)       (-)       (-)       (-)
                0.0000  -1.9602e-004   7.6433e-005   9.2881e-004  -5.5006e+006  -3.0058e+004   6.5017e+006    0.0000    0.0258    0.0000    0.0000    0.1084
                0.1769  -2.8750e-004   1.1210e-004   9.2861e-004  -8.0676e+006  -4.4090e+004   6.5003e+006    0.0000    0.0379    0.0000    0.0000    0.1083
                0.5873  -4.9828e-004   1.9429e-004   9.2861e-004  -1.3983e+007  -7.6503e+004   6.5003e+006    0.0000    0.0656    0.0000    0.0000    0.1083
                0.9968  -7.0778e-004   2.7597e-004   9.2234e-004  -1.9861e+007  -1.0872e+005   6.4564e+006    0.0000    0.0932    0.0000    0.0000    0.1076
                1.3998  -9.1322e-004   3.5607e-004   8.9868e-004  -2.5626e+007  -1.4034e+005   6.2908e+006    0.0000    0.1203    0.0000    0.0000    0.1048
                1.7911  -1.1122e-003   4.3363e-004   8.6241e-004  -3.1209e+007  -1.7097e+005   6.0368e+006    0.0000    0.1465    0.0000    0.0000    0.1006
                1.8596  -1.1470e-003   4.4723e-004   8.1439e-004  -3.2188e+007  -1.7633e+005   5.7008e+006    0.0000    0.1511    0.0000    0.0000    0.0950

               lamina:  2     
              matName:  (TEP-core)
                     s           e11           e22           e12           s11           s22           s12   s11_fcT   s11_fcC   s22_fcT   s22_fcC   s12_fcS
                   (m)         (m/m)         (m/m)         (rad)          (Pa)          (Pa)          (Pa)       (-)       (-)       (-)       (-)       (-)
                0.0000  -1.9583e-004   7.6357e-005   9.2881e-004  -4.9406e+004   5.0309e+003   1.8576e+004    0.0000    0.0000    0.0000   -0.0000    0.0000
                0.1769  -2.8722e-004   1.1199e-004   9.2861e-004  -7.2464e+004   7.3788e+003   1.8572e+004    0.0000    0.0000    0.0000   -0.0000    0.0000
                0.5873  -4.9793e-004   1.9414e-004   9.2861e-004  -1.2562e+005   1.2790e+004   1.8572e+004    0.0000    0.0000    0.0000   -0.0000    0.0000
                0.9968  -7.0734e-004   2.7579e-004   9.2234e-004  -1.7846e+005   1.8169e+004   1.8447e+004    0.0000    0.0000    0.0000   -0.0000    0.0000
                1.3998  -9.1274e-004   3.5587e-004   8.9868e-004  -2.3028e+005   2.3444e+004   1.7974e+004    0.0000    0.0000    0.0000   -0.0000    0.0000
                1.7911  -1.1116e-003   4.3342e-004   8.6241e-004  -2.8046e+005   2.8552e+004   1.7248e+004    0.0000    0.0000    0.0000   -0.0000    0.0000
                1.8596  -1.1465e-003   4.4702e-004   8.1439e-004  -2.8926e+005   2.9447e+004   1.6288e+004    0.0000    0.0000    0.0000   -0.0000    0.0000

               lamina:  3     
              matName:  (blade-shell)
                     s           e11           e22           e12           s11           s22           s12   s11_fcT   s11_fcC   s22_fcT   s22_fcC   s12_fcS
                   (m)         (m/m)         (m/m)         (rad)          (Pa)          (Pa)          (Pa)       (-)       (-)       (-)       (-)       (-)
                0.0000  -1.9353e-004   7.5444e-005   9.2881e-004  -5.4308e+006  -2.9940e+004   6.5017e+006    0.0000    0.0255    0.0000    0.0000    0.1084
                0.1769  -2.8393e-004   1.1068e-004   9.2861e-004  -7.9675e+006  -4.3921e+004   6.5003e+006    0.0000    0.0374    0.0000    0.0000    0.1083
                0.5873  -4.9362e-004   1.9243e-004   9.2861e-004  -1.3852e+007  -7.6283e+004   6.5003e+006    0.0000    0.0650    0.0000    0.0000    0.1083
                0.9968  -7.0212e-004   2.7372e-004   9.2234e-004  -1.9703e+007  -1.0846e+005   6.4564e+006    0.0000    0.0925    0.0000    0.0000    0.1076
                1.3998  -9.0695e-004   3.5358e-004   8.9868e-004  -2.5451e+007  -1.4005e+005   6.2908e+006    0.0000    0.1195    0.0000    0.0000    0.1048
                1.7911  -1.1056e-003   4.3102e-004   8.6241e-004  -3.1024e+007  -1.7066e+005   6.0368e+006    0.0000    0.1457    0.0000    0.0000    0.1006
                1.8596  -1.1402e-003   4.4450e-004   8.1439e-004  -3.1995e+007  -1.7601e+005   5.7008e+006    0.0000    0.1502    0.0000    0.0000    0.0950

            panel:  5     
           lam_num    nPlies        tPly      fibAng     matID  matName
               (-)       (-)         (m)       (deg)       (-)  (-)
                 1         1    0.005000      0.0000         2  (blade-shell)
                 2         1    0.060000      0.0000         6  (TEP-core)
                 3         1    0.005000      0.0000         2  (blade-shell)

               lamina:  1     
              matName:  (blade-shell)
                     s           e11           e22           e12           s11           s22           s12   s11_fcT   s11_fcC   s22_fcT   s22_fcC   s12_fcS
                   (m)         (m/m)         (m/m)         (rad)          (Pa)          (Pa)          (Pa)       (-)       (-)       (-)       (-)       (-)
                0.0000  -1.1470e-003   4.4723e-004   7.5612e-004  -3.2188e+007  -1.7633e+005   5.2928e+006    0.0000    0.1511    0.0000    0.0000    0.0882
                0.3060  -1.3023e-003   5.0776e-004   7.4474e-004  -3.6544e+007  -2.0025e+005   5.2132e+006    0.0000    0.1716    0.0000    0.0000    0.0869
                0.6593  -1.4814e-003   5.7757e-004   6.2720e-004  -4.1569e+007  -2.2783e+005   4.3904e+006    0.0000    0.1952    0.0000    0.0000    0.0732
                0.9865  -1.6472e-003   6.4224e-004   5.7205e-004  -4.6224e+007  -2.5339e+005   4.0044e+006    0.0000    0.2170    0.0000    0.0000    0.0667
                1.2843  -1.7981e-003   7.0107e-004   4.9970e-004  -5.0458e+007  -2.7665e+005   3.4979e+006    0.0000    0.2369    0.0000    0.0000    0.0583
                1.5489  -1.9323e-003   7.5338e-004   4.2433e-004  -5.4224e+007  -2.9733e+005   2.9703e+006    0.0000    0.2546    0.0000    0.0000    0.0495
                1.7774  -2.0483e-003   7.9861e-004   3.4880e-004  -5.7479e+007  -3.1522e+005   2.4416e+006    0.0000    0.2699    0.0000    0.0000    0.0407
                1.9676  -2.1450e-003   8.3630e-004   2.7610e-004  -6.0192e+007  -3.3011e+005   1.9327e+006    0.0000    0.2826    0.0000    0.0000    0.0322
                2.1178  -2.2213e-003   8.6607e-004   2.0910e-004  -6.2334e+007  -3.4187e+005   1.4637e+006    0.0000    0.2926    0.0000    0.0000    0.0244
                2.2267  -2.2765e-003   8.8756e-004   1.5033e-004  -6.3881e+007  -3.5038e+005   1.0523e+006    0.0000    0.2999    0.0000    0.0000    0.0175
                2.2829  -2.3106e-003   9.0091e-004   1.0201e-004  -6.4839e+007  -3.5506e+005   7.1408e+005    0.0000    0.3044    0.0000    0.0000    0.0119
                2.3078  -2.3252e-003   9.0666e-004   6.5936e-005  -6.5248e+007  -3.5647e+005   4.6155e+005    0.0000    0.3063    0.0000    0.0000    0.0077

               lamina:  2     
              matName:  (TEP-core)
                     s           e11           e22           e12           s11           s22           s12   s11_fcT   s11_fcC   s22_fcT   s22_fcC   s12_fcS
                   (m)         (m/m)         (m/m)         (rad)          (Pa)          (Pa)          (Pa)       (-)       (-)       (-)       (-)       (-)
                0.0000  -1.1465e-003   4.4702e-004   7.5612e-004  -2.8926e+005   2.9447e+004   1.5122e+004    0.0000    0.0000    0.0000   -0.0000    0.0000
                0.3060  -1.3018e-003   5.0755e-004   7.4474e-004  -3.2843e+005   3.3434e+004   1.4895e+004    0.0000    0.0000    0.0000   -0.0000    0.0000
                0.6593  -1.4808e-003   5.7736e-004   6.2720e-004  -3.7360e+005   3.8032e+004   1.2544e+004    0.0000    0.0000    0.0000   -0.0000    0.0000
                0.9865  -1.6467e-003   6.4203e-004   5.7205e-004  -4.1545e+005   4.2291e+004   1.1441e+004    0.0000    0.0000    0.0000   -0.0000    0.0000
                1.2843  -1.7976e-003   7.0087e-004   4.9970e-004  -4.5353e+005   4.6167e+004   9.9939e+003    0.0000    0.0000    0.0000   -0.0000    0.0000
                1.5489  -1.9318e-003   7.5318e-004   4.2433e-004  -4.8738e+005   4.9612e+004   8.4866e+003    0.0000    0.0000    0.0000   -0.0000    0.0000
                1.7774  -2.0478e-003   7.9841e-004   3.4880e-004  -5.1665e+005   5.2591e+004   6.9759e+003    0.0000    0.0000    0.0000   -0.0000    0.0000
                1.9676  -2.1445e-003   8.3611e-004   2.7610e-004  -5.4105e+005   5.5074e+004   5.5220e+003    0.0000    0.0000    0.0000   -0.0000    0.0000
                2.1178  -2.2208e-003   8.6587e-004   2.0910e-004  -5.6031e+005   5.7034e+004   4.1820e+003    0.0000    0.0000    0.0000   -0.0000    0.0000
                2.2267  -2.2760e-003   8.8737e-004   1.5033e-004  -5.7422e+005   5.8450e+004   3.0066e+003    0.0000    0.0000    0.0000   -0.0000    0.0000
                2.2829  -2.3093e-003   9.0041e-004   1.0201e-004  -5.8264e+005   5.9316e+004   2.0402e+003    0.0000    0.0000    0.0000   -0.0000    0.0000
                2.3078  -2.3228e-003   9.0571e-004   6.5936e-005  -5.8603e+005   5.9676e+004   1.3187e+003    0.0000    0.0000    0.0000   -0.0000    0.0000

               lamina:  3     
              matName:  (blade-shell)
                     s           e11           e22           e12           s11           s22           s12   s11_fcT   s11_fcC   s22_fcT   s22_fcC   s12_fcS
                   (m)         (m/m)         (m/m)         (rad)          (Pa)          (Pa)          (Pa)       (-)       (-)       (-)       (-)       (-)
                0.0000  -1.1402e-003   4.4450e-004   7.5612e-004  -3.1995e+007  -1.7601e+005   5.2928e+006    0.0000    0.1502    0.0000    0.0000    0.0882
                0.3060  -1.2953e-003   5.0500e-004   7.4474e-004  -3.6349e+007  -1.9992e+005   5.2132e+006    0.0000    0.1707    0.0000    0.0000    0.0869
                0.6593  -1.4743e-003   5.7479e-004   6.2720e-004  -4.1373e+007  -2.2750e+005   4.3904e+006    0.0000    0.1942    0.0000    0.0000    0.0732
                0.9865  -1.6403e-003   6.3948e-004   5.7205e-004  -4.6029e+007  -2.5306e+005   4.0044e+006    0.0000    0.2161    0.0000    0.0000    0.0667
                1.2843  -1.7913e-003   6.9836e-004   4.9970e-004  -5.0267e+007  -2.7633e+005   3.4979e+006    0.0000    0.2360    0.0000    0.0000    0.0583
                1.5489  -1.9257e-003   7.5076e-004   4.2433e-004  -5.4038e+007  -2.9702e+005   2.9703e+006    0.0000    0.2537    0.0000    0.0000    0.0495
                1.7774  -2.0419e-003   7.9605e-004   3.4880e-004  -5.7298e+007  -3.1491e+005   2.4416e+006    0.0000    0.2690    0.0000    0.0000    0.0407
                1.9676  -2.1385e-003   8.3374e-004   2.7610e-004  -6.0011e+007  -3.2981e+005   1.9327e+006    0.0000    0.2817    0.0000    0.0000    0.0322
                2.1178  -2.2148e-003   8.6348e-004   2.0910e-004  -6.2151e+007  -3.4156e+005   1.4637e+006    0.0000    0.2918    0.0000    0.0000    0.0244
                2.2267  -2.2702e-003   8.8509e-004   1.5033e-004  -6.3707e+007  -3.5009e+005   1.0523e+006    0.0000    0.2991    0.0000    0.0000    0.0175
                2.2829  -2.2943e-003   8.9445e-004   1.0201e-004  -6.4383e+007  -3.5430e+005   7.1408e+005    0.0000    0.3023    0.0000    0.0000    0.0119
                2.3078  -2.2944e-003   8.9441e-004   6.5936e-005  -6.4384e+007  -3.5502e+005   4.6155e+005    0.0000    0.3023    0.0000    0.0000    0.0077

  Bottom:  panel  nNode   nLam     xc_St    xc_End         b         t         E_eff         G_eff      nu_eff     density  buckleCrit
            (-)    (-)    (-)       (-)       (-)       (m)       (m)          (Pa)          (Pa)         (-)    (kg/m^3)         (-)
              1     12      3    0.0000    0.2837    2.9010    0.0700   4.2251e+009   1.0171e+009      0.3899    435.7143      0.0017
              2      6      5    0.2837    0.4763    1.4831    0.1460   4.1054e+010   3.2739e+009      0.2887   1915.1820      0.0000
              3      2      3    0.4763    0.4772    0.0076    0.0700   4.2251e+009   1.0171e+009      0.3899    435.7143      0.0000
              4      7      3    0.4772    0.7119    1.9689    0.0700   4.2251e+009   1.0171e+009      0.3899    435.7143      0.1575
              5     12      3    0.7119    1.0000    2.2845    0.0700   4.2251e+009   1.0171e+009      0.3899    435.7143      0.1348

            panel:  1     
           lam_num    nPlies        tPly      fibAng     matID  matName
               (-)       (-)         (m)       (deg)       (-)  (-)
                 1         1    0.005000      0.0000         2  (blade-shell)
                 2         1    0.060000      0.0000         5  (LEP-core)
                 3         1    0.005000      0.0000         2  (blade-shell)

               lamina:  1     
              matName:  (blade-shell)
                     s           e11           e22           e12           s11           s22           s12   s11_fcT   s11_fcC   s22_fcT   s22_fcC   s12_fcS
                   (m)         (m/m)         (m/m)         (rad)          (Pa)          (Pa)          (Pa)       (-)       (-)       (-)       (-)       (-)
                0.0000   1.5613e-003  -6.0885e-004   1.3052e-004   4.3811e+007   2.3831e+005   9.1365e+005    0.3042   -0.0000    0.0000   -0.0000    0.0152
                0.1817   1.5363e-003  -5.9913e-004   1.7149e-004   4.3112e+007   2.3454e+005   1.2004e+006    0.2994   -0.0000    0.0000   -0.0000    0.0200
                0.3963   1.4879e-003  -5.8024e-004   2.1878e-004   4.1753e+007   2.2725e+005   1.5315e+006    0.2900   -0.0000    0.0000   -0.0000    0.0255
                0.6138   1.4197e-003  -5.5361e-004   2.6489e-004   3.9838e+007   2.1698e+005   1.8542e+006    0.2767   -0.0000    0.0000   -0.0000    0.0309
                0.8497   1.3316e-003  -5.1925e-004   3.1224e-004   3.7366e+007   2.0363e+005   2.1857e+006    0.2595   -0.0000    0.0000   -0.0000    0.0364
                1.1086   1.2243e-003  -4.7740e-004   3.6056e-004   3.4355e+007   1.8733e+005   2.5239e+006    0.2386   -0.0000    0.0000   -0.0000    0.0421
                1.3848   1.0996e-003  -4.2878e-004   4.0747e-004   3.0856e+007   1.6836e+005   2.8523e+006    0.2143   -0.0000    0.0000   -0.0000    0.0475
                1.6780   9.5912e-004  -3.7399e-004   4.5165e-004   2.6914e+007   1.4696e+005   3.1615e+006    0.1869   -0.0000    0.0000   -0.0000    0.0527
                1.9875   8.0451e-004  -3.1369e-004   4.9164e-004   2.2576e+007   1.2341e+005   3.4415e+006    0.1568   -0.0000    0.0000   -0.0000    0.0574
                2.3101   6.3819e-004  -2.4883e-004   5.2580e-004   1.7909e+007   9.8081e+004   3.6806e+006    0.1244   -0.0000    0.0000   -0.0000    0.0613
                2.6466   4.6241e-004  -1.8028e-004   5.5309e-004   1.2976e+007   7.1287e+004   3.8716e+006    0.0901   -0.0000    0.0000   -0.0000    0.0645
                2.9010   3.3063e-004  -1.2889e-004   5.6802e-004   9.2780e+006   5.1152e+004   3.9762e+006    0.0644   -0.0000    0.0000   -0.0000    0.0663

               lamina:  2     
              matName:  (LEP-core)
                     s           e11           e22           e12           s11           s22           s12   s11_fcT   s11_fcC   s22_fcT   s22_fcC   s12_fcS
                   (m)         (m/m)         (m/m)         (rad)          (Pa)          (Pa)          (Pa)       (-)       (-)       (-)       (-)       (-)
                0.0000   1.5583e-003  -6.0766e-004   1.3052e-004   3.9314e+005  -4.0051e+004   2.6104e+003    0.0000   -0.0000    0.0000    0.0000    0.0000
                0.1817   1.5334e-003  -5.9797e-004   1.7149e-004   3.8687e+005  -3.9412e+004   3.4299e+003    0.0000   -0.0000    0.0000    0.0000    0.0000
                0.3963   1.4853e-003  -5.7918e-004   2.1878e-004   3.7472e+005  -3.8172e+004   4.3756e+003    0.0000   -0.0000    0.0000    0.0000    0.0000
                0.6138   1.4173e-003  -5.5268e-004   2.6489e-004   3.5758e+005  -3.6423e+004   5.2977e+003    0.0000   -0.0000    0.0000    0.0000    0.0000
                0.8497   1.3295e-003  -5.1844e-004   3.1224e-004   3.3543e+005  -3.4166e+004   6.2448e+003    0.0000   -0.0000    0.0000    0.0000    0.0000
                1.1086   1.2225e-003  -4.7671e-004   3.6056e-004   3.0844e+005  -3.1414e+004   7.2111e+003    0.0000   -0.0000    0.0000    0.0000    0.0000
                1.3848   1.0982e-003  -4.2822e-004   4.0747e-004   2.7706e+005  -2.8217e+004   8.1494e+003    0.0000   -0.0000    0.0000    0.0000    0.0000
                1.6780   9.5804e-004  -3.7356e-004   4.5165e-004   2.4171e+005  -2.4614e+004   9.0329e+003    0.0000   -0.0000    0.0000    0.0000    0.0000
                1.9875   8.0378e-004  -3.1341e-004   4.9164e-004   2.0279e+005  -2.0649e+004   9.8328e+003    0.0000   -0.0000    0.0000    0.0000    0.0000
                2.3101   6.3786e-004  -2.4870e-004   5.2580e-004   1.6093e+005  -1.6383e+004   1.0516e+004    0.0000   -0.0000    0.0000    0.0000    0.0000
                2.6466   4.6321e-004  -1.8060e-004   5.5309e-004   1.1687e+005  -1.1895e+004   1.1062e+004    0.0000   -0.0000    0.0000    0.0000    0.0000
                2.9010   3.3459e-004  -1.3046e-004   5.6802e-004   8.4415e+004  -8.5958e+003   1.1360e+004    0.0000   -0.0000    0.0000    0.0000    0.0000

               lamina:  3     
              matName:  (blade-shell)
                     s           e11           e22           e12           s11           s22           s12   s11_fcT   s11_fcC   s22_fcT   s22_fcC   s12_fcS
                   (m)         (m/m)         (m/m)         (rad)          (Pa)          (Pa)          (Pa)       (-)       (-)       (-)       (-)       (-)
                0.0000   1.5224e-003  -5.9342e-004   1.3052e-004   4.2722e+007   2.3648e+005   9.1365e+005    0.2967   -0.0000    0.0000   -0.0000    0.0152
                0.1817   1.4986e-003  -5.8416e-004   1.7149e-004   4.2055e+007   2.3276e+005   1.2004e+006    0.2920   -0.0000    0.0000   -0.0000    0.0200
                0.3963   1.4533e-003  -5.6649e-004   2.1878e-004   4.0782e+007   2.2562e+005   1.5315e+006    0.2832   -0.0000    0.0000   -0.0000    0.0255
                0.6138   1.3892e-003  -5.4151e-004   2.6489e-004   3.8983e+007   2.1554e+005   1.8542e+006    0.2707   -0.0000    0.0000   -0.0000    0.0309
                0.8497   1.3050e-003  -5.0872e-004   3.1224e-004   3.6622e+007   2.0238e+005   2.1857e+006    0.2543   -0.0000    0.0000   -0.0000    0.0364
                1.1086   1.2017e-003  -4.6844e-004   3.6056e-004   3.3722e+007   1.8626e+005   2.5239e+006    0.2342   -0.0000    0.0000   -0.0000    0.0421
                1.3848   1.0813e-003  -4.2150e-004   4.0747e-004   3.0343e+007   1.6750e+005   2.8523e+006    0.2107   -0.0000    0.0000   -0.0000    0.0475
                1.6780   9.4506e-004  -3.6841e-004   4.5165e-004   2.6520e+007   1.4630e+005   3.1615e+006    0.1842   -0.0000    0.0000   -0.0000    0.0527
                1.9875   7.9509e-004  -3.0995e-004   4.9164e-004   2.2312e+007   1.2297e+005   3.4415e+006    0.1549   -0.0000    0.0000   -0.0000    0.0574
                2.3101   6.3391e-004  -2.4713e-004   5.2580e-004   1.7789e+007   9.7879e+004   3.6806e+006    0.1235   -0.0000    0.0000   -0.0000    0.0613
                2.6466   4.6328e-004  -1.8062e-004   5.5309e-004   1.3000e+007   7.1328e+004   3.8716e+006    0.0903   -0.0000    0.0000   -0.0000    0.0645
                2.9010   3.3492e-004  -1.3059e-004   5.6802e-004   9.3983e+006   5.1354e+004   3.9762e+006    0.0653   -0.0000    0.0000   -0.0000    0.0663

            panel:  2     
           lam_num    nPlies        tPly      fibAng     matID  matName
               (-)       (-)         (m)       (deg)       (-)  (-)
                 1         1    0.005000      0.0000         2  (blade-shell)
                 2         1    0.068000      0.0000         3  (spar-uni)
                 3         1    0.000002      0.0000         4  (spar-core)
                 4         1    0.068000      0.0000         3  (spar-uni)
                 5         1    0.005000      0.0000         2  (blade-shell)

               lamina:  1     
              matName:  (blade-shell)
                     s           e11           e22           e12           s11           s22           s12   s11_fcT   s11_fcC   s22_fcT   s22_fcC   s12_fcS
                   (m)         (m/m)         (m/m)         (rad)          (Pa)          (Pa)          (Pa)       (-)       (-)       (-)       (-)       (-)
                0.0000   3.2301e-004  -9.3061e-005   1.0553e-004   9.2642e+006   5.4999e+005   7.3874e+005    0.0643   -0.0000    0.0000   -0.0000    0.0123
                0.0902   2.6459e-004  -7.6009e-005   1.1806e-004   7.5900e+006   4.5387e+005   8.2643e+005    0.0527   -0.0000    0.0000   -0.0000    0.0138
                0.4581   7.1742e-005  -2.0197e-005   1.5031e-004   2.0605e+006   1.2934e+005   1.0522e+006    0.0143   -0.0000    0.0000   -0.0000    0.0175
                0.8451  -1.2798e-004   3.7666e-005   1.5236e-004  -3.6659e+006  -2.0586e+005   1.0665e+006    0.0000    0.0172    0.0000    0.0000    0.0178
                1.2528  -3.2410e-004   9.4390e-005   1.2048e-004  -9.2893e+006  -5.3639e+005   8.4334e+005    0.0000    0.0436    0.0000    0.0000    0.0141
                1.4831  -4.3145e-004   1.2545e-004   8.7514e-005  -1.2367e+007  -7.1716e+005   6.1260e+005    0.0000    0.0581    0.0000    0.0000    0.0102

               lamina:  2     
              matName:  (spar-uni)
                     s           e11           e22           e12           s11           s22           s12   s11_fcT   s11_fcC   s22_fcT   s22_fcC   s12_fcS
                   (m)         (m/m)         (m/m)         (rad)          (Pa)          (Pa)          (Pa)       (-)       (-)       (-)       (-)       (-)
                0.0000   3.3469e-004  -9.6615e-005   1.0553e-004   1.4045e+007  -4.1694e+004   3.1660e+005    0.0145   -0.0000    0.0000    0.0000    0.0106
                0.0902   2.8848e-004  -8.3275e-005   1.1806e-004   1.2106e+007  -3.5938e+004   3.5419e+005    0.0125   -0.0000    0.0000    0.0000    0.0118
                0.4581   1.0495e-004  -3.0295e-005   1.5031e-004   4.4042e+006  -1.3074e+004   4.5094e+005    0.0045   -0.0000    0.0000    0.0000    0.0150
                0.8451  -1.2478e-004   3.6692e-005   1.5236e-004  -5.2337e+006   2.5200e+004   4.5709e+005    0.0000    0.0075    0.0000   -0.0000    0.0152
                1.2528  -3.2039e-004   9.3263e-005   1.2048e-004  -1.3442e+007   5.1090e+004   3.6143e+005    0.0000    0.0191    0.0000   -0.0000    0.0120
                1.4831  -4.2742e-004   1.2423e-004   8.7514e-005  -1.7933e+007   6.5399e+004   2.6254e+005    0.0000    0.0255    0.0000   -0.0000    0.0088

               lamina:  3     
              matName:  (spar-core)
                     s           e11           e22           e12           s11           s22           s12   s11_fcT   s11_fcC   s22_fcT   s22_fcC   s12_fcS
                   (m)         (m/m)         (m/m)         (rad)          (Pa)          (Pa)          (Pa)       (-)       (-)       (-)       (-)       (-)
                0.0000   3.3469e-004  -9.6615e-005   1.0553e-004   8.7346e+004   1.0839e+003   2.1107e+003    0.0000   -0.0000    0.0000   -0.0000    0.0000
                0.0902   2.8848e-004  -8.3275e-005   1.1806e-004   7.5286e+004   9.3422e+002   2.3612e+003    0.0000   -0.0000    0.0000   -0.0000    0.0000
                0.4581   1.0495e-004  -3.0296e-005   1.5031e-004   2.7389e+004   3.3987e+002   3.0062e+003    0.0000   -0.0000    0.0000   -0.0000    0.0000
                0.8451  -8.1219e-005   2.3445e-005   1.5236e-004  -2.1196e+004  -2.6302e+002   3.0473e+003    0.0000    0.0000    0.0000    0.0000    0.0000
                1.2528  -2.6996e-004   7.7928e-005   1.2048e-004  -7.0452e+004  -8.7423e+002   2.4096e+003    0.0000    0.0000    0.0000    0.0000    0.0000
                1.4831  -3.7259e-004   1.0755e-004   8.7514e-005  -9.7234e+004  -1.2066e+003   1.7503e+003    0.0000    0.0000    0.0000    0.0000    0.0000

               lamina:  4     
              matName:  (spar-uni)
                     s           e11           e22           e12           s11           s22           s12   s11_fcT   s11_fcC   s22_fcT   s22_fcC   s12_fcS
                   (m)         (m/m)         (m/m)         (rad)          (Pa)          (Pa)          (Pa)       (-)       (-)       (-)       (-)       (-)
                0.0000   3.4638e-004  -1.0017e-004   1.0553e-004   1.4535e+007  -4.5741e+004   3.1660e+005    0.0150   -0.0000    0.0000    0.0000    0.0106
                0.0902   3.1238e-004  -9.0542e-005   1.1806e-004   1.3108e+007  -4.4211e+004   3.5419e+005    0.0135   -0.0000    0.0000    0.0000    0.0118
                0.4581   1.3816e-004  -4.0394e-005   1.5031e-004   5.7958e+006  -2.4572e+004   4.5094e+005    0.0060   -0.0000    0.0000    0.0000    0.0150
                0.8451  -8.1217e-005   2.3445e-005   1.5236e-004  -3.4083e+006   1.0117e+004   4.5709e+005    0.0000    0.0049    0.0000   -0.0000    0.0152
                1.2528  -2.6996e-004   7.7927e-005   1.2048e-004  -1.1329e+007   3.3630e+004   3.6143e+005    0.0000    0.0161    0.0000   -0.0000    0.0120
                1.4831  -3.7258e-004   1.0755e-004   8.7514e-005  -1.5636e+007   4.6414e+004   2.6254e+005    0.0000    0.0223    0.0000   -0.0000    0.0088

               lamina:  5     
              matName:  (blade-shell)
                     s           e11           e22           e12           s11           s22           s12   s11_fcT   s11_fcC   s22_fcT   s22_fcC   s12_fcS
                   (m)         (m/m)         (m/m)         (rad)          (Pa)          (Pa)          (Pa)       (-)       (-)       (-)       (-)       (-)
                0.0000   3.4724e-004  -1.0043e-004   1.0553e-004   9.9569e+006   5.8536e+005   7.3874e+005    0.0691   -0.0000    0.0000   -0.0000    0.0123
                0.0902   3.1414e-004  -9.1076e-005   1.1806e-004   9.0063e+006   5.2620e+005   8.2643e+005    0.0625   -0.0000    0.0000   -0.0000    0.0138
                0.4581   1.4060e-004  -4.1136e-005   1.5031e-004   4.0288e+006   2.2984e+005   1.0522e+006    0.0280   -0.0000    0.0000   -0.0000    0.0175
                0.8451  -3.7655e-005   1.0198e-005   1.5236e-004  -1.0840e+006  -7.4017e+004   1.0665e+006    0.0000    0.0051    0.0000    0.0000    0.0178
                1.2528  -2.1953e-004   6.2593e-005   1.2048e-004  -6.3003e+006  -3.8376e+005   8.4334e+005    0.0000    0.0296    0.0000    0.0000    0.0141
                1.4831  -3.1775e-004   9.0878e-005   8.7514e-005  -9.1175e+006  -5.5120e+005   6.1260e+005    0.0000    0.0428    0.0000    0.0000    0.0102

            panel:  3     
           lam_num    nPlies        tPly      fibAng     matID  matName
               (-)       (-)         (m)       (deg)       (-)  (-)
                 1         1    0.005000      0.0000         2  (blade-shell)
                 2         1    0.060000      0.0000         6  (TEP-core)
                 3         1    0.005000      0.0000         2  (blade-shell)

               lamina:  1     
              matName:  (blade-shell)
                     s           e11           e22           e12           s11           s22           s12   s11_fcT   s11_fcC   s22_fcT   s22_fcC   s12_fcS
                   (m)         (m/m)         (m/m)         (rad)          (Pa)          (Pa)          (Pa)       (-)       (-)       (-)       (-)       (-)
                0.0000  -3.9323e-004   1.5339e-004   5.8752e-004  -1.1034e+007  -5.9424e+004   4.1127e+006    0.0000    0.0518    0.0000    0.0000    0.0685
                0.0076  -3.9660e-004   1.5470e-004   5.8709e-004  -1.1129e+007  -5.9944e+004   4.1097e+006    0.0000    0.0522    0.0000    0.0000    0.0685

               lamina:  2     
              matName:  (TEP-core)
                     s           e11           e22           e12           s11           s22           s12   s11_fcT   s11_fcC   s22_fcT   s22_fcC   s12_fcS
                   (m)         (m/m)         (m/m)         (rad)          (Pa)          (Pa)          (Pa)       (-)       (-)       (-)       (-)       (-)
                0.0000  -3.9168e-004   1.5277e-004   5.8752e-004  -9.8813e+004   1.0076e+004   1.1750e+004    0.0000    0.0000    0.0000   -0.0000    0.0000
                0.0076  -3.9505e-004   1.5409e-004   5.8709e-004  -9.9664e+004   1.0163e+004   1.1742e+004    0.0000    0.0000    0.0000   -0.0000    0.0000

               lamina:  3     
              matName:  (blade-shell)
                     s           e11           e22           e12           s11           s22           s12   s11_fcT   s11_fcC   s22_fcT   s22_fcC   s12_fcS
                   (m)         (m/m)         (m/m)         (rad)          (Pa)          (Pa)          (Pa)       (-)       (-)       (-)       (-)       (-)
                0.0000  -3.7307e-004   1.4539e-004   5.8752e-004  -1.0469e+007  -5.8475e+004   4.1127e+006    0.0000    0.0492    0.0000    0.0000    0.0685
                0.0076  -3.7645e-004   1.4670e-004   5.8709e-004  -1.0564e+007  -5.8995e+004   4.1097e+006    0.0000    0.0496    0.0000    0.0000    0.0685

            panel:  4     
           lam_num    nPlies        tPly      fibAng     matID  matName
               (-)       (-)         (m)       (deg)       (-)  (-)
                 1         1    0.005000      0.0000         2  (blade-shell)
                 2         1    0.060000      0.0000         6  (TEP-core)
                 3         1    0.005000      0.0000         2  (blade-shell)

               lamina:  1     
              matName:  (blade-shell)
                     s           e11           e22           e12           s11           s22           s12   s11_fcT   s11_fcC   s22_fcT   s22_fcC   s12_fcS
                   (m)         (m/m)         (m/m)         (rad)          (Pa)          (Pa)          (Pa)       (-)       (-)       (-)       (-)       (-)
                0.0000  -3.9660e-004   1.5470e-004   7.1062e-004  -1.1129e+007  -5.9944e+004   4.9743e+006    0.0000    0.0522    0.0000    0.0000    0.0829
                0.1856  -4.7992e-004   1.8719e-004   7.1019e-004  -1.3467e+007  -7.2718e+004   4.9713e+006    0.0000    0.0632    0.0000    0.0000    0.0829
                0.6208  -6.6910e-004   2.6095e-004   7.1019e-004  -1.8775e+007  -1.0181e+005   4.9713e+006    0.0000    0.0881    0.0000    0.0000    0.0829
                1.0569  -8.5520e-004   3.3351e-004   6.9849e-004  -2.3998e+007  -1.3046e+005   4.8894e+006    0.0000    0.1127    0.0000    0.0000    0.0815
                1.4848  -1.0370e-003   4.0438e-004   6.6234e-004  -2.9099e+007  -1.5847e+005   4.6364e+006    0.0000    0.1366    0.0000    0.0000    0.0773
                1.8969  -1.2130e-003   4.7300e-004   6.1407e-004  -3.4038e+007  -1.8561e+005   4.2985e+006    0.0000    0.1598    0.0000    0.0000    0.0716
                1.9689  -1.2439e-003   4.8505e-004   5.5509e-004  -3.4905e+007  -1.9041e+005   3.8857e+006    0.0000    0.1639    0.0000    0.0000    0.0648

               lamina:  2     
              matName:  (TEP-core)
                     s           e11           e22           e12           s11           s22           s12   s11_fcT   s11_fcC   s22_fcT   s22_fcC   s12_fcS
                   (m)         (m/m)         (m/m)         (rad)          (Pa)          (Pa)          (Pa)       (-)       (-)       (-)       (-)       (-)
                0.0000  -3.9505e-004   1.5409e-004   7.1062e-004  -9.9664e+004   1.0163e+004   1.4212e+004    0.0000    0.0000    0.0000   -0.0000    0.0000
                0.1856  -4.7828e-004   1.8654e-004   7.1019e-004  -1.2066e+005   1.2301e+004   1.4204e+004    0.0000    0.0000    0.0000   -0.0000    0.0000
                0.6208  -6.6739e-004   2.6027e-004   7.1019e-004  -1.6837e+005   1.7158e+004   1.4204e+004    0.0000    0.0000    0.0000   -0.0000    0.0000
                1.0569  -8.5346e-004   3.3282e-004   6.9849e-004  -2.1532e+005   2.1937e+004   1.3970e+004    0.0000    0.0000    0.0000   -0.0000    0.0000
                1.4848  -1.0353e-003   4.0370e-004   6.6234e-004  -2.6119e+005   2.6605e+004   1.3247e+004    0.0000    0.0000    0.0000   -0.0000    0.0000
                1.8969  -1.2113e-003   4.7232e-004   6.1407e-004  -3.0560e+005   3.1125e+004   1.2281e+004    0.0000    0.0000    0.0000   -0.0000    0.0000
                1.9689  -1.2422e-003   4.8439e-004   5.5509e-004  -3.1341e+005   3.1919e+004   1.1102e+004    0.0000    0.0000    0.0000   -0.0000    0.0000

               lamina:  3     
              matName:  (blade-shell)
                     s           e11           e22           e12           s11           s22           s12   s11_fcT   s11_fcC   s22_fcT   s22_fcC   s12_fcS
                   (m)         (m/m)         (m/m)         (rad)          (Pa)          (Pa)          (Pa)       (-)       (-)       (-)       (-)       (-)
                0.0000  -3.7645e-004   1.4670e-004   7.1062e-004  -1.0564e+007  -5.8995e+004   4.9743e+006    0.0000    0.0496    0.0000    0.0000    0.0829
                0.1856  -4.5867e-004   1.7876e-004   7.1019e-004  -1.2872e+007  -7.1718e+004   4.9713e+006    0.0000    0.0604    0.0000    0.0000    0.0829
                0.6208  -6.4695e-004   2.5216e-004   7.1019e-004  -1.8155e+007  -1.0077e+005   4.9713e+006    0.0000    0.0852    0.0000    0.0000    0.0829
                1.0569  -8.3254e-004   3.2451e-004   6.9849e-004  -2.3363e+007  -1.2939e+005   4.8894e+006    0.0000    0.1097    0.0000    0.0000    0.0815
                1.4848  -1.0144e-003   3.9542e-004   6.6234e-004  -2.8467e+007  -1.5741e+005   4.6364e+006    0.0000    0.1336    0.0000    0.0000    0.0773
                1.8969  -1.1907e-003   4.6415e-004   6.1407e-004  -3.3414e+007  -1.8456e+005   4.2985e+006    0.0000    0.1569    0.0000    0.0000    0.0716
                1.9689  -1.2224e-003   4.7650e-004   5.5509e-004  -3.4302e+007  -1.8940e+005   3.8857e+006    0.0000    0.1610    0.0000    0.0000    0.0648

            panel:  5     
           lam_num    nPlies        tPly      fibAng     matID  matName
               (-)       (-)         (m)       (deg)       (-)  (-)
                 1         1    0.005000      0.0000         2  (blade-shell)
                 2         1    0.060000      0.0000         6  (TEP-core)
                 3         1    0.005000      0.0000         2  (blade-shell)

               lamina:  1     
              matName:  (blade-shell)
                     s           e11           e22           e12           s11           s22           s12   s11_fcT   s11_fcC   s22_fcT   s22_fcC   s12_fcS
                   (m)         (m/m)         (m/m)         (rad)          (Pa)          (Pa)          (Pa)       (-)       (-)       (-)       (-)       (-)
                0.0000  -1.2439e-003   4.8505e-004   4.8742e-004  -3.4905e+007  -1.9041e+005   3.4119e+006    0.0000    0.1639    0.0000    0.0000    0.0569
                0.3178  -1.3818e-003   5.3879e-004   4.7449e-004  -3.8774e+007  -2.1169e+005   3.3214e+006    0.0000    0.1820    0.0000    0.0000    0.0554
                0.6792  -1.5417e-003   6.0114e-004   5.5065e-004  -4.3262e+007  -2.3641e+005   3.8546e+006    0.0000    0.2031    0.0000    0.0000    0.0642
                1.0083  -1.6913e-003   6.5946e-004   4.8962e-004  -4.7460e+007  -2.5959e+005   3.4274e+006    0.0000    0.2228    0.0000    0.0000    0.0571
                1.3021  -1.8291e-003   7.1316e-004   4.1223e-004  -5.1326e+007  -2.8097e+005   2.8856e+006    0.0000    0.2410    0.0000    0.0000    0.0481
                1.5599  -1.9531e-003   7.6152e-004   3.3419e-004  -5.4807e+007  -3.0025e+005   2.3393e+006    0.0000    0.2573    0.0000    0.0000    0.0390
                1.7811  -2.0618e-003   8.0386e-004   2.5825e-004  -5.7856e+007  -3.1718e+005   1.8077e+006    0.0000    0.2716    0.0000    0.0000    0.0301
                1.9652  -2.1535e-003   8.3960e-004   1.8658e-004  -6.0430e+007  -3.3150e+005   1.3061e+006    0.0000    0.2837    0.0000    0.0000    0.0218
                2.1118  -2.2267e-003   8.6815e-004   1.2121e-004  -6.2485e+007  -3.4299e+005   8.4849e+005    0.0000    0.2934    0.0000    0.0000    0.0141
                2.2192  -2.2805e-003   8.8912e-004   6.4040e-005  -6.3995e+007  -3.5144e+005   4.4828e+005    0.0000    0.3004    0.0000    0.0000    0.0075
                2.2737  -2.3142e-003   9.0230e-004   1.6715e-005  -6.4941e+007  -3.5602e+005   1.1701e+005    0.0000    0.3049    0.0000    0.0000    0.0020
                2.2845  -2.3253e-003   9.0672e-004   1.9032e-005  -6.5252e+007  -3.5640e+005   1.3323e+005    0.0000    0.3063    0.0000    0.0000    0.0022

               lamina:  2     
              matName:  (TEP-core)
                     s           e11           e22           e12           s11           s22           s12   s11_fcT   s11_fcC   s22_fcT   s22_fcC   s12_fcS
                   (m)         (m/m)         (m/m)         (rad)          (Pa)          (Pa)          (Pa)       (-)       (-)       (-)       (-)       (-)
                0.0000  -1.2422e-003   4.8439e-004   4.8742e-004  -3.1341e+005   3.1919e+004   9.7484e+003    0.0000    0.0000    0.0000   -0.0000    0.0000
                0.3178  -1.3801e-003   5.3815e-004   4.7449e-004  -3.4820e+005   3.5460e+004   9.4898e+003    0.0000    0.0000    0.0000   -0.0000    0.0000
                0.6792  -1.5402e-003   6.0055e-004   5.5065e-004  -3.8858e+005   3.9568e+004   1.1013e+004    0.0000    0.0000    0.0000   -0.0000    0.0000
                1.0083  -1.6900e-003   6.5894e-004   4.8962e-004  -4.2637e+005   4.3412e+004   9.7925e+003    0.0000    0.0000    0.0000   -0.0000    0.0000
                1.3021  -1.8280e-003   7.1272e-004   4.1223e-004  -4.6118e+005   4.6953e+004   8.2446e+003    0.0000    0.0000    0.0000   -0.0000    0.0000
                1.5599  -1.9522e-003   7.6116e-004   3.3419e-004  -4.9254e+005   5.0141e+004   6.6838e+003    0.0000    0.0000    0.0000   -0.0000    0.0000
                1.7811  -2.0611e-003   8.0361e-004   2.5825e-004  -5.2001e+005   5.2934e+004   5.1650e+003    0.0000    0.0000    0.0000   -0.0000    0.0000
                1.9652  -2.1531e-003   8.3945e-004   1.8658e-004  -5.4321e+005   5.5293e+004   3.7316e+003    0.0000    0.0000    0.0000   -0.0000    0.0000
                2.1118  -2.2266e-003   8.6811e-004   1.2121e-004  -5.6177e+005   5.7178e+004   2.4243e+003    0.0000    0.0000    0.0000   -0.0000    0.0000
                2.2192  -2.2820e-003   8.8971e-004   6.4040e-005  -5.7574e+005   5.8601e+004   1.2808e+003    0.0000    0.0000    0.0000   -0.0000    0.0000
                2.2737  -2.3135e-003   9.0201e-004   1.6715e-005  -5.8369e+005   5.9417e+004   3.3430e+002    0.0000    0.0000    0.0000   -0.0000    0.0000
                2.2845  -2.3229e-003   9.0573e-004   1.9032e-005  -5.8604e+005   5.9678e+004   3.8065e+002    0.0000    0.0000    0.0000   -0.0000    0.0000

               lamina:  3     
              matName:  (blade-shell)
                     s           e11           e22           e12           s11           s22           s12   s11_fcT   s11_fcC   s22_fcT   s22_fcC   s12_fcS
                   (m)         (m/m)         (m/m)         (rad)          (Pa)          (Pa)          (Pa)       (-)       (-)       (-)       (-)       (-)
                0.0000  -1.2224e-003   4.7650e-004   4.8742e-004  -3.4302e+007  -1.8940e+005   3.4119e+006    0.0000    0.1610    0.0000    0.0000    0.0569
                0.3178  -1.3609e-003   5.3051e-004   4.7449e-004  -3.8189e+007  -2.1070e+005   3.3214e+006    0.0000    0.1793    0.0000    0.0000    0.0554
                0.6792  -1.5223e-003   5.9345e-004   5.5065e-004  -4.2719e+007  -2.3550e+005   3.8546e+006    0.0000    0.2006    0.0000    0.0000    0.0642
                1.0083  -1.6742e-003   6.5266e-004   4.8962e-004  -4.6980e+007  -2.5879e+005   3.4274e+006    0.0000    0.2206    0.0000    0.0000    0.0571
                1.3021  -1.8146e-003   7.0742e-004   4.1223e-004  -5.0921e+007  -2.8029e+005   2.8856e+006    0.0000    0.2391    0.0000    0.0000    0.0481
                1.5599  -1.9415e-003   7.5692e-004   3.3419e-004  -5.4483e+007  -2.9971e+005   2.3393e+006    0.0000    0.2558    0.0000    0.0000    0.0390
                1.7811  -2.0534e-003   8.0052e-004   2.5825e-004  -5.7621e+007  -3.1678e+005   1.8077e+006    0.0000    0.2705    0.0000    0.0000    0.0301
                1.9652  -2.1484e-003   8.3760e-004   1.8658e-004  -6.0289e+007  -3.3126e+005   1.3061e+006    0.0000    0.2830    0.0000    0.0000    0.0218
                2.1118  -2.2253e-003   8.6759e-004   1.2121e-004  -6.2446e+007  -3.4293e+005   8.4849e+005    0.0000    0.2932    0.0000    0.0000    0.0141
                2.2192  -2.2821e-003   8.8976e-004   6.4040e-005  -6.4041e+007  -3.5152e+005   4.4828e+005    0.0000    0.3007    0.0000    0.0000    0.0075
                2.2737  -2.3048e-003   8.9856e-004   1.6715e-005  -6.4677e+007  -3.5557e+005   1.1701e+005    0.0000    0.3036    0.0000    0.0000    0.0020
                2.2845  -2.2929e-003   8.9383e-004   1.9032e-005  -6.4342e+007  -3.5487e+005   1.3323e+005    0.0000    0.3021    0.0000    0.0000    0.0022

     Web:  panel  nNode   nLam     xc_St    xc_End         b         t         E_eff         G_eff      nu_eff     density  buckleCrit
            (-)    (-)    (-)       (-)       (-)       (m)       (m)          (Pa)          (Pa)         (-)    (kg/m^3)         (-)
              1     10      3    0.2837    0.2837    2.9366    0.0830   7.6445e+008   4.5301e+008      0.4420    257.1084      0.0010
              2     10      3    0.4772    0.4772    2.4426    0.0830   7.6445e+008   4.5301e+008      0.4420    257.1084      0.0008
              3     10      3    0.7119    0.7119    1.1064    0.0830   7.6445e+008   4.5301e+008      0.4420    257.1084      0.0001

            panel:  1     
           lam_num    nPlies        tPly      fibAng     matID  matName
               (-)       (-)         (m)       (deg)       (-)  (-)
                 1         1    0.001500      0.0000         7  (web-shell)
                 2         1    0.080000      0.0000         8  (web-core)
                 3         1    0.001500      0.0000         7  (web-shell)

               lamina:  1     
              matName:  (web-shell)
                     s           e11           e22           e12           s11           s22           s12   s11_fcT   s11_fcC   s22_fcT   s22_fcC   s12_fcS
                   (m)         (m/m)         (m/m)         (rad)          (Pa)          (Pa)          (Pa)       (-)       (-)       (-)       (-)       (-)
                0.0000   5.3443e-004  -2.3528e-004   1.8710e-004   7.7801e+006   5.9610e+005   2.2452e+006    0.0540   -0.0000    0.0000   -0.0000    0.0249
                0.3263   5.0918e-004  -2.2412e-004   1.9784e-004   7.4129e+006   5.6877e+005   2.3741e+006    0.0515   -0.0000    0.0000   -0.0000    0.0264
                0.6526   4.8393e-004  -2.1296e-004   2.0809e-004   7.0457e+006   5.4144e+005   2.4971e+006    0.0489   -0.0000    0.0000   -0.0000    0.0277
                0.9789   4.5867e-004  -2.0179e-004   2.1785e-004   6.6785e+006   5.1412e+005   2.6142e+006    0.0464   -0.0000    0.0000   -0.0000    0.0290
                1.3051   4.3342e-004  -1.9063e-004   2.2711e-004   6.3113e+006   4.8679e+005   2.7253e+006    0.0438   -0.0000    0.0000   -0.0000    0.0303
                1.6314   4.0817e-004  -1.7947e-004   2.3588e-004   5.9441e+006   4.5947e+005   2.8305e+006    0.0413   -0.0000    0.0000   -0.0000    0.0315
                1.9577   3.8292e-004  -1.6831e-004   2.4415e-004   5.5769e+006   4.3214e+005   2.9298e+006    0.0387   -0.0000    0.0000   -0.0000    0.0326
                2.2840   3.5766e-004  -1.5715e-004   2.5193e-004   5.2097e+006   4.0481e+005   3.0232e+006    0.0362   -0.0000    0.0000   -0.0000    0.0336
                2.6103   3.3241e-004  -1.4598e-004   2.5922e-004   4.8425e+006   3.7749e+005   3.1106e+006    0.0336   -0.0000    0.0000   -0.0000    0.0346
                2.9366   3.0716e-004  -1.3482e-004   2.6601e-004   4.4753e+006   3.5016e+005   3.1921e+006    0.0311   -0.0000    0.0000   -0.0000    0.0355

               lamina:  2     
              matName:  (web-core)
                     s           e11           e22           e12           s11           s22           s12   s11_fcT   s11_fcC   s22_fcT   s22_fcC   s12_fcS
                   (m)         (m/m)         (m/m)         (rad)          (Pa)          (Pa)          (Pa)       (-)       (-)       (-)       (-)       (-)
                0.0000   5.8917e-004  -2.6138e-004   1.8710e-004   1.4593e+005  -2.4180e+004   3.7420e+003    0.0000   -0.0000    0.0000    0.0000    0.0000
                0.3263   5.6392e-004  -2.5022e-004   1.9784e-004   1.3967e+005  -2.3156e+004   3.9569e+003    0.0000   -0.0000    0.0000    0.0000    0.0000
                0.6526   5.3866e-004  -2.3906e-004   2.0809e-004   1.3341e+005  -2.2131e+004   4.1619e+003    0.0000   -0.0000    0.0000    0.0000    0.0000
                0.9789   5.1341e-004  -2.2790e-004   2.1785e-004   1.2716e+005  -2.1106e+004   4.3570e+003    0.0000   -0.0000    0.0000    0.0000    0.0000
                1.3051   4.8816e-004  -2.1673e-004   2.2711e-004   1.2090e+005  -2.0081e+004   4.5422e+003    0.0000   -0.0000    0.0000    0.0000    0.0000
                1.6314   4.6291e-004  -2.0557e-004   2.3588e-004   1.1464e+005  -1.9057e+004   4.7176e+003    0.0000   -0.0000    0.0000    0.0000    0.0000
                1.9577   4.3766e-004  -1.9441e-004   2.4415e-004   1.0838e+005  -1.8032e+004   4.8830e+003    0.0000   -0.0000    0.0000    0.0000    0.0000
                2.2840   4.1240e-004  -1.8325e-004   2.5193e-004   1.0212e+005  -1.7007e+004   5.0386e+003    0.0000   -0.0000    0.0000    0.0000    0.0000
                2.6103   3.8715e-004  -1.7208e-004   2.5922e-004   9.5865e+004  -1.5983e+004   5.1844e+003    0.0000   -0.0000    0.0000    0.0000    0.0000
                2.9366   3.6190e-004  -1.6092e-004   2.6601e-004   8.9606e+004  -1.4958e+004   5.3202e+003    0.0000   -0.0000    0.0000    0.0000    0.0000

               lamina:  3     
              matName:  (web-shell)
                     s           e11           e22           e12           s11           s22           s12   s11_fcT   s11_fcC   s22_fcT   s22_fcC   s12_fcS
                   (m)         (m/m)         (m/m)         (rad)          (Pa)          (Pa)          (Pa)       (-)       (-)       (-)       (-)       (-)
                0.0000   5.9020e-004  -2.6187e-004   1.8710e-004   8.5729e+006   6.2022e+005   2.2452e+006    0.0595   -0.0000    0.0000   -0.0000    0.0249
                0.3263   5.6494e-004  -2.5071e-004   1.9784e-004   8.2057e+006   5.9290e+005   2.3741e+006    0.0570   -0.0000    0.0000   -0.0000    0.0264
                0.6526   5.3969e-004  -2.3955e-004   2.0809e-004   7.8385e+006   5.6557e+005   2.4971e+006    0.0544   -0.0000    0.0000   -0.0000    0.0277
                0.9789   5.1444e-004  -2.2838e-004   2.1785e-004   7.4713e+006   5.3825e+005   2.6142e+006    0.0519   -0.0000    0.0000   -0.0000    0.0290
                1.3051   4.8919e-004  -2.1722e-004   2.2711e-004   7.1041e+006   5.1092e+005   2.7253e+006    0.0493   -0.0000    0.0000   -0.0000    0.0303
                1.6314   4.6393e-004  -2.0606e-004   2.3588e-004   6.7369e+006   4.8359e+005   2.8305e+006    0.0468   -0.0000    0.0000   -0.0000    0.0315
                1.9577   4.3868e-004  -1.9490e-004   2.4415e-004   6.3697e+006   4.5627e+005   2.9298e+006    0.0442   -0.0000    0.0000   -0.0000    0.0326
                2.2840   4.1343e-004  -1.8374e-004   2.5193e-004   6.0025e+006   4.2894e+005   3.0232e+006    0.0417   -0.0000    0.0000   -0.0000    0.0336
                2.6103   3.8818e-004  -1.7257e-004   2.5922e-004   5.6353e+006   4.0161e+005   3.1106e+006    0.0391   -0.0000    0.0000   -0.0000    0.0346
                2.9366   3.6293e-004  -1.6141e-004   2.6601e-004   5.2681e+006   3.7429e+005   3.1921e+006    0.0366   -0.0000    0.0000   -0.0000    0.0355

            panel:  2     
           lam_num    nPlies        tPly      fibAng     matID  matName
               (-)       (-)         (m)       (deg)       (-)  (-)
                 1         1    0.001500      0.0000         7  (web-shell)
                 2         1    0.080000      0.0000         8  (web-core)
                 3         1    0.001500      0.0000         7  (web-shell)

               lamina:  1     
              matName:  (web-shell)
                     s           e11           e22           e12           s11           s22           s12   s11_fcT   s11_fcC   s22_fcT   s22_fcC   s12_fcS
                   (m)         (m/m)         (m/m)         (rad)          (Pa)          (Pa)          (Pa)       (-)       (-)       (-)       (-)       (-)
                0.0000  -2.2198e-004   9.9110e-005   2.7566e-004  -3.2186e+006  -2.2175e+005   3.3080e+006    0.0000    0.0151    0.0000    0.0000    0.0368
                0.2714  -2.4233e-004   1.0811e-004   2.7235e-004  -3.5145e+006  -2.4378e+005   3.2682e+006    0.0000    0.0165    0.0000    0.0000    0.0363
                0.5428  -2.6268e-004   1.1710e-004   2.6870e-004  -3.8105e+006  -2.6580e+005   3.2244e+006    0.0000    0.0179    0.0000    0.0000    0.0358
                0.8142  -2.8303e-004   1.2610e-004   2.6473e-004  -4.1064e+006  -2.8782e+005   3.1767e+006    0.0000    0.0193    0.0000    0.0000    0.0353
                1.0856  -3.0339e-004   1.3509e-004   2.6042e-004  -4.4023e+006  -3.0985e+005   3.1250e+006    0.0000    0.0207    0.0000    0.0000    0.0347
                1.3570  -3.2374e-004   1.4409e-004   2.5578e-004  -4.6983e+006  -3.3187e+005   3.0693e+006    0.0000    0.0221    0.0000    0.0000    0.0341
                1.6284  -3.4409e-004   1.5309e-004   2.5081e-004  -4.9942e+006  -3.5389e+005   3.0097e+006    0.0000    0.0234    0.0000    0.0000    0.0334
                1.8998  -3.6444e-004   1.6208e-004   2.4551e-004  -5.2902e+006  -3.7592e+005   2.9461e+006    0.0000    0.0248    0.0000    0.0000    0.0327
                2.1712  -3.8479e-004   1.7108e-004   2.3987e-004  -5.5861e+006  -3.9794e+005   2.8785e+006    0.0000    0.0262    0.0000    0.0000    0.0320
                2.4426  -4.0515e-004   1.8008e-004   2.3391e-004  -5.8820e+006  -4.1996e+005   2.8069e+006    0.0000    0.0276    0.0000    0.0000    0.0312

               lamina:  2     
              matName:  (web-core)
                     s           e11           e22           e12           s11           s22           s12   s11_fcT   s11_fcC   s22_fcT   s22_fcC   s12_fcS
                   (m)         (m/m)         (m/m)         (rad)          (Pa)          (Pa)          (Pa)       (-)       (-)       (-)       (-)       (-)
                0.0000  -2.2095e-004   9.8620e-005   2.7566e-004  -5.4676e+004   9.2384e+003   5.5133e+003    0.0000    0.0000    0.0000   -0.0000    0.0000
                0.2714  -2.4130e-004   1.0762e-004   2.7235e-004  -5.9720e+004   1.0064e+004   5.4470e+003    0.0000    0.0000    0.0000   -0.0000    0.0000
                0.5428  -2.6166e-004   1.1661e-004   2.6870e-004  -6.4763e+004   1.0890e+004   5.3741e+003    0.0000    0.0000    0.0000   -0.0000    0.0000
                0.8142  -2.8201e-004   1.2561e-004   2.6473e-004  -6.9807e+004   1.1716e+004   5.2945e+003    0.0000    0.0000    0.0000   -0.0000    0.0000
                1.0856  -3.0236e-004   1.3460e-004   2.6042e-004  -7.4851e+004   1.2542e+004   5.2084e+003    0.0000    0.0000    0.0000   -0.0000    0.0000
                1.3570  -3.2271e-004   1.4360e-004   2.5578e-004  -7.9895e+004   1.3368e+004   5.1156e+003    0.0000    0.0000    0.0000   -0.0000    0.0000
                1.6284  -3.4306e-004   1.5260e-004   2.5081e-004  -8.4938e+004   1.4194e+004   5.0162e+003    0.0000    0.0000    0.0000   -0.0000    0.0000
                1.8998  -3.6342e-004   1.6159e-004   2.4551e-004  -8.9982e+004   1.5020e+004   4.9101e+003    0.0000    0.0000    0.0000   -0.0000    0.0000
                2.1712  -3.8377e-004   1.7059e-004   2.3987e-004  -9.5026e+004   1.5845e+004   4.7975e+003    0.0000    0.0000    0.0000   -0.0000    0.0000
                2.4426  -4.0412e-004   1.7959e-004   2.3391e-004  -1.0007e+005   1.6671e+004   4.6782e+003    0.0000    0.0000    0.0000   -0.0000    0.0000

               lamina:  3     
              matName:  (web-shell)
                     s           e11           e22           e12           s11           s22           s12   s11_fcT   s11_fcC   s22_fcT   s22_fcC   s12_fcS
                   (m)         (m/m)         (m/m)         (rad)          (Pa)          (Pa)          (Pa)       (-)       (-)       (-)       (-)       (-)
                0.0000  -1.6617e-004   7.2501e-005   2.7566e-004  -2.4252e+006  -1.9761e+005   3.3080e+006    0.0000    0.0114    0.0000    0.0000    0.0368
                0.2714  -1.8653e-004   8.1497e-005   2.7235e-004  -2.7212e+006  -2.1963e+005   3.2682e+006    0.0000    0.0128    0.0000    0.0000    0.0363
                0.5428  -2.0688e-004   9.0493e-005   2.6870e-004  -3.0171e+006  -2.4166e+005   3.2244e+006    0.0000    0.0142    0.0000    0.0000    0.0358
                0.8142  -2.2723e-004   9.9489e-005   2.6473e-004  -3.3131e+006  -2.6368e+005   3.1767e+006    0.0000    0.0156    0.0000    0.0000    0.0353
                1.0856  -2.4758e-004   1.0849e-004   2.6042e-004  -3.6090e+006  -2.8570e+005   3.1250e+006    0.0000    0.0169    0.0000    0.0000    0.0347
                1.3570  -2.6793e-004   1.1748e-004   2.5578e-004  -3.9049e+006  -3.0773e+005   3.0693e+006    0.0000    0.0183    0.0000    0.0000    0.0341
                1.6284  -2.8829e-004   1.2648e-004   2.5081e-004  -4.2009e+006  -3.2975e+005   3.0097e+006    0.0000    0.0197    0.0000    0.0000    0.0334
                1.8998  -3.0864e-004   1.3547e-004   2.4551e-004  -4.4968e+006  -3.5177e+005   2.9461e+006    0.0000    0.0211    0.0000    0.0000    0.0327
                2.1712  -3.2899e-004   1.4447e-004   2.3987e-004  -4.7928e+006  -3.7380e+005   2.8785e+006    0.0000    0.0225    0.0000    0.0000    0.0320
                2.4426  -3.4934e-004   1.5347e-004   2.3391e-004  -5.0887e+006  -3.9582e+005   2.8069e+006    0.0000    0.0239    0.0000    0.0000    0.0312

            panel:  3     
           lam_num    nPlies        tPly      fibAng     matID  matName
               (-)       (-)         (m)       (deg)       (-)  (-)
                 1         1    0.001500      0.0000         7  (web-shell)
                 2         1    0.080000      0.0000         8  (web-core)
                 3         1    0.001500      0.0000         7  (web-shell)

               lamina:  1     
              matName:  (web-shell)
                     s           e11           e22           e12           s11           s22           s12   s11_fcT   s11_fcC   s22_fcT   s22_fcC   s12_fcS
                   (m)         (m/m)         (m/m)         (rad)          (Pa)          (Pa)          (Pa)       (-)       (-)       (-)       (-)       (-)
                0.0000  -1.1687e-003   5.1758e-004   2.2258e-004  -1.6985e+007  -1.2462e+006   2.6710e+006    0.0000    0.0797    0.0000    0.0000    0.0297
                0.1229  -1.1778e-003   5.2162e-004   2.1415e-004  -1.7118e+007  -1.2561e+006   2.5697e+006    0.0000    0.0804    0.0000    0.0000    0.0286
                0.2459  -1.1870e-003   5.2567e-004   2.0564e-004  -1.7251e+007  -1.2660e+006   2.4677e+006    0.0000    0.0810    0.0000    0.0000    0.0274
                0.3688  -1.1961e-003   5.2972e-004   1.9707e-004  -1.7384e+007  -1.2759e+006   2.3648e+006    0.0000    0.0816    0.0000    0.0000    0.0263
                0.4917  -1.2053e-003   5.3377e-004   1.8843e-004  -1.7517e+007  -1.2858e+006   2.2611e+006    0.0000    0.0822    0.0000    0.0000    0.0251
                0.6147  -1.2145e-003   5.3782e-004   1.7972e-004  -1.7650e+007  -1.2957e+006   2.1566e+006    0.0000    0.0829    0.0000    0.0000    0.0240
                0.7376  -1.2236e-003   5.4186e-004   1.7095e-004  -1.7783e+007  -1.3056e+006   2.0513e+006    0.0000    0.0835    0.0000    0.0000    0.0228
                0.8605  -1.2328e-003   5.4591e-004   1.6210e-004  -1.7917e+007  -1.3156e+006   1.9452e+006    0.0000    0.0841    0.0000    0.0000    0.0216
                0.9835  -1.2419e-003   5.4996e-004   1.5319e-004  -1.8050e+007  -1.3255e+006   1.8383e+006    0.0000    0.0847    0.0000    0.0000    0.0204
                1.1064  -1.2511e-003   5.5401e-004   1.4422e-004  -1.8183e+007  -1.3354e+006   1.7306e+006    0.0000    0.0854    0.0000    0.0000    0.0192

               lamina:  2     
              matName:  (web-core)
                     s           e11           e22           e12           s11           s22           s12   s11_fcT   s11_fcC   s22_fcT   s22_fcC   s12_fcS
                   (m)         (m/m)         (m/m)         (rad)          (Pa)          (Pa)          (Pa)       (-)       (-)       (-)       (-)       (-)
                0.0000  -1.1676e-003   5.1709e-004   2.2258e-004  -2.8929e+005   4.7655e+004   4.4517e+003    0.0000    0.0000    0.0000   -0.0000    0.0000
                0.1229  -1.1768e-003   5.2113e-004   2.1415e-004  -2.9156e+005   4.8027e+004   4.2829e+003    0.0000    0.0000    0.0000   -0.0000    0.0000
                0.2459  -1.1860e-003   5.2518e-004   2.0564e-004  -2.9383e+005   4.8398e+004   4.1128e+003    0.0000    0.0000    0.0000   -0.0000    0.0000
                0.3688  -1.1951e-003   5.2923e-004   1.9707e-004  -2.9610e+005   4.8770e+004   3.9414e+003    0.0000    0.0000    0.0000   -0.0000    0.0000
                0.4917  -1.2043e-003   5.3328e-004   1.8843e-004  -2.9837e+005   4.9141e+004   3.7686e+003    0.0000    0.0000    0.0000   -0.0000    0.0000
                0.6147  -1.2134e-003   5.3733e-004   1.7972e-004  -3.0064e+005   4.9513e+004   3.5944e+003    0.0000    0.0000    0.0000   -0.0000    0.0000
                0.7376  -1.2226e-003   5.4137e-004   1.7095e-004  -3.0291e+005   4.9885e+004   3.4189e+003    0.0000    0.0000    0.0000   -0.0000    0.0000
                0.8605  -1.2317e-003   5.4542e-004   1.6210e-004  -3.0518e+005   5.0256e+004   3.2421e+003    0.0000    0.0000    0.0000   -0.0000    0.0000
                0.9835  -1.2409e-003   5.4947e-004   1.5319e-004  -3.0745e+005   5.0628e+004   3.0639e+003    0.0000    0.0000    0.0000   -0.0000    0.0000
                1.1064  -1.2501e-003   5.5352e-004   1.4422e-004  -3.0972e+005   5.0999e+004   2.8843e+003    0.0000    0.0000    0.0000   -0.0000    0.0000

               lamina:  3     
              matName:  (web-shell)
                     s           e11           e22           e12           s11           s22           s12   s11_fcT   s11_fcC   s22_fcT   s22_fcC   s12_fcS
                   (m)         (m/m)         (m/m)         (rad)          (Pa)          (Pa)          (Pa)       (-)       (-)       (-)       (-)       (-)
                0.0000  -1.1129e-003   4.9096e-004   2.2258e-004  -1.6191e+007  -1.2220e+006   2.6710e+006    0.0000    0.0760    0.0000    0.0000    0.0297
                0.1229  -1.1220e-003   4.9501e-004   2.1415e-004  -1.6324e+007  -1.2320e+006   2.5697e+006    0.0000    0.0766    0.0000    0.0000    0.0286
                0.2459  -1.1312e-003   4.9906e-004   2.0564e-004  -1.6457e+007  -1.2419e+006   2.4677e+006    0.0000    0.0773    0.0000    0.0000    0.0274
                0.3688  -1.1403e-003   5.0311e-004   1.9707e-004  -1.6591e+007  -1.2518e+006   2.3648e+006    0.0000    0.0779    0.0000    0.0000    0.0263
                0.4917  -1.1495e-003   5.0716e-004   1.8843e-004  -1.6724e+007  -1.2617e+006   2.2611e+006    0.0000    0.0785    0.0000    0.0000    0.0251
                0.6147  -1.1586e-003   5.1120e-004   1.7972e-004  -1.6857e+007  -1.2716e+006   2.1566e+006    0.0000    0.0791    0.0000    0.0000    0.0240
                0.7376  -1.1678e-003   5.1525e-004   1.7095e-004  -1.6990e+007  -1.2815e+006   2.0513e+006    0.0000    0.0798    0.0000    0.0000    0.0228
                0.8605  -1.1770e-003   5.1930e-004   1.6210e-004  -1.7123e+007  -1.2914e+006   1.9452e+006    0.0000    0.0804    0.0000    0.0000    0.0216
                0.9835  -1.1861e-003   5.2335e-004   1.5319e-004  -1.7256e+007  -1.3013e+006   1.8383e+006    0.0000    0.0810    0.0000    0.0000    0.0204
                1.1064  -1.1953e-003   5.2739e-004   1.4422e-004  -1.7389e+007  -1.3112e+006   1.7306e+006    0.0000    0.0816    0.0000    0.0000    0.0192

================================================================================
sec        =  15     
zSec       =  20.2000  (m)
nPanelsTop =  5      
nPanelsBot =  5      
nWebs      =  3      

    Top:  panel  nNode   nLam     xc_St    xc_End         b         t         E_eff         G_eff      nu_eff     density  buckleCrit
            (-)    (-)    (-)       (-)       (-)       (m)       (m)          (Pa)          (Pa)         (-)    (kg/m^3)         (-)
              1     12      3    0.0000    0.2837    2.7766    0.0700   4.2251e+009   1.0171e+009      0.3899    435.7143      0.0004
              2      6      5    0.2837    0.4763    1.4625    0.1453   4.1050e+010   3.2752e+009      0.2887   1915.1599      0.0000
              3      2      3    0.4763    0.4772    0.0071    0.0688   4.2921e+009   1.0340e+009      0.3901    439.7041      0.0000
              4      7      3    0.4772    0.7101    1.8391    0.0688   4.2921e+009   1.0340e+009      0.3901    439.7041      0.1116
              5     12      3    0.7101    1.0000    2.3148    0.0688   4.2921e+009   1.0340e+009      0.3901    439.7041      0.1788

            panel:  1     
           lam_num    nPlies        tPly      fibAng     matID  matName
               (-)       (-)         (m)       (deg)       (-)  (-)
                 1         1    0.005000      0.0000         2  (blade-shell)
                 2         1    0.060000      0.0000         5  (LEP-core)
                 3         1    0.005000      0.0000         2  (blade-shell)

               lamina:  1     
              matName:  (blade-shell)
                     s           e11           e22           e12           s11           s22           s12   s11_fcT   s11_fcC   s22_fcT   s22_fcC   s12_fcS
                   (m)         (m/m)         (m/m)         (rad)          (Pa)          (Pa)          (Pa)       (-)       (-)       (-)       (-)       (-)
                0.0000   1.5386e-003  -6.0000e-004   1.2923e-004   4.3174e+007   2.3476e+005   9.0463e+005    0.2998   -0.0000    0.0000   -0.0000    0.0151
                0.1737   1.5420e-003  -6.0133e-004   8.9954e-005   4.3269e+007   2.3529e+005   6.2968e+005    0.3005   -0.0000    0.0000   -0.0000    0.0105
                0.3810   1.5267e-003  -5.9538e-004   4.3265e-005   4.2841e+007   2.3301e+005   3.0286e+005    0.2975   -0.0000    0.0000   -0.0000    0.0050
                0.5855   1.4893e-003  -5.8078e-004   2.0197e-006   4.1791e+007   2.2740e+005   1.4138e+004    0.2902   -0.0000    0.0000   -0.0000    0.0002
                0.8051   1.4311e-003  -5.5808e-004   4.9145e-005   4.0158e+007   2.1862e+005   3.4402e+005    0.2789   -0.0000    0.0000   -0.0000    0.0057
                1.0445   1.3530e-003  -5.2761e-004   9.8166e-005   3.7966e+007   2.0679e+005   6.8716e+005    0.2637   -0.0000    0.0000   -0.0000    0.0115
                1.3012   1.2552e-003  -4.8948e-004   1.4743e-004   3.5224e+007   1.9196e+005   1.0320e+006    0.2446   -0.0000    0.0000   -0.0000    0.0172
                1.5770   1.1389e-003  -4.4410e-004   1.9606e-004   3.1959e+007   1.7426e+005   1.3724e+006    0.2219   -0.0000    0.0000   -0.0000    0.0229
                1.8730   1.0053e-003  -3.9200e-004   2.4285e-004   2.8209e+007   1.5390e+005   1.7000e+006    0.1959   -0.0000    0.0000   -0.0000    0.0283
                2.1874   8.5526e-004  -3.3349e-004   2.8600e-004   2.4000e+007   1.3103e+005   2.0020e+006    0.1667   -0.0000    0.0000   -0.0000    0.0334
                2.5213   6.9064e-004  -2.6930e-004   3.2411e-004   1.9380e+007   1.0587e+005   2.2688e+006    0.1346   -0.0000    0.0000   -0.0000    0.0378
                2.7766   5.6213e-004  -2.1919e-004   3.4775e-004   1.5774e+007   8.6188e+004   2.4342e+006    0.1095   -0.0000    0.0000   -0.0000    0.0406

               lamina:  2     
              matName:  (LEP-core)
                     s           e11           e22           e12           s11           s22           s12   s11_fcT   s11_fcC   s22_fcT   s22_fcC   s12_fcS
                   (m)         (m/m)         (m/m)         (rad)          (Pa)          (Pa)          (Pa)       (-)       (-)       (-)       (-)       (-)
                0.0000   1.5355e-003  -5.9879e-004   1.2923e-004   3.8739e+005  -3.9467e+004   2.5847e+003    0.0000   -0.0000    0.0000    0.0000    0.0000
                0.1737   1.5389e-003  -6.0012e-004   8.9954e-005   3.8825e+005  -3.9554e+004   1.7991e+003    0.0000   -0.0000    0.0000    0.0000    0.0000
                0.3810   1.5238e-003  -5.9420e-004   4.3265e-005   3.8443e+005  -3.9164e+004   8.6531e+002    0.0000   -0.0000    0.0000    0.0000    0.0000
                0.5855   1.4865e-003  -5.7968e-004   2.0197e-006   3.7504e+005  -3.8206e+004   4.0395e+001    0.0000   -0.0000    0.0000    0.0000    0.0000
                0.8051   1.4286e-003  -5.5708e-004   4.9145e-005   3.6042e+005  -3.6715e+004   9.8291e+002    0.0000   -0.0000    0.0000    0.0000    0.0000
                1.0445   1.3508e-003  -5.2672e-004   9.8166e-005   3.4078e+005  -3.4713e+004   1.9633e+003    0.0000   -0.0000    0.0000    0.0000    0.0000
                1.3012   1.2533e-003  -4.8872e-004   1.4743e-004   3.1620e+005  -3.2207e+004   2.9485e+003    0.0000   -0.0000    0.0000    0.0000    0.0000
                1.5770   1.1373e-003  -4.4346e-004   1.9606e-004   2.8692e+005  -2.9223e+004   3.9212e+003    0.0000   -0.0000    0.0000    0.0000    0.0000
                1.8730   1.0040e-003  -3.9148e-004   2.4285e-004   2.5329e+005  -2.5796e+004   4.8570e+003    0.0000   -0.0000    0.0000    0.0000    0.0000
                2.1874   8.5427e-004  -3.3310e-004   2.8600e-004   2.1552e+005  -2.1948e+004   5.7199e+003    0.0000   -0.0000    0.0000    0.0000    0.0000
                2.5213   6.8992e-004  -2.6901e-004   3.2411e-004   1.7406e+005  -1.7725e+004   6.4822e+003    0.0000   -0.0000    0.0000    0.0000    0.0000
                2.7766   5.6157e-004  -2.1896e-004   3.4775e-004   1.4168e+005  -1.4427e+004   6.9550e+003    0.0000   -0.0000    0.0000    0.0000    0.0000

               lamina:  3     
              matName:  (blade-shell)
                     s           e11           e22           e12           s11           s22           s12   s11_fcT   s11_fcC   s22_fcT   s22_fcC   s12_fcS
                   (m)         (m/m)         (m/m)         (rad)          (Pa)          (Pa)          (Pa)       (-)       (-)       (-)       (-)       (-)
                0.0000   1.4989e-003  -5.8426e-004   1.2923e-004   4.2062e+007   2.3290e+005   9.0463e+005    0.2921   -0.0000    0.0000   -0.0000    0.0151
                0.1737   1.5024e-003  -5.8560e-004   8.9954e-005   4.2159e+007   2.3343e+005   6.2968e+005    0.2928   -0.0000    0.0000   -0.0000    0.0105
                0.3810   1.4882e-003  -5.8010e-004   4.3265e-005   4.1763e+007   2.3120e+005   3.0286e+005    0.2900   -0.0000    0.0000   -0.0000    0.0050
                0.5855   1.4535e-003  -5.6656e-004   2.0197e-006   4.0788e+007   2.2571e+005   1.4138e+004    0.2832   -0.0000    0.0000   -0.0000    0.0002
                0.8051   1.3985e-003  -5.4514e-004   4.9145e-005   3.9245e+007   2.1708e+005   3.4402e+005    0.2725   -0.0000    0.0000   -0.0000    0.0057
                1.0445   1.3240e-003  -5.1612e-004   9.8166e-005   3.7155e+007   2.0543e+005   6.8716e+005    0.2580   -0.0000    0.0000   -0.0000    0.0115
                1.3012   1.2303e-003  -4.7959e-004   1.4743e-004   3.4525e+007   1.9079e+005   1.0320e+006    0.2398   -0.0000    0.0000   -0.0000    0.0172
                1.5770   1.1179e-003  -4.3576e-004   1.9606e-004   3.1369e+007   1.7327e+005   1.3724e+006    0.2178   -0.0000    0.0000   -0.0000    0.0229
                1.8730   9.8826e-004  -3.8524e-004   2.4285e-004   2.7732e+007   1.5310e+005   1.7000e+006    0.1926   -0.0000    0.0000   -0.0000    0.0283
                2.1874   8.4233e-004  -3.2836e-004   2.8600e-004   2.3637e+007   1.3042e+005   2.0020e+006    0.1641   -0.0000    0.0000   -0.0000    0.0334
                2.5213   6.8122e-004  -2.6556e-004   3.2411e-004   1.9116e+007   1.0542e+005   2.2688e+006    0.1328   -0.0000    0.0000   -0.0000    0.0378
                2.7766   5.5484e-004  -2.1630e-004   3.4775e-004   1.5570e+007   8.5845e+004   2.4342e+006    0.1081   -0.0000    0.0000   -0.0000    0.0406

            panel:  2     
           lam_num    nPlies        tPly      fibAng     matID  matName
               (-)       (-)         (m)       (deg)       (-)  (-)
                 1         1    0.005000      0.0000         2  (blade-shell)
                 2         1    0.067667      0.0000         3  (spar-uni)
                 3         1    0.000002      0.0000         4  (spar-core)
                 4         1    0.067667      0.0000         3  (spar-uni)
                 5         1    0.005000      0.0000         2  (blade-shell)

               lamina:  1     
              matName:  (blade-shell)
                     s           e11           e22           e12           s11           s22           s12   s11_fcT   s11_fcC   s22_fcT   s22_fcC   s12_fcS
                   (m)         (m/m)         (m/m)         (rad)          (Pa)          (Pa)          (Pa)       (-)       (-)       (-)       (-)       (-)
                0.0000   5.7589e-004  -1.6659e-004   3.7041e-005   1.6513e+007   9.7034e+005   2.5929e+005    0.1147   -0.0000    0.0000   -0.0000    0.0043
                0.0937   5.2205e-004  -1.5094e-004   5.9391e-005   1.4970e+007   8.8084e+005   4.1574e+005    0.1040   -0.0000    0.0000   -0.0000    0.0069
                0.4631   3.3037e-004  -9.5515e-005   1.2822e-004   9.4733e+006   5.5745e+005   8.9753e+005    0.0658   -0.0000    0.0000   -0.0000    0.0150
                0.8466   1.2968e-004  -3.7479e-005   1.6687e-004   3.7188e+006   2.1906e+005   1.1681e+006    0.0258   -0.0000    0.0000   -0.0000    0.0195
                1.2426  -7.6034e-005   2.1988e-005   1.7164e-004  -2.1802e+006  -1.2822e+005   1.2015e+006    0.0000    0.0102    0.0000    0.0000    0.0200
                1.4625  -1.9072e-004   5.5148e-005   1.5887e-004  -5.4688e+006  -3.2168e+005   1.1121e+006    0.0000    0.0257    0.0000    0.0000    0.0185

               lamina:  2     
              matName:  (spar-uni)
                     s           e11           e22           e12           s11           s22           s12   s11_fcT   s11_fcC   s22_fcT   s22_fcC   s12_fcS
                   (m)         (m/m)         (m/m)         (rad)          (Pa)          (Pa)          (Pa)       (-)       (-)       (-)       (-)       (-)
                0.0000   5.7443e-004  -1.6615e-004   3.7041e-005   2.4105e+007  -7.6277e+004   1.1112e+005    0.0248   -0.0000    0.0000    0.0000    0.0037
                0.0937   5.2108e-004  -1.5064e-004   5.9391e-005   2.1866e+007  -6.8122e+004   1.7817e+005    0.0225   -0.0000    0.0000    0.0000    0.0059
                0.4631   3.2976e-004  -9.5331e-005   1.2822e-004   1.3838e+007  -4.3086e+004   3.8466e+005    0.0142   -0.0000    0.0000    0.0000    0.0128
                0.8466   1.2952e-004  -3.7427e-005   1.6687e-004   5.4350e+006  -1.6715e+004   5.0062e+005    0.0056   -0.0000    0.0000    0.0000    0.0167
                1.2426  -7.5873e-005   2.1939e-005   1.7164e-004  -3.1839e+006   9.9814e+003   5.1493e+005    0.0000    0.0045    0.0000   -0.0000    0.0172
                1.4625  -1.9033e-004   5.5031e-005   1.5887e-004  -7.9869e+006   2.4982e+004   4.7661e+005    0.0000    0.0114    0.0000   -0.0000    0.0159

               lamina:  3     
              matName:  (spar-core)
                     s           e11           e22           e12           s11           s22           s12   s11_fcT   s11_fcC   s22_fcT   s22_fcC   s12_fcS
                   (m)         (m/m)         (m/m)         (rad)          (Pa)          (Pa)          (Pa)       (-)       (-)       (-)       (-)       (-)
                0.0000   5.5470e-004  -1.6014e-004   3.7041e-005   1.4476e+005   1.7901e+003   7.4082e+002    0.0000   -0.0000    0.0000   -0.0000    0.0000
                0.0937   5.0800e-004  -1.4666e-004   5.9391e-005   1.3257e+005   1.6394e+003   1.1878e+003    0.0000   -0.0000    0.0000   -0.0000    0.0000
                0.4631   3.2159e-004  -9.2845e-005   1.2822e-004   8.3925e+004   1.0378e+003   2.5644e+003    0.0000   -0.0000    0.0000   -0.0000    0.0000
                0.8466   1.2724e-004  -3.6734e-005   1.6687e-004   3.3205e+004   4.1061e+002   3.3375e+003    0.0000   -0.0000    0.0000   -0.0000    0.0000
                1.2426  -7.3687e-005   2.1274e-005   1.7164e-004  -1.9230e+004  -2.3779e+002   3.4328e+003    0.0000    0.0000    0.0000    0.0000    0.0000
                1.4625  -1.8510e-004   5.3441e-005   1.5887e-004  -4.8306e+004  -5.9735e+002   3.1774e+003    0.0000    0.0000    0.0000    0.0000    0.0000

               lamina:  4     
              matName:  (spar-uni)
                     s           e11           e22           e12           s11           s22           s12   s11_fcT   s11_fcC   s22_fcT   s22_fcC   s12_fcS
                   (m)         (m/m)         (m/m)         (rad)          (Pa)          (Pa)          (Pa)       (-)       (-)       (-)       (-)       (-)
                0.0000   5.5470e-004  -1.6014e-004   3.7041e-005   2.3278e+007  -6.9416e+004   1.1112e+005    0.0239   -0.0000    0.0000    0.0000    0.0037
                0.0937   5.0800e-004  -1.4666e-004   5.9391e-005   2.1318e+007  -6.3573e+004   1.7817e+005    0.0219   -0.0000    0.0000    0.0000    0.0059
                0.4631   3.2159e-004  -9.2845e-005   1.2822e-004   1.3496e+007  -4.0245e+004   3.8466e+005    0.0139   -0.0000    0.0000    0.0000    0.0128
                0.8466   1.2724e-004  -3.6734e-005   1.6687e-004   5.3395e+006  -1.5923e+004   5.0062e+005    0.0055   -0.0000    0.0000    0.0000    0.0167
                1.2426  -7.3687e-005   2.1274e-005   1.7164e-004  -3.0923e+006   9.2214e+003   5.1493e+005    0.0000    0.0044    0.0000   -0.0000    0.0172
                1.4625  -1.8510e-004   5.3441e-005   1.5887e-004  -7.7679e+006   2.3165e+004   4.7661e+005    0.0000    0.0111    0.0000   -0.0000    0.0159

               lamina:  5     
              matName:  (blade-shell)
                     s           e11           e22           e12           s11           s22           s12   s11_fcT   s11_fcC   s22_fcT   s22_fcC   s12_fcS
                   (m)         (m/m)         (m/m)         (rad)          (Pa)          (Pa)          (Pa)       (-)       (-)       (-)       (-)       (-)
                0.0000   5.3496e-004  -1.5414e-004   3.7041e-005   1.5343e+007   9.1067e+005   2.5929e+005    0.1066   -0.0000    0.0000   -0.0000    0.0043
                0.0937   4.9491e-004  -1.4268e-004   5.9391e-005   1.4194e+007   8.4128e+005   4.1574e+005    0.0986   -0.0000    0.0000   -0.0000    0.0069
                0.4631   3.1342e-004  -9.0360e-005   1.2822e-004   8.9889e+006   5.3274e+005   8.9753e+005    0.0624   -0.0000    0.0000   -0.0000    0.0150
                0.8466   1.2496e-004  -3.6041e-005   1.6687e-004   3.5837e+006   2.1217e+005   1.1681e+006    0.0249   -0.0000    0.0000   -0.0000    0.0195
                1.2426  -7.1501e-005   2.0609e-005   1.7164e-004  -2.0507e+006  -1.2161e+005   1.2015e+006    0.0000    0.0096    0.0000    0.0000    0.0200
                1.4625  -1.7988e-004   5.1851e-005   1.5887e-004  -5.1589e+006  -3.0588e+005   1.1121e+006    0.0000    0.0242    0.0000    0.0000    0.0185

            panel:  3     
           lam_num    nPlies        tPly      fibAng     matID  matName
               (-)       (-)         (m)       (deg)       (-)  (-)
                 1         1    0.005000      0.0000         2  (blade-shell)
                 2         1    0.058835      0.0000         6  (TEP-core)
                 3         1    0.005000      0.0000         2  (blade-shell)

               lamina:  1     
              matName:  (blade-shell)
                     s           e11           e22           e12           s11           s22           s12   s11_fcT   s11_fcC   s22_fcT   s22_fcC   s12_fcS
                   (m)         (m/m)         (m/m)         (rad)          (Pa)          (Pa)          (Pa)       (-)       (-)       (-)       (-)       (-)
                0.0000  -1.8707e-004   7.2975e-005   1.0625e-003  -5.2493e+006  -2.8211e+004   7.4372e+006    0.0000    0.0246    0.0000    0.0000    0.1240
                0.0071  -1.9069e-004   7.4385e-005   1.0623e-003  -5.3507e+006  -2.8758e+004   7.4358e+006    0.0000    0.0251    0.0000    0.0000    0.1239

               lamina:  2     
              matName:  (TEP-core)
                     s           e11           e22           e12           s11           s22           s12   s11_fcT   s11_fcC   s22_fcT   s22_fcC   s12_fcS
                   (m)         (m/m)         (m/m)         (rad)          (Pa)          (Pa)          (Pa)       (-)       (-)       (-)       (-)       (-)
                0.0000  -1.8692e-004   7.2916e-005   1.0625e-003  -4.7157e+004   4.8111e+003   2.1249e+004    0.0000    0.0000    0.0000   -0.0000    0.0000
                0.0071  -1.9054e-004   7.4326e-005   1.0623e-003  -4.8069e+004   4.9041e+003   2.1245e+004    0.0000    0.0000    0.0000   -0.0000    0.0000

               lamina:  3     
              matName:  (blade-shell)
                     s           e11           e22           e12           s11           s22           s12   s11_fcT   s11_fcC   s22_fcT   s22_fcC   s12_fcS
                   (m)         (m/m)         (m/m)         (rad)          (Pa)          (Pa)          (Pa)       (-)       (-)       (-)       (-)       (-)
                0.0000  -1.8517e-004   7.2221e-005   1.0625e-003  -5.1961e+006  -2.8123e+004   7.4372e+006    0.0000    0.0244    0.0000    0.0000    0.1240
                0.0071  -1.8879e-004   7.3631e-005   1.0623e-003  -5.2975e+006  -2.8670e+004   7.4358e+006    0.0000    0.0249    0.0000    0.0000    0.1239

            panel:  4     
           lam_num    nPlies        tPly      fibAng     matID  matName
               (-)       (-)         (m)       (deg)       (-)  (-)
                 1         1    0.005000      0.0000         2  (blade-shell)
                 2         1    0.058835      0.0000         6  (TEP-core)
                 3         1    0.005000      0.0000         2  (blade-shell)

               lamina:  1     
              matName:  (blade-shell)
                     s           e11           e22           e12           s11           s22           s12   s11_fcT   s11_fcC   s22_fcT   s22_fcC   s12_fcS
                   (m)         (m/m)         (m/m)         (rad)          (Pa)          (Pa)          (Pa)       (-)       (-)       (-)       (-)       (-)
                0.0000  -1.9069e-004   7.4385e-005   9.1653e-004  -5.3507e+006  -2.8758e+004   6.4157e+006    0.0000    0.0251    0.0000    0.0000    0.1069
                0.1768  -2.8084e-004   1.0955e-004   9.1633e-004  -7.8804e+006  -4.2346e+004   6.4143e+006    0.0000    0.0370    0.0000    0.0000    0.1069
                0.5862  -4.8832e-004   1.9049e-004   9.1633e-004  -1.3703e+007  -7.3697e+004   6.4143e+006    0.0000    0.0643    0.0000    0.0000    0.1069
                0.9943  -6.9450e-004   2.7091e-004   9.1016e-004  -1.9488e+007  -1.0486e+005   6.3711e+006    0.0000    0.0915    0.0000    0.0000    0.1062
                1.3958  -8.9670e-004   3.4978e-004   8.8686e-004  -2.5162e+007  -1.3543e+005   6.2080e+006    0.0000    0.1181    0.0000    0.0000    0.1035
                1.7856  -1.0925e-003   4.2615e-004   8.5111e-004  -3.0656e+007  -1.6505e+005   5.9578e+006    0.0000    0.1439    0.0000    0.0000    0.0993
                1.8391  -1.1195e-003   4.3669e-004   8.0377e-004  -3.1414e+007  -1.6912e+005   5.6264e+006    0.0000    0.1475    0.0000    0.0000    0.0938

               lamina:  2     
              matName:  (TEP-core)
                     s           e11           e22           e12           s11           s22           s12   s11_fcT   s11_fcC   s22_fcT   s22_fcC   s12_fcS
                   (m)         (m/m)         (m/m)         (rad)          (Pa)          (Pa)          (Pa)       (-)       (-)       (-)       (-)       (-)
                0.0000  -1.9054e-004   7.4326e-005   9.1653e-004  -4.8069e+004   4.9041e+003   1.8331e+004    0.0000    0.0000    0.0000   -0.0000    0.0000
                0.1768  -2.8061e-004   1.0946e-004   9.1633e-004  -7.0791e+004   7.2225e+003   1.8327e+004    0.0000    0.0000    0.0000   -0.0000    0.0000
                0.5862  -4.8801e-004   1.9036e-004   9.1633e-004  -1.2312e+005   1.2560e+004   1.8327e+004    0.0000    0.0000    0.0000   -0.0000    0.0000
                0.9943  -6.9412e-004   2.7076e-004   9.1016e-004  -1.7511e+005   1.7864e+004   1.8203e+004    0.0000    0.0000    0.0000   -0.0000    0.0000
                1.3958  -8.9627e-004   3.4961e-004   8.8686e-004  -2.2611e+005   2.3065e+004   1.7737e+004    0.0000    0.0000    0.0000   -0.0000    0.0000
                1.7856  -1.0920e-003   4.2597e-004   8.5111e-004  -2.7550e+005   2.8102e+004   1.7022e+004    0.0000    0.0000    0.0000   -0.0000    0.0000
                1.8391  -1.1190e-003   4.3650e-004   8.0377e-004  -2.8231e+005   2.8798e+004   1.6075e+004    0.0000    0.0000    0.0000   -0.0000    0.0000

               lamina:  3     
              matName:  (blade-shell)
                     s           e11           e22           e12           s11           s22           s12   s11_fcT   s11_fcC   s22_fcT   s22_fcC   s12_fcS
                   (m)         (m/m)         (m/m)         (rad)          (Pa)          (Pa)          (Pa)       (-)       (-)       (-)       (-)       (-)
                0.0000  -1.8879e-004   7.3631e-005   9.1653e-004  -5.2975e+006  -2.8670e+004   6.4157e+006    0.0000    0.0249    0.0000    0.0000    0.1069
                0.1768  -2.7790e-004   1.0839e-004   9.1633e-004  -7.7980e+006  -4.2210e+004   6.4143e+006    0.0000    0.0366    0.0000    0.0000    0.1069
                0.5862  -4.8437e-004   1.8892e-004   9.1633e-004  -1.3592e+007  -7.3514e+004   6.4143e+006    0.0000    0.0638    0.0000    0.0000    0.1069
                0.9943  -6.8963e-004   2.6898e-004   9.1016e-004  -1.9351e+007  -1.0463e+005   6.3711e+006    0.0000    0.0909    0.0000    0.0000    0.1062
                1.3958  -8.9124e-004   3.4761e-004   8.8686e-004  -2.5009e+007  -1.3518e+005   6.2080e+006    0.0000    0.1174    0.0000    0.0000    0.1035
                1.7856  -1.0867e-003   4.2387e-004   8.5111e-004  -3.0495e+007  -1.6479e+005   5.9578e+006    0.0000    0.1432    0.0000    0.0000    0.0993
                1.8391  -1.1134e-003   4.3427e-004   8.0377e-004  -3.1243e+007  -1.6884e+005   5.6264e+006    0.0000    0.1467    0.0000    0.0000    0.0938

            panel:  5     
           lam_num    nPlies        tPly      fibAng     matID  matName
               (-)       (-)         (m)       (deg)       (-)  (-)
                 1         1    0.005000      0.0000         2  (blade-shell)
                 2         1    0.058835      0.0000         6  (TEP-core)
                 3         1    0.005000      0.0000         2  (blade-shell)

               lamina:  1     
              matName:  (blade-shell)
                     s           e11           e22           e12           s11           s22           s12   s11_fcT   s11_fcC   s22_fcT   s22_fcC   s12_fcS
                   (m)         (m/m)         (m/m)         (rad)          (Pa)          (Pa)          (Pa)       (-)       (-)       (-)       (-)       (-)
                0.0000  -1.1195e-003   4.3669e-004   7.4629e-004  -3.1414e+007  -1.6912e+005   5.2240e+006    0.0000    0.1475    0.0000    0.0000    0.0871
                0.3195  -1.2797e-003   4.9917e-004   7.3751e-004  -3.5909e+007  -1.9337e+005   5.1625e+006    0.0000    0.1686    0.0000    0.0000    0.0860
                0.6715  -1.4560e-003   5.6793e-004   6.2146e-004  -4.0855e+007  -2.2005e+005   4.3503e+006    0.0000    0.1918    0.0000    0.0000    0.0725
                0.9975  -1.6193e-003   6.3163e-004   5.6461e-004  -4.5438e+007  -2.4477e+005   3.9523e+006    0.0000    0.2133    0.0000    0.0000    0.0659
                1.2943  -1.7679e-003   6.8960e-004   4.9319e-004  -4.9608e+007  -2.6727e+005   3.4524e+006    0.0000    0.2329    0.0000    0.0000    0.0575
                1.5580  -1.9000e-003   7.4113e-004   4.1879e-004  -5.3315e+007  -2.8728e+005   2.9315e+006    0.0000    0.2503    0.0000    0.0000    0.0489
                1.7858  -2.0142e-003   7.8568e-004   3.4418e-004  -5.6521e+007  -3.0458e+005   2.4093e+006    0.0000    0.2654    0.0000    0.0000    0.0402
                1.9755  -2.1095e-003   8.2283e-004   2.7237e-004  -5.9193e+007  -3.1900e+005   1.9066e+006    0.0000    0.2779    0.0000    0.0000    0.0318
                2.1254  -2.1847e-003   8.5218e-004   2.0617e-004  -6.1304e+007  -3.3038e+005   1.4432e+006    0.0000    0.2878    0.0000    0.0000    0.0241
                2.2341  -2.2390e-003   8.7335e-004   1.4810e-004  -6.2828e+007  -3.3862e+005   1.0367e+006    0.0000    0.2950    0.0000    0.0000    0.0173
                2.2904  -2.2726e-003   8.8648e-004   1.0029e-004  -6.3769e+007  -3.4316e+005   7.0200e+005    0.0000    0.2994    0.0000    0.0000    0.0117
                2.3148  -2.2870e-003   8.9216e-004   6.4570e-005  -6.4174e+007  -3.4452e+005   4.5199e+005    0.0000    0.3013    0.0000    0.0000    0.0075

               lamina:  2     
              matName:  (TEP-core)
                     s           e11           e22           e12           s11           s22           s12   s11_fcT   s11_fcC   s22_fcT   s22_fcC   s12_fcS
                   (m)         (m/m)         (m/m)         (rad)          (Pa)          (Pa)          (Pa)       (-)       (-)       (-)       (-)       (-)
                0.0000  -1.1190e-003   4.3650e-004   7.4629e-004  -2.8231e+005   2.8798e+004   1.4926e+004    0.0000    0.0000    0.0000   -0.0000    0.0000
                0.3195  -1.2792e-003   4.9898e-004   7.3751e-004  -3.2272e+005   3.2919e+004   1.4750e+004    0.0000    0.0000    0.0000   -0.0000    0.0000
                0.6715  -1.4555e-003   5.6774e-004   6.2146e-004  -3.6719e+005   3.7454e+004   1.2429e+004    0.0000    0.0000    0.0000   -0.0000    0.0000
                0.9975  -1.6188e-003   6.3144e-004   5.6461e-004  -4.0839e+005   4.1656e+004   1.1292e+004    0.0000    0.0000    0.0000   -0.0000    0.0000
                1.2943  -1.7674e-003   6.8941e-004   4.9319e-004  -4.4588e+005   4.5480e+004   9.8639e+003    0.0000    0.0000    0.0000   -0.0000    0.0000
                1.5580  -1.8996e-003   7.4094e-004   4.1879e-004  -4.7922e+005   4.8879e+004   8.3758e+003    0.0000    0.0000    0.0000   -0.0000    0.0000
                1.7858  -2.0138e-003   7.8550e-004   3.4418e-004  -5.0804e+005   5.1819e+004   6.8837e+003    0.0000    0.0000    0.0000   -0.0000    0.0000
                1.9755  -2.1090e-003   8.2265e-004   2.7237e-004  -5.3206e+005   5.4269e+004   5.4474e+003    0.0000    0.0000    0.0000   -0.0000    0.0000
                2.1254  -2.1843e-003   8.5199e-004   2.0617e-004  -5.5104e+005   5.6205e+004   4.1235e+003    0.0000    0.0000    0.0000   -0.0000    0.0000
                2.2341  -2.2386e-003   8.7318e-004   1.4810e-004  -5.6475e+005   5.7602e+004   2.9620e+003    0.0000    0.0000    0.0000   -0.0000    0.0000
                2.2904  -2.2714e-003   8.8601e-004   1.0029e-004  -5.7303e+005   5.8455e+004   2.0057e+003    0.0000    0.0000    0.0000   -0.0000    0.0000
                2.3148  -2.2847e-003   8.9124e-004   6.4570e-005  -5.7638e+005   5.8810e+004   1.2914e+003    0.0000    0.0000    0.0000   -0.0000    0.0000

               lamina:  3     
              matName:  (blade-shell)
                     s           e11           e22           e12           s11           s22           s12   s11_fcT   s11_fcC   s22_fcT   s22_fcC   s12_fcS
                   (m)         (m/m)         (m/m)         (rad)          (Pa)          (Pa)          (Pa)       (-)       (-)       (-)       (-)       (-)
                0.0000  -1.1134e-003   4.3427e-004   7.4629e-004  -3.1243e+007  -1.6884e+005   5.2240e+006    0.0000    0.1467    0.0000    0.0000    0.0871
                0.3195  -1.2735e-003   4.9672e-004   7.3751e-004  -3.5736e+007  -1.9308e+005   5.1625e+006    0.0000    0.1678    0.0000    0.0000    0.0860
                0.6715  -1.4497e-003   5.6546e-004   6.2146e-004  -4.0681e+007  -2.1976e+005   4.3503e+006    0.0000    0.1910    0.0000    0.0000    0.0725
                0.9975  -1.6131e-003   6.2917e-004   5.6461e-004  -4.5264e+007  -2.4449e+005   3.9523e+006    0.0000    0.2125    0.0000    0.0000    0.0659
                1.2943  -1.7618e-003   6.8717e-004   4.9319e-004  -4.9437e+007  -2.6699e+005   3.4524e+006    0.0000    0.2321    0.0000    0.0000    0.0575
                1.5580  -1.8941e-003   7.3879e-004   4.1879e-004  -5.3150e+007  -2.8701e+005   2.9315e+006    0.0000    0.2495    0.0000    0.0000    0.0489
                1.7858  -2.0085e-003   7.8340e-004   3.4418e-004  -5.6359e+007  -3.0432e+005   2.4093e+006    0.0000    0.2646    0.0000    0.0000    0.0402
                1.9755  -2.1036e-003   8.2051e-004   2.7237e-004  -5.9029e+007  -3.1873e+005   1.9066e+006    0.0000    0.2771    0.0000    0.0000    0.0318
                2.1254  -2.1788e-003   8.4981e-004   2.0617e-004  -6.1137e+007  -3.3011e+005   1.4432e+006    0.0000    0.2870    0.0000    0.0000    0.0241
                2.2341  -2.2335e-003   8.7116e-004   1.4810e-004  -6.2673e+007  -3.3837e+005   1.0367e+006    0.0000    0.2942    0.0000    0.0000    0.0173
                2.2904  -2.2575e-003   8.8048e-004   1.0029e-004  -6.3346e+007  -3.4246e+005   7.0200e+005    0.0000    0.2974    0.0000    0.0000    0.0117
                2.3148  -2.2575e-003   8.8044e-004   6.4570e-005  -6.3347e+007  -3.4317e+005   4.5199e+005    0.0000    0.2974    0.0000    0.0000    0.0075

  Bottom:  panel  nNode   nLam     xc_St    xc_End         b         t         E_eff         G_eff      nu_eff     density  buckleCrit
            (-)    (-)    (-)       (-)       (-)       (m)       (m)          (Pa)          (Pa)         (-)    (kg/m^3)         (-)
              1     12      3    0.0000    0.2837    2.8751    0.0700   4.2251e+009   1.0171e+009      0.3899    435.7143      0.0017
              2      6      5    0.2837    0.4763    1.4830    0.1453   4.1050e+010   3.2752e+009      0.2887   1915.1599      0.0000
              3      2      3    0.4763    0.4772    0.0075    0.0688   4.2921e+009   1.0340e+009      0.3901    439.7041      0.0000
              4      7      3    0.4772    0.7101    1.9464    0.0688   4.2921e+009   1.0340e+009      0.3901    439.7041      0.1586
              5     12      3    0.7101    1.0000    2.2951    0.0688   4.2921e+009   1.0340e+009      0.3901    439.7041      0.1370

            panel:  1     
           lam_num    nPlies        tPly      fibAng     matID  matName
               (-)       (-)         (m)       (deg)       (-)  (-)
                 1         1    0.005000      0.0000         2  (blade-shell)
                 2         1    0.060000      0.0000         5  (LEP-core)
                 3         1    0.005000      0.0000         2  (blade-shell)

               lamina:  1     
              matName:  (blade-shell)
                     s           e11           e22           e12           s11           s22           s12   s11_fcT   s11_fcC   s22_fcT   s22_fcC   s12_fcS
                   (m)         (m/m)         (m/m)         (rad)          (Pa)          (Pa)          (Pa)       (-)       (-)       (-)       (-)       (-)
                0.0000   1.5384e-003  -5.9994e-004   1.2923e-004   4.3170e+007   2.3483e+005   9.0463e+005    0.2998   -0.0000    0.0000   -0.0000    0.0151
                0.1742   1.5139e-003  -5.9039e-004   1.6829e-004   4.2483e+007   2.3113e+005   1.1780e+006    0.2950   -0.0000    0.0000   -0.0000    0.0196
                0.3803   1.4664e-003  -5.7183e-004   2.1340e-004   4.1148e+007   2.2398e+005   1.4938e+006    0.2858   -0.0000    0.0000   -0.0000    0.0249
                0.5927   1.3991e-003  -5.4558e-004   2.5816e-004   3.9260e+007   2.1385e+005   1.8071e+006    0.2726   -0.0000    0.0000   -0.0000    0.0301
                0.8258   1.3121e-003  -5.1165e-004   3.0467e-004   3.6819e+007   2.0067e+005   2.1327e+006    0.2557   -0.0000    0.0000   -0.0000    0.0355
                1.0828   1.2061e-003  -4.7033e-004   3.5235e-004   3.3846e+007   1.8457e+005   2.4665e+006    0.2350   -0.0000    0.0000   -0.0000    0.0411
                1.3582   1.0830e-003  -4.2231e-004   3.9883e-004   3.0391e+007   1.6584e+005   2.7918e+006    0.2110   -0.0000    0.0000   -0.0000    0.0465
                1.6515   9.4430e-004  -3.6821e-004   4.4272e-004   2.6498e+007   1.4470e+005   3.0990e+006    0.1840   -0.0000    0.0000   -0.0000    0.0517
                1.9615   7.9164e-004  -3.0867e-004   4.8248e-004   2.2214e+007   1.2144e+005   3.3773e+006    0.1543   -0.0000    0.0000   -0.0000    0.0563
                2.2842   6.2754e-004  -2.4468e-004   5.1639e-004   1.7610e+007   9.6448e+004   3.6147e+006    0.1223   -0.0000    0.0000   -0.0000    0.0602
                2.6207   4.5426e-004  -1.7710e-004   5.4344e-004   1.2747e+007   7.0039e+004   3.8041e+006    0.0885   -0.0000    0.0000   -0.0000    0.0634
                2.8751   3.2443e-004  -1.2647e-004   5.5823e-004   9.1041e+006   5.0205e+004   3.9076e+006    0.0632   -0.0000    0.0000   -0.0000    0.0651

               lamina:  2     
              matName:  (LEP-core)
                     s           e11           e22           e12           s11           s22           s12   s11_fcT   s11_fcC   s22_fcT   s22_fcC   s12_fcS
                   (m)         (m/m)         (m/m)         (rad)          (Pa)          (Pa)          (Pa)       (-)       (-)       (-)       (-)       (-)
                0.0000   1.5355e-003  -5.9877e-004   1.2923e-004   3.8739e+005  -3.9465e+004   2.5847e+003    0.0000   -0.0000    0.0000    0.0000    0.0000
                0.1742   1.5111e-003  -5.8926e-004   1.6829e-004   3.8123e+005  -3.8837e+004   3.3658e+003    0.0000   -0.0000    0.0000    0.0000    0.0000
                0.3803   1.4638e-003  -5.7080e-004   2.1340e-004   3.6930e+005  -3.7619e+004   4.2681e+003    0.0000   -0.0000    0.0000    0.0000    0.0000
                0.5927   1.3968e-003  -5.4467e-004   2.5816e-004   3.5240e+005  -3.5895e+004   5.1632e+003    0.0000   -0.0000    0.0000    0.0000    0.0000
                0.8258   1.3101e-003  -5.1087e-004   3.0467e-004   3.3053e+005  -3.3666e+004   6.0933e+003    0.0000   -0.0000    0.0000    0.0000    0.0000
                1.0828   1.2045e-003  -4.6966e-004   3.5235e-004   3.0387e+005  -3.0949e+004   7.0471e+003    0.0000   -0.0000    0.0000    0.0000    0.0000
                1.3582   1.0817e-003  -4.2177e-004   3.9883e-004   2.7289e+005  -2.7792e+004   7.9766e+003    0.0000   -0.0000    0.0000    0.0000    0.0000
                1.6515   9.4325e-004  -3.6779e-004   4.4272e-004   2.3797e+005  -2.4234e+004   8.8543e+003    0.0000   -0.0000    0.0000    0.0000    0.0000
                1.9615   7.9093e-004  -3.0839e-004   4.8248e-004   1.9955e+005  -2.0319e+004   9.6495e+003    0.0000   -0.0000    0.0000    0.0000    0.0000
                2.2842   6.2722e-004  -2.4455e-004   5.1639e-004   1.5825e+005  -1.6110e+004   1.0328e+004    0.0000   -0.0000    0.0000    0.0000    0.0000
                2.6207   4.5519e-004  -1.7747e-004   5.4344e-004   1.1484e+005  -1.1690e+004   1.0869e+004    0.0000   -0.0000    0.0000    0.0000    0.0000
                2.8751   3.2854e-004  -1.2810e-004   5.5823e-004   8.2887e+004  -8.4405e+003   1.1165e+004    0.0000   -0.0000    0.0000    0.0000    0.0000

               lamina:  3     
              matName:  (blade-shell)
                     s           e11           e22           e12           s11           s22           s12   s11_fcT   s11_fcC   s22_fcT   s22_fcC   s12_fcS
                   (m)         (m/m)         (m/m)         (rad)          (Pa)          (Pa)          (Pa)       (-)       (-)       (-)       (-)       (-)
                0.0000   1.5002e-003  -5.8477e-004   1.2923e-004   4.2099e+007   2.3303e+005   9.0463e+005    0.2924   -0.0000    0.0000   -0.0000    0.0151
                0.1742   1.4770e-003  -5.7571e-004   1.6829e-004   4.1447e+007   2.2938e+005   1.1780e+006    0.2878   -0.0000    0.0000   -0.0000    0.0196
                0.3803   1.4326e-003  -5.5842e-004   2.1340e-004   4.0202e+007   2.2239e+005   1.4938e+006    0.2792   -0.0000    0.0000   -0.0000    0.0249
                0.5927   1.3694e-003  -5.3381e-004   2.5816e-004   3.8429e+007   2.1246e+005   1.8071e+006    0.2669   -0.0000    0.0000   -0.0000    0.0301
                0.8258   1.2863e-003  -5.0142e-004   3.0467e-004   3.6097e+007   1.9946e+005   2.1327e+006    0.2507   -0.0000    0.0000   -0.0000    0.0355
                1.0828   1.1842e-003  -4.6163e-004   3.5235e-004   3.3232e+007   1.8354e+005   2.4665e+006    0.2308   -0.0000    0.0000   -0.0000    0.0411
                1.3582   1.0652e-003  -4.1524e-004   3.9883e-004   2.9892e+007   1.6500e+005   2.7918e+006    0.2076   -0.0000    0.0000   -0.0000    0.0465
                1.6515   9.3057e-004  -3.6276e-004   4.4272e-004   2.6114e+007   1.4405e+005   3.0990e+006    0.1813   -0.0000    0.0000   -0.0000    0.0517
                1.9615   7.8242e-004  -3.0502e-004   4.8248e-004   2.1956e+007   1.2100e+005   3.3773e+006    0.1525   -0.0000    0.0000   -0.0000    0.0563
                2.2842   6.2340e-004  -2.4304e-004   5.1639e-004   1.7494e+007   9.6253e+004   3.6147e+006    0.1215   -0.0000    0.0000   -0.0000    0.0602
                2.6207   4.5527e-004  -1.7750e-004   5.4344e-004   1.2775e+007   7.0086e+004   3.8041e+006    0.0887   -0.0000    0.0000   -0.0000    0.0634
                2.8751   3.2888e-004  -1.2824e-004   5.5823e-004   9.2288e+006   5.0415e+004   3.9076e+006    0.0641   -0.0000    0.0000   -0.0000    0.0651

            panel:  2     
           lam_num    nPlies        tPly      fibAng     matID  matName
               (-)       (-)         (m)       (deg)       (-)  (-)
                 1         1    0.005000      0.0000         2  (blade-shell)
                 2         1    0.067667      0.0000         3  (spar-uni)
                 3         1    0.000002      0.0000         4  (spar-core)
                 4         1    0.067667      0.0000         3  (spar-uni)
                 5         1    0.005000      0.0000         2  (blade-shell)

               lamina:  1     
              matName:  (blade-shell)
                     s           e11           e22           e12           s11           s22           s12   s11_fcT   s11_fcC   s22_fcT   s22_fcC   s12_fcS
                   (m)         (m/m)         (m/m)         (rad)          (Pa)          (Pa)          (Pa)       (-)       (-)       (-)       (-)       (-)
                0.0000   3.1658e-004  -9.1211e-005   1.0452e-004   9.0798e+006   5.3900e+005   7.3163e+005    0.0631   -0.0000    0.0000   -0.0000    0.0122
                0.0898   2.5893e-004  -7.4378e-005   1.1686e-004   7.4278e+006   4.4428e+005   8.1802e+005    0.0516   -0.0000    0.0000   -0.0000    0.0136
                0.4577   6.9345e-005  -1.9501e-005   1.4877e-004   1.9918e+006   1.2535e+005   1.0414e+006    0.0138   -0.0000    0.0000   -0.0000    0.0174
                0.8448  -1.2686e-004   3.7350e-005   1.5076e-004  -3.6336e+006  -2.0382e+005   1.0553e+006    0.0000    0.0171    0.0000    0.0000    0.0176
                1.2528  -3.1928e-004   9.3010e-005   1.1912e-004  -9.1510e+006  -5.2805e+005   8.3382e+005    0.0000    0.0430    0.0000    0.0000    0.0139
                1.4830  -4.2445e-004   1.2344e-004   8.6477e-005  -1.2167e+007  -7.0516e+005   6.0534e+005    0.0000    0.0571    0.0000    0.0000    0.0101

               lamina:  2     
              matName:  (spar-uni)
                     s           e11           e22           e12           s11           s22           s12   s11_fcT   s11_fcC   s22_fcT   s22_fcC   s12_fcS
                   (m)         (m/m)         (m/m)         (rad)          (Pa)          (Pa)          (Pa)       (-)       (-)       (-)       (-)       (-)
                0.0000   3.2863e-004  -9.4876e-005   1.0452e-004   1.3791e+007  -4.1125e+004   3.1356e+005    0.0142   -0.0000    0.0000    0.0000    0.0105
                0.0898   2.8332e-004  -8.1796e-005   1.1686e-004   1.1890e+007  -3.5456e+004   3.5058e+005    0.0122   -0.0000    0.0000    0.0000    0.0117
                0.4577   1.0290e-004  -2.9709e-005   1.4877e-004   4.3184e+006  -1.2878e+004   4.4631e+005    0.0044   -0.0000    0.0000    0.0000    0.0149
                0.8448  -1.2364e-004   3.6370e-005   1.5076e-004  -5.1858e+006   2.5175e+004   4.5229e+005    0.0000    0.0074    0.0000   -0.0000    0.0151
                1.2528  -3.1557e-004   9.1883e-005   1.1912e-004  -1.3240e+007   5.0644e+004   3.5735e+005    0.0000    0.0189    0.0000   -0.0000    0.0119
                1.4830  -4.2045e-004   1.2223e-004   8.6477e-005  -1.7641e+007   6.4670e+004   2.5943e+005    0.0000    0.0251    0.0000   -0.0000    0.0086

               lamina:  3     
              matName:  (spar-core)
                     s           e11           e22           e12           s11           s22           s12   s11_fcT   s11_fcC   s22_fcT   s22_fcC   s12_fcS
                   (m)         (m/m)         (m/m)         (rad)          (Pa)          (Pa)          (Pa)       (-)       (-)       (-)       (-)       (-)
                0.0000   3.2863e-004  -9.4876e-005   1.0452e-004   8.5761e+004   1.0605e+003   2.0904e+003    0.0000   -0.0000    0.0000   -0.0000    0.0000
                0.0898   2.8332e-004  -8.1796e-005   1.1686e-004   7.3938e+004   9.1430e+002   2.3372e+003    0.0000   -0.0000    0.0000   -0.0000    0.0000
                0.4577   1.0291e-004  -2.9709e-005   1.4877e-004   2.6855e+004   3.3208e+002   2.9754e+003    0.0000   -0.0000    0.0000   -0.0000    0.0000
                0.8448  -8.0038e-005   2.3107e-005   1.5076e-004  -2.0887e+004  -2.5829e+002   3.0153e+003    0.0000    0.0000    0.0000    0.0000    0.0000
                1.2528  -2.6546e-004   7.6640e-005   1.1912e-004  -6.9277e+004  -8.5666e+002   2.3823e+003    0.0000    0.0000    0.0000    0.0000    0.0000
                1.4830  -3.6629e-004   1.0575e-004   8.6477e-005  -9.5589e+004  -1.1820e+003   1.7295e+003    0.0000    0.0000    0.0000    0.0000    0.0000

               lamina:  4     
              matName:  (spar-uni)
                     s           e11           e22           e12           s11           s22           s12   s11_fcT   s11_fcC   s22_fcT   s22_fcC   s12_fcS
                   (m)         (m/m)         (m/m)         (rad)          (Pa)          (Pa)          (Pa)       (-)       (-)       (-)       (-)       (-)
                0.0000   3.4067e-004  -9.8541e-005   1.0452e-004   1.4296e+007  -4.5314e+004   3.1356e+005    0.0147   -0.0000    0.0000    0.0000    0.0105
                0.0898   3.0771e-004  -8.9215e-005   1.1686e-004   1.2911e+007  -4.3935e+004   3.5058e+005    0.0133   -0.0000    0.0000    0.0000    0.0117
                0.4577   1.3647e-004  -3.9918e-005   1.4877e-004   5.7247e+006  -2.4546e+004   4.4631e+005    0.0059   -0.0000    0.0000    0.0000    0.0149
                0.8448  -8.0036e-005   2.3107e-005   1.5076e-004  -3.3587e+006   1.0016e+004   4.5229e+005    0.0000    0.0048    0.0000   -0.0000    0.0151
                1.2528  -2.6546e-004   7.6639e-005   1.1912e-004  -1.1140e+007   3.3220e+004   3.5735e+005    0.0000    0.0159    0.0000   -0.0000    0.0119
                1.4830  -3.6628e-004   1.0575e-004   8.6477e-005  -1.5371e+007   4.5838e+004   2.5943e+005    0.0000    0.0219    0.0000   -0.0000    0.0086

               lamina:  5     
              matName:  (blade-shell)
                     s           e11           e22           e12           s11           s22           s12   s11_fcT   s11_fcC   s22_fcT   s22_fcC   s12_fcS
                   (m)         (m/m)         (m/m)         (rad)          (Pa)          (Pa)          (Pa)       (-)       (-)       (-)       (-)       (-)
                0.0000   3.4156e-004  -9.8812e-005   1.0452e-004   9.7940e+006   5.7543e+005   7.3163e+005    0.0680   -0.0000    0.0000   -0.0000    0.0122
                0.0898   3.0951e-004  -8.9763e-005   1.1686e-004   8.8735e+006   5.1802e+005   8.1802e+005    0.0616   -0.0000    0.0000   -0.0000    0.0136
                0.4577   1.3894e-004  -4.0672e-005   1.4877e-004   3.9812e+006   2.2683e+005   1.0414e+006    0.0276   -0.0000    0.0000   -0.0000    0.0174
                0.8448  -3.6436e-005   9.8442e-006   1.5076e-004  -1.0490e+006  -7.1979e+004   1.0553e+006    0.0000    0.0049    0.0000    0.0000    0.0176
                1.2528  -2.1534e-004   6.1395e-005   1.1912e-004  -6.1803e+006  -3.7652e+005   8.3382e+005    0.0000    0.0290    0.0000    0.0000    0.0139
                1.4830  -3.1212e-004   8.9272e-005   8.6477e-005  -8.9559e+006  -5.4137e+005   6.0534e+005    0.0000    0.0420    0.0000    0.0000    0.0101

            panel:  3     
           lam_num    nPlies        tPly      fibAng     matID  matName
               (-)       (-)         (m)       (deg)       (-)  (-)
                 1         1    0.005000      0.0000         2  (blade-shell)
                 2         1    0.058835      0.0000         6  (TEP-core)
                 3         1    0.005000      0.0000         2  (blade-shell)

               lamina:  1     
              matName:  (blade-shell)
                     s           e11           e22           e12           s11           s22           s12   s11_fcT   s11_fcC   s22_fcT   s22_fcC   s12_fcS
                   (m)         (m/m)         (m/m)         (rad)          (Pa)          (Pa)          (Pa)       (-)       (-)       (-)       (-)       (-)
                0.0000  -3.8668e-004   1.5090e-004   5.7833e-004  -1.0850e+007  -5.7417e+004   4.0483e+006    0.0000    0.0509    0.0000    0.0000    0.0675
                0.0075  -3.8996e-004   1.5218e-004   5.7791e-004  -1.0942e+007  -5.7914e+004   4.0453e+006    0.0000    0.0514    0.0000    0.0000    0.0674

               lamina:  2     
              matName:  (TEP-core)
                     s           e11           e22           e12           s11           s22           s12   s11_fcT   s11_fcC   s22_fcT   s22_fcC   s12_fcS
                   (m)         (m/m)         (m/m)         (rad)          (Pa)          (Pa)          (Pa)       (-)       (-)       (-)       (-)       (-)
                0.0000  -3.8513e-004   1.5029e-004   5.7833e-004  -9.7157e+004   9.9272e+003   1.1567e+004    0.0000    0.0000    0.0000   -0.0000    0.0000
                0.0075  -3.8842e-004   1.5157e-004   5.7791e-004  -9.7986e+004   1.0012e+004   1.1558e+004    0.0000    0.0000    0.0000   -0.0000    0.0000

               lamina:  3     
              matName:  (blade-shell)
                     s           e11           e22           e12           s11           s22           s12   s11_fcT   s11_fcC   s22_fcT   s22_fcC   s12_fcS
                   (m)         (m/m)         (m/m)         (rad)          (Pa)          (Pa)          (Pa)       (-)       (-)       (-)       (-)       (-)
                0.0000  -3.6700e-004   1.4309e-004   5.7833e-004  -1.0299e+007  -5.6510e+004   4.0483e+006    0.0000    0.0483    0.0000    0.0000    0.0675
                0.0075  -3.7028e-004   1.4437e-004   5.7791e-004  -1.0391e+007  -5.7007e+004   4.0453e+006    0.0000    0.0488    0.0000    0.0000    0.0674

            panel:  4     
           lam_num    nPlies        tPly      fibAng     matID  matName
               (-)       (-)         (m)       (deg)       (-)  (-)
                 1         1    0.005000      0.0000         2  (blade-shell)
                 2         1    0.058835      0.0000         6  (TEP-core)
                 3         1    0.005000      0.0000         2  (blade-shell)

               lamina:  1     
              matName:  (blade-shell)
                     s           e11           e22           e12           s11           s22           s12   s11_fcT   s11_fcC   s22_fcT   s22_fcC   s12_fcS
                   (m)         (m/m)         (m/m)         (rad)          (Pa)          (Pa)          (Pa)       (-)       (-)       (-)       (-)       (-)
                0.0000  -3.8996e-004   1.5218e-004   7.0243e-004  -1.0942e+007  -5.7914e+004   4.9170e+006    0.0000    0.0514    0.0000    0.0000    0.0819
                0.1858  -4.7190e-004   1.8414e-004   7.0201e-004  -1.3241e+007  -7.0263e+004   4.9140e+006    0.0000    0.0622    0.0000    0.0000    0.0819
                0.6198  -6.5781e-004   2.5666e-004   7.0201e-004  -1.8458e+007  -9.8360e+004   4.9140e+006    0.0000    0.0867    0.0000    0.0000    0.0819
                1.0541  -8.4076e-004   3.2802e-004   6.9040e-004  -2.3592e+007  -1.2603e+005   4.8328e+006    0.0000    0.1108    0.0000    0.0000    0.0805
                1.4799  -1.0195e-003   3.9775e-004   6.5467e-004  -2.8608e+007  -1.5310e+005   4.5827e+006    0.0000    0.1343    0.0000    0.0000    0.0764
                1.8899  -1.1926e-003   4.6527e-004   6.0702e-004  -3.3466e+007  -1.7932e+005   4.2492e+006    0.0000    0.1571    0.0000    0.0000    0.0708
                1.9464  -1.2165e-003   4.7459e-004   5.4886e-004  -3.4136e+007  -1.8298e+005   3.8421e+006    0.0000    0.1603    0.0000    0.0000    0.0640

               lamina:  2     
              matName:  (TEP-core)
                     s           e11           e22           e12           s11           s22           s12   s11_fcT   s11_fcC   s22_fcT   s22_fcC   s12_fcS
                   (m)         (m/m)         (m/m)         (rad)          (Pa)          (Pa)          (Pa)       (-)       (-)       (-)       (-)       (-)
                0.0000  -3.8842e-004   1.5157e-004   7.0243e-004  -9.7986e+004   1.0012e+004   1.4049e+004    0.0000    0.0000    0.0000   -0.0000    0.0000
                0.1858  -4.7028e-004   1.8350e-004   7.0201e-004  -1.1864e+005   1.2119e+004   1.4040e+004    0.0000    0.0000    0.0000   -0.0000    0.0000
                0.6198  -6.5613e-004   2.5599e-004   7.0201e-004  -1.6552e+005   1.6901e+004   1.4040e+004    0.0000    0.0000    0.0000   -0.0000    0.0000
                1.0541  -8.3904e-004   3.2734e-004   6.9040e-004  -2.1167e+005   2.1608e+004   1.3808e+004    0.0000    0.0000    0.0000   -0.0000    0.0000
                1.4799  -1.0178e-003   3.9708e-004   6.5467e-004  -2.5677e+005   2.6208e+004   1.3093e+004    0.0000    0.0000    0.0000   -0.0000    0.0000
                1.8899  -1.1910e-003   4.6460e-004   6.0702e-004  -3.0045e+005   3.0662e+004   1.2140e+004    0.0000    0.0000    0.0000   -0.0000    0.0000
                1.9464  -1.2149e-003   4.7394e-004   5.4886e-004  -3.0649e+005   3.1278e+004   1.0977e+004    0.0000    0.0000    0.0000   -0.0000    0.0000

               lamina:  3     
              matName:  (blade-shell)
                     s           e11           e22           e12           s11           s22           s12   s11_fcT   s11_fcC   s22_fcT   s22_fcC   s12_fcS
                   (m)         (m/m)         (m/m)         (rad)          (Pa)          (Pa)          (Pa)       (-)       (-)       (-)       (-)       (-)
                0.0000  -3.7028e-004   1.4437e-004   7.0243e-004  -1.0391e+007  -5.7007e+004   4.9170e+006    0.0000    0.0488    0.0000    0.0000    0.0819
                0.1858  -4.5126e-004   1.7595e-004   7.0201e-004  -1.2663e+007  -6.9312e+004   4.9140e+006    0.0000    0.0595    0.0000    0.0000    0.0819
                0.6198  -6.3637e-004   2.4815e-004   7.0201e-004  -1.7857e+007  -9.7373e+004   4.9140e+006    0.0000    0.0838    0.0000    0.0000    0.0819
                1.0541  -8.1889e-004   3.1934e-004   6.9040e-004  -2.2979e+007  -1.2502e+005   4.8328e+006    0.0000    0.1079    0.0000    0.0000    0.0805
                1.4799  -9.9777e-004   3.8911e-004   6.5467e-004  -2.7998e+007  -1.5210e+005   4.5827e+006    0.0000    0.1314    0.0000    0.0000    0.0764
                1.8899  -1.1711e-003   4.5674e-004   6.0702e-004  -3.2863e+007  -1.7833e+005   4.2492e+006    0.0000    0.1543    0.0000    0.0000    0.0708
                1.9464  -1.1958e-003   4.6634e-004   5.4886e-004  -3.3554e+007  -1.8202e+005   3.8421e+006    0.0000    0.1575    0.0000    0.0000    0.0640

            panel:  5     
           lam_num    nPlies        tPly      fibAng     matID  matName
               (-)       (-)         (m)       (deg)       (-)  (-)
                 1         1    0.005000      0.0000         2  (blade-shell)
                 2         1    0.058835      0.0000         6  (TEP-core)
                 3         1    0.005000      0.0000         2  (blade-shell)

               lamina:  1     
              matName:  (blade-shell)
                     s           e11           e22           e12           s11           s22           s12   s11_fcT   s11_fcC   s22_fcT   s22_fcC   s12_fcS
                   (m)         (m/m)         (m/m)         (rad)          (Pa)          (Pa)          (Pa)       (-)       (-)       (-)       (-)       (-)
                0.0000  -1.2165e-003   4.7459e-004   4.8214e-004  -3.4136e+007  -1.8298e+005   3.3750e+006    0.0000    0.1603    0.0000    0.0000    0.0562
                0.3314  -1.3586e-003   5.3000e-004   4.7211e-004  -3.8123e+007  -2.0452e+005   3.3048e+006    0.0000    0.1790    0.0000    0.0000    0.0551
                0.6917  -1.5159e-003   5.9134e-004   5.4815e-004  -4.2536e+007  -2.2841e+005   3.8371e+006    0.0000    0.1997    0.0000    0.0000    0.0640
                1.0198  -1.6631e-003   6.4874e-004   4.8523e-004  -4.6666e+007  -2.5081e+005   3.3966e+006    0.0000    0.2191    0.0000    0.0000    0.0566
                1.3129  -1.7986e-003   7.0159e-004   4.0879e-004  -5.0469e+007  -2.7146e+005   2.8615e+006    0.0000    0.2369    0.0000    0.0000    0.0477
                1.5704  -1.9206e-003   7.4917e-004   3.3169e-004  -5.3893e+007  -2.9009e+005   2.3218e+006    0.0000    0.2530    0.0000    0.0000    0.0387
                1.7914  -2.0275e-003   7.9087e-004   2.5659e-004  -5.6893e+007  -3.0645e+005   1.7961e+006    0.0000    0.2671    0.0000    0.0000    0.0299
                1.9754  -2.1178e-003   8.2608e-004   1.8564e-004  -5.9427e+007  -3.2031e+005   1.2995e+006    0.0000    0.2790    0.0000    0.0000    0.0217
                2.1218  -2.1900e-003   8.5421e-004   1.2092e-004  -6.1452e+007  -3.3143e+005   8.4646e+005    0.0000    0.2885    0.0000    0.0000    0.0141
                2.2293  -2.2430e-003   8.7488e-004   6.4306e-005  -6.2939e+007  -3.3961e+005   4.5014e+005    0.0000    0.2955    0.0000    0.0000    0.0075
                2.2845  -2.2762e-003   8.8788e-004   1.7442e-005  -6.3872e+007  -3.4408e+005   1.2209e+005    0.0000    0.2999    0.0000    0.0000    0.0020
                2.2951  -2.2872e-003   8.9223e-004   1.7989e-005  -6.4178e+007  -3.4445e+005   1.2593e+005    0.0000    0.3013    0.0000    0.0000    0.0021

               lamina:  2     
              matName:  (TEP-core)
                     s           e11           e22           e12           s11           s22           s12   s11_fcT   s11_fcC   s22_fcT   s22_fcC   s12_fcS
                   (m)         (m/m)         (m/m)         (rad)          (Pa)          (Pa)          (Pa)       (-)       (-)       (-)       (-)       (-)
                0.0000  -1.2149e-003   4.7394e-004   4.8214e-004  -3.0649e+005   3.1278e+004   9.6428e+003    0.0000    0.0000    0.0000   -0.0000    0.0000
                0.3314  -1.3570e-003   5.2938e-004   4.7211e-004  -3.4235e+005   3.4934e+004   9.4422e+003    0.0000    0.0000    0.0000   -0.0000    0.0000
                0.6917  -1.5144e-003   5.9076e-004   5.4815e-004  -3.8205e+005   3.8982e+004   1.0963e+004    0.0000    0.0000    0.0000   -0.0000    0.0000
                1.0198  -1.6618e-003   6.4822e-004   4.8523e-004  -4.1922e+005   4.2771e+004   9.7046e+003    0.0000    0.0000    0.0000   -0.0000    0.0000
                1.3129  -1.7975e-003   7.0115e-004   4.0879e-004  -4.5346e+005   4.6260e+004   8.1757e+003    0.0000    0.0000    0.0000   -0.0000    0.0000
                1.5704  -1.9197e-003   7.4882e-004   3.3169e-004  -4.8430e+005   4.9403e+004   6.6338e+003    0.0000    0.0000    0.0000   -0.0000    0.0000
                1.7914  -2.0269e-003   7.9061e-004   2.5659e-004  -5.1134e+005   5.2157e+004   5.1317e+003    0.0000    0.0000    0.0000   -0.0000    0.0000
                1.9754  -2.1174e-003   8.2592e-004   1.8564e-004  -5.3418e+005   5.4484e+004   3.7128e+003    0.0000    0.0000    0.0000   -0.0000    0.0000
                2.1218  -2.1899e-003   8.5416e-004   1.2092e-004  -5.5246e+005   5.6345e+004   2.4185e+003    0.0000    0.0000    0.0000   -0.0000    0.0000
                2.2293  -2.2444e-003   8.7543e-004   6.4306e-005  -5.6622e+005   5.7748e+004   1.2861e+003    0.0000    0.0000    0.0000   -0.0000    0.0000
                2.2845  -2.2755e-003   8.8761e-004   1.7442e-005  -5.7407e+005   5.8556e+004   3.4884e+002    0.0000    0.0000    0.0000   -0.0000    0.0000
                2.2951  -2.2847e-003   8.9126e-004   1.7989e-005  -5.7638e+005   5.8812e+004   3.5979e+002    0.0000    0.0000    0.0000   -0.0000    0.0000

               lamina:  3     
              matName:  (blade-shell)
                     s           e11           e22           e12           s11           s22           s12   s11_fcT   s11_fcC   s22_fcT   s22_fcC   s12_fcS
                   (m)         (m/m)         (m/m)         (rad)          (Pa)          (Pa)          (Pa)       (-)       (-)       (-)       (-)       (-)
                0.0000  -1.1958e-003   4.6634e-004   4.8214e-004  -3.3554e+007  -1.8202e+005   3.3750e+006    0.0000    0.1575    0.0000    0.0000    0.0562
                0.3314  -1.3384e-003   5.2200e-004   4.7211e-004  -3.7558e+007  -2.0359e+005   3.3048e+006    0.0000    0.1763    0.0000    0.0000    0.0551
                0.6917  -1.4972e-003   5.8391e-004   5.4815e-004  -4.2011e+007  -2.2754e+005   3.8371e+006    0.0000    0.1972    0.0000    0.0000    0.0640
                1.0198  -1.6465e-003   6.4215e-004   4.8523e-004  -4.6201e+007  -2.5004e+005   3.3966e+006    0.0000    0.2169    0.0000    0.0000    0.0566
                1.3129  -1.7845e-003   6.9599e-004   4.0879e-004  -5.0073e+007  -2.7081e+005   2.8615e+006    0.0000    0.2351    0.0000    0.0000    0.0477
                1.5704  -1.9092e-003   7.4467e-004   3.3169e-004  -5.3574e+007  -2.8957e+005   2.3218e+006    0.0000    0.2515    0.0000    0.0000    0.0387
                1.7914  -2.0193e-003   7.8759e-004   2.5659e-004  -5.6661e+007  -3.0607e+005   1.7961e+006    0.0000    0.2660    0.0000    0.0000    0.0299
                1.9754  -2.1128e-003   8.2409e-004   1.8564e-004  -5.9287e+007  -3.2007e+005   1.2995e+006    0.0000    0.2783    0.0000    0.0000    0.0217
                2.1218  -2.1885e-003   8.5361e-004   1.2092e-004  -6.1409e+007  -3.3136e+005   8.4646e+005    0.0000    0.2883    0.0000    0.0000    0.0141
                2.2293  -2.2445e-003   8.7548e-004   6.4306e-005  -6.2982e+007  -3.3968e+005   4.5014e+005    0.0000    0.2957    0.0000    0.0000    0.0075
                2.2845  -2.2676e-003   8.8444e-004   1.7442e-005  -6.3629e+007  -3.4368e+005   1.2209e+005    0.0000    0.2987    0.0000    0.0000    0.0020
                2.2951  -2.2560e-003   8.7985e-004   1.7989e-005  -6.3304e+007  -3.4302e+005   1.2593e+005    0.0000    0.2972    0.0000    0.0000    0.0021

     Web:  panel  nNode   nLam     xc_St    xc_End         b         t         E_eff         G_eff      nu_eff     density  buckleCrit
            (-)    (-)    (-)       (-)       (-)       (m)       (m)          (Pa)          (Pa)         (-)    (kg/m^3)         (-)
              1     10      3    0.2837    0.2837    2.8651    0.0830   7.6445e+008   4.5301e+008      0.4420    257.1084      0.0009
              2     10      3    0.4772    0.4772    2.3747    0.0830   7.6445e+008   4.5301e+008      0.4420    257.1084      0.0007
              3     10      3    0.7101    0.7101    1.0844    0.0830   7.6445e+008   4.5301e+008      0.4420    257.1084      0.0001

            panel:  1     
           lam_num    nPlies        tPly      fibAng     matID  matName
               (-)       (-)         (m)       (deg)       (-)  (-)
                 1         1    0.001500      0.0000         7  (web-shell)
                 2         1    0.080000      0.0000         8  (web-core)
                 3         1    0.001500      0.0000         7  (web-shell)

               lamina:  1     
              matName:  (web-shell)
                     s           e11           e22           e12           s11           s22           s12   s11_fcT   s11_fcC   s22_fcT   s22_fcC   s12_fcS
                   (m)         (m/m)         (m/m)         (rad)          (Pa)          (Pa)          (Pa)       (-)       (-)       (-)       (-)       (-)
                0.0000   5.2799e-004  -2.3245e-004   1.8957e-004   7.6863e+006   5.8886e+005   2.2749e+006    0.0534   -0.0000    0.0000   -0.0000    0.0253
                0.3183   5.0283e-004  -2.2133e-004   2.0001e-004   7.3204e+006   5.6163e+005   2.4002e+006    0.0508   -0.0000    0.0000   -0.0000    0.0267
                0.6367   4.7766e-004  -2.1020e-004   2.0997e-004   6.9545e+006   5.3440e+005   2.5196e+006    0.0483   -0.0000    0.0000   -0.0000    0.0280
                0.9550   4.5250e-004  -1.9908e-004   2.1944e-004   6.5886e+006   5.0717e+005   2.6333e+006    0.0458   -0.0000    0.0000   -0.0000    0.0293
                1.2734   4.2734e-004  -1.8796e-004   2.2843e-004   6.2227e+006   4.7994e+005   2.7411e+006    0.0432   -0.0000    0.0000   -0.0000    0.0305
                1.5917   4.0217e-004  -1.7683e-004   2.3693e-004   5.8568e+006   4.5271e+005   2.8432e+006    0.0407   -0.0000    0.0000   -0.0000    0.0316
                1.9101   3.7701e-004  -1.6571e-004   2.4495e-004   5.4909e+006   4.2548e+005   2.9394e+006    0.0381   -0.0000    0.0000   -0.0000    0.0327
                2.2284   3.5185e-004  -1.5459e-004   2.5248e-004   5.1250e+006   3.9825e+005   3.0298e+006    0.0356   -0.0000    0.0000   -0.0000    0.0337
                2.5468   3.2668e-004  -1.4347e-004   2.5953e-004   4.7591e+006   3.7102e+005   3.1144e+006    0.0330   -0.0000    0.0000   -0.0000    0.0346
                2.8651   3.0152e-004  -1.3234e-004   2.6610e-004   4.3932e+006   3.4379e+005   3.1932e+006    0.0305   -0.0000    0.0000   -0.0000    0.0355

               lamina:  2     
              matName:  (web-core)
                     s           e11           e22           e12           s11           s22           s12   s11_fcT   s11_fcC   s22_fcT   s22_fcC   s12_fcS
                   (m)         (m/m)         (m/m)         (rad)          (Pa)          (Pa)          (Pa)       (-)       (-)       (-)       (-)       (-)
                0.0000   5.8190e-004  -2.5815e-004   1.8957e-004   1.4413e+005  -2.3881e+004   3.7915e+003    0.0000   -0.0000    0.0000    0.0000    0.0000
                0.3183   5.5673e-004  -2.4703e-004   2.0001e-004   1.3789e+005  -2.2860e+004   4.0003e+003    0.0000   -0.0000    0.0000    0.0000    0.0000
                0.6367   5.3157e-004  -2.3591e-004   2.0997e-004   1.3166e+005  -2.1839e+004   4.1994e+003    0.0000   -0.0000    0.0000    0.0000    0.0000
                0.9550   5.0641e-004  -2.2478e-004   2.1944e-004   1.2542e+005  -2.0818e+004   4.3888e+003    0.0000   -0.0000    0.0000    0.0000    0.0000
                1.2734   4.8124e-004  -2.1366e-004   2.2843e-004   1.1918e+005  -1.9797e+004   4.5686e+003    0.0000   -0.0000    0.0000    0.0000    0.0000
                1.5917   4.5608e-004  -2.0254e-004   2.3693e-004   1.1295e+005  -1.8776e+004   4.7386e+003    0.0000   -0.0000    0.0000    0.0000    0.0000
                1.9101   4.3092e-004  -1.9142e-004   2.4495e-004   1.0671e+005  -1.7754e+004   4.8990e+003    0.0000   -0.0000    0.0000    0.0000    0.0000
                2.2284   4.0575e-004  -1.8029e-004   2.5248e-004   1.0048e+005  -1.6733e+004   5.0497e+003    0.0000   -0.0000    0.0000    0.0000    0.0000
                2.5468   3.8059e-004  -1.6917e-004   2.5953e-004   9.4240e+004  -1.5712e+004   5.1907e+003    0.0000   -0.0000    0.0000    0.0000    0.0000
                2.8651   3.5543e-004  -1.5805e-004   2.6610e-004   8.8004e+004  -1.4691e+004   5.3220e+003    0.0000   -0.0000    0.0000    0.0000    0.0000

               lamina:  3     
              matName:  (web-shell)
                     s           e11           e22           e12           s11           s22           s12   s11_fcT   s11_fcC   s22_fcT   s22_fcC   s12_fcS
                   (m)         (m/m)         (m/m)         (rad)          (Pa)          (Pa)          (Pa)       (-)       (-)       (-)       (-)       (-)
                0.0000   5.8291e-004  -2.5864e-004   1.8957e-004   8.4670e+006   6.1262e+005   2.2749e+006    0.0588   -0.0000    0.0000   -0.0000    0.0253
                0.3183   5.5775e-004  -2.4751e-004   2.0001e-004   8.1011e+006   5.8539e+005   2.4002e+006    0.0563   -0.0000    0.0000   -0.0000    0.0267
                0.6367   5.3258e-004  -2.3639e-004   2.0997e-004   7.7352e+006   5.5816e+005   2.5196e+006    0.0537   -0.0000    0.0000   -0.0000    0.0280
                0.9550   5.0742e-004  -2.2527e-004   2.1944e-004   7.3693e+006   5.3093e+005   2.6333e+006    0.0512   -0.0000    0.0000   -0.0000    0.0293
                1.2734   4.8226e-004  -2.1414e-004   2.2843e-004   7.0034e+006   5.0370e+005   2.7411e+006    0.0486   -0.0000    0.0000   -0.0000    0.0305
                1.5917   4.5709e-004  -2.0302e-004   2.3693e-004   6.6375e+006   4.7647e+005   2.8432e+006    0.0461   -0.0000    0.0000   -0.0000    0.0316
                1.9101   4.3193e-004  -1.9190e-004   2.4495e-004   6.2716e+006   4.4924e+005   2.9394e+006    0.0436   -0.0000    0.0000   -0.0000    0.0327
                2.2284   4.0677e-004  -1.8077e-004   2.5248e-004   5.9057e+006   4.2201e+005   3.0298e+006    0.0410   -0.0000    0.0000   -0.0000    0.0337
                2.5468   3.8160e-004  -1.6965e-004   2.5953e-004   5.5398e+006   3.9478e+005   3.1144e+006    0.0385   -0.0000    0.0000   -0.0000    0.0346
                2.8651   3.5644e-004  -1.5853e-004   2.6610e-004   5.1739e+006   3.6755e+005   3.1932e+006    0.0359   -0.0000    0.0000   -0.0000    0.0355

            panel:  2     
           lam_num    nPlies        tPly      fibAng     matID  matName
               (-)       (-)         (m)       (deg)       (-)  (-)
                 1         1    0.001500      0.0000         7  (web-shell)
                 2         1    0.080000      0.0000         8  (web-core)
                 3         1    0.001500      0.0000         7  (web-shell)

               lamina:  1     
              matName:  (web-shell)
                     s           e11           e22           e12           s11           s22           s12   s11_fcT   s11_fcC   s22_fcT   s22_fcC   s12_fcS
                   (m)         (m/m)         (m/m)         (rad)          (Pa)          (Pa)          (Pa)       (-)       (-)       (-)       (-)       (-)
                0.0000  -2.1680e-004   9.6805e-005   2.7587e-004  -3.1434e+006  -2.1643e+005   3.3105e+006    0.0000    0.0148    0.0000    0.0000    0.0368
                0.2639  -2.3699e-004   1.0573e-004   2.7270e-004  -3.4370e+006  -2.3828e+005   3.2724e+006    0.0000    0.0161    0.0000    0.0000    0.0364
                0.5277  -2.5719e-004   1.1466e-004   2.6920e-004  -3.7307e+006  -2.6013e+005   3.2304e+006    0.0000    0.0175    0.0000    0.0000    0.0359
                0.7916  -2.7738e-004   1.2358e-004   2.6539e-004  -4.0243e+006  -2.8198e+005   3.1846e+006    0.0000    0.0189    0.0000    0.0000    0.0354
                1.0554  -2.9757e-004   1.3251e-004   2.6125e-004  -4.3179e+006  -3.0383e+005   3.1350e+006    0.0000    0.0203    0.0000    0.0000    0.0348
                1.3193  -3.1776e-004   1.4143e-004   2.5679e-004  -4.6115e+006  -3.2568e+005   3.0814e+006    0.0000    0.0217    0.0000    0.0000    0.0342
                1.5832  -3.3796e-004   1.5036e-004   2.5200e-004  -4.9052e+006  -3.4754e+005   3.0240e+006    0.0000    0.0230    0.0000    0.0000    0.0336
                1.8470  -3.5815e-004   1.5929e-004   2.4690e-004  -5.1988e+006  -3.6939e+005   2.9628e+006    0.0000    0.0244    0.0000    0.0000    0.0329
                2.1109  -3.7834e-004   1.6821e-004   2.4147e-004  -5.4924e+006  -3.9124e+005   2.8976e+006    0.0000    0.0258    0.0000    0.0000    0.0322
                2.3747  -3.9854e-004   1.7714e-004   2.3572e-004  -5.7861e+006  -4.1309e+005   2.8286e+006    0.0000    0.0272    0.0000    0.0000    0.0314

               lamina:  2     
              matName:  (web-core)
                     s           e11           e22           e12           s11           s22           s12   s11_fcT   s11_fcC   s22_fcT   s22_fcC   s12_fcS
                   (m)         (m/m)         (m/m)         (rad)          (Pa)          (Pa)          (Pa)       (-)       (-)       (-)       (-)       (-)
                0.0000  -2.1579e-004   9.6323e-005   2.7587e-004  -5.3397e+004   9.0248e+003   5.5174e+003    0.0000    0.0000    0.0000   -0.0000    0.0000
                0.2639  -2.3598e-004   1.0525e-004   2.7270e-004  -5.8402e+004   9.8442e+003   5.4540e+003    0.0000    0.0000    0.0000   -0.0000    0.0000
                0.5277  -2.5617e-004   1.1417e-004   2.6920e-004  -6.3406e+004   1.0664e+004   5.3841e+003    0.0000    0.0000    0.0000   -0.0000    0.0000
                0.7916  -2.7637e-004   1.2310e-004   2.6539e-004  -6.8410e+004   1.1483e+004   5.3077e+003    0.0000    0.0000    0.0000   -0.0000    0.0000
                1.0554  -2.9656e-004   1.3203e-004   2.6125e-004  -7.3415e+004   1.2302e+004   5.2249e+003    0.0000    0.0000    0.0000   -0.0000    0.0000
                1.3193  -3.1675e-004   1.4095e-004   2.5679e-004  -7.8419e+004   1.3122e+004   5.1357e+003    0.0000    0.0000    0.0000   -0.0000    0.0000
                1.5832  -3.3695e-004   1.4988e-004   2.5200e-004  -8.3424e+004   1.3941e+004   5.0400e+003    0.0000    0.0000    0.0000   -0.0000    0.0000
                1.8470  -3.5714e-004   1.5880e-004   2.4690e-004  -8.8428e+004   1.4761e+004   4.9379e+003    0.0000    0.0000    0.0000   -0.0000    0.0000
                2.1109  -3.7733e-004   1.6773e-004   2.4147e-004  -9.3432e+004   1.5580e+004   4.8294e+003    0.0000    0.0000    0.0000   -0.0000    0.0000
                2.3747  -3.9753e-004   1.7666e-004   2.3572e-004  -9.8437e+004   1.6400e+004   4.7144e+003    0.0000    0.0000    0.0000   -0.0000    0.0000

               lamina:  3     
              matName:  (web-shell)
                     s           e11           e22           e12           s11           s22           s12   s11_fcT   s11_fcC   s22_fcT   s22_fcC   s12_fcS
                   (m)         (m/m)         (m/m)         (rad)          (Pa)          (Pa)          (Pa)       (-)       (-)       (-)       (-)       (-)
                0.0000  -1.6184e-004   7.0599e-005   2.7587e-004  -2.3621e+006  -1.9265e+005   3.3105e+006    0.0000    0.0111    0.0000    0.0000    0.0368
                0.2639  -1.8203e-004   7.9525e-005   2.7270e-004  -2.6557e+006  -2.1450e+005   3.2724e+006    0.0000    0.0125    0.0000    0.0000    0.0364
                0.5277  -2.0222e-004   8.8451e-005   2.6920e-004  -2.9493e+006  -2.3635e+005   3.2304e+006    0.0000    0.0138    0.0000    0.0000    0.0359
                0.7916  -2.2242e-004   9.7377e-005   2.6539e-004  -3.2429e+006  -2.5820e+005   3.1846e+006    0.0000    0.0152    0.0000    0.0000    0.0354
                1.0554  -2.4261e-004   1.0630e-004   2.6125e-004  -3.5366e+006  -2.8005e+005   3.1350e+006    0.0000    0.0166    0.0000    0.0000    0.0348
                1.3193  -2.6280e-004   1.1523e-004   2.5679e-004  -3.8302e+006  -3.0191e+005   3.0814e+006    0.0000    0.0180    0.0000    0.0000    0.0342
                1.5832  -2.8300e-004   1.2415e-004   2.5200e-004  -4.1238e+006  -3.2376e+005   3.0240e+006    0.0000    0.0194    0.0000    0.0000    0.0336
                1.8470  -3.0319e-004   1.3308e-004   2.4690e-004  -4.4175e+006  -3.4561e+005   2.9628e+006    0.0000    0.0207    0.0000    0.0000    0.0329
                2.1109  -3.2338e-004   1.4201e-004   2.4147e-004  -4.7111e+006  -3.6746e+005   2.8976e+006    0.0000    0.0221    0.0000    0.0000    0.0322
                2.3747  -3.4358e-004   1.5093e-004   2.3572e-004  -5.0047e+006  -3.8931e+005   2.8286e+006    0.0000    0.0235    0.0000    0.0000    0.0314

            panel:  3     
           lam_num    nPlies        tPly      fibAng     matID  matName
               (-)       (-)         (m)       (deg)       (-)  (-)
                 1         1    0.001500      0.0000         7  (web-shell)
                 2         1    0.080000      0.0000         8  (web-core)
                 3         1    0.001500      0.0000         7  (web-shell)

               lamina:  1     
              matName:  (web-shell)
                     s           e11           e22           e12           s11           s22           s12   s11_fcT   s11_fcC   s22_fcT   s22_fcC   s12_fcS
                   (m)         (m/m)         (m/m)         (rad)          (Pa)          (Pa)          (Pa)       (-)       (-)       (-)       (-)       (-)
                0.0000  -1.1415e-003   5.0555e-004   2.1967e-004  -1.6589e+007  -1.2171e+006   2.6360e+006    0.0000    0.0779    0.0000    0.0000    0.0293
                0.1205  -1.1507e-003   5.0960e-004   2.1152e-004  -1.6723e+007  -1.2270e+006   2.5382e+006    0.0000    0.0785    0.0000    0.0000    0.0282
                0.2410  -1.1598e-003   5.1365e-004   2.0331e-004  -1.6856e+007  -1.2369e+006   2.4397e+006    0.0000    0.0791    0.0000    0.0000    0.0271
                0.3615  -1.1690e-003   5.1771e-004   1.9503e-004  -1.6989e+007  -1.2468e+006   2.3403e+006    0.0000    0.0798    0.0000    0.0000    0.0260
                0.4820  -1.1782e-003   5.2176e-004   1.8668e-004  -1.7123e+007  -1.2568e+006   2.2402e+006    0.0000    0.0804    0.0000    0.0000    0.0249
                0.6024  -1.1873e-003   5.2582e-004   1.7827e-004  -1.7256e+007  -1.2667e+006   2.1392e+006    0.0000    0.0810    0.0000    0.0000    0.0238
                0.7229  -1.1965e-003   5.2987e-004   1.6979e-004  -1.7390e+007  -1.2766e+006   2.0375e+006    0.0000    0.0816    0.0000    0.0000    0.0226
                0.8434  -1.2057e-003   5.3392e-004   1.6124e-004  -1.7523e+007  -1.2865e+006   1.9349e+006    0.0000    0.0823    0.0000    0.0000    0.0215
                0.9639  -1.2149e-003   5.3798e-004   1.5263e-004  -1.7656e+007  -1.2965e+006   1.8316e+006    0.0000    0.0829    0.0000    0.0000    0.0204
                1.0844  -1.2240e-003   5.4203e-004   1.4395e-004  -1.7790e+007  -1.3064e+006   1.7274e+006    0.0000    0.0835    0.0000    0.0000    0.0192

               lamina:  2     
              matName:  (web-core)
                     s           e11           e22           e12           s11           s22           s12   s11_fcT   s11_fcC   s22_fcT   s22_fcC   s12_fcS
                   (m)         (m/m)         (m/m)         (rad)          (Pa)          (Pa)          (Pa)       (-)       (-)       (-)       (-)       (-)
                0.0000  -1.1405e-003   5.0506e-004   2.1967e-004  -2.8256e+005   4.6548e+004   4.3933e+003    0.0000    0.0000    0.0000   -0.0000    0.0000
                0.1205  -1.1496e-003   5.0912e-004   2.1152e-004  -2.8483e+005   4.6921e+004   4.2304e+003    0.0000    0.0000    0.0000   -0.0000    0.0000
                0.2410  -1.1588e-003   5.1317e-004   2.0331e-004  -2.8711e+005   4.7293e+004   4.0662e+003    0.0000    0.0000    0.0000   -0.0000    0.0000
                0.3615  -1.1680e-003   5.1723e-004   1.9503e-004  -2.8938e+005   4.7665e+004   3.9006e+003    0.0000    0.0000    0.0000   -0.0000    0.0000
                0.4820  -1.1772e-003   5.2128e-004   1.8668e-004  -2.9165e+005   4.8037e+004   3.7337e+003    0.0000    0.0000    0.0000   -0.0000    0.0000
                0.6024  -1.1863e-003   5.2533e-004   1.7827e-004  -2.9392e+005   4.8409e+004   3.5654e+003    0.0000    0.0000    0.0000   -0.0000    0.0000
                0.7229  -1.1955e-003   5.2939e-004   1.6979e-004  -2.9620e+005   4.8782e+004   3.3958e+003    0.0000    0.0000    0.0000   -0.0000    0.0000
                0.8434  -1.2047e-003   5.3344e-004   1.6124e-004  -2.9847e+005   4.9154e+004   3.2249e+003    0.0000    0.0000    0.0000   -0.0000    0.0000
                0.9639  -1.2139e-003   5.3750e-004   1.5263e-004  -3.0074e+005   4.9526e+004   3.0526e+003    0.0000    0.0000    0.0000   -0.0000    0.0000
                1.0844  -1.2230e-003   5.4155e-004   1.4395e-004  -3.0302e+005   4.9898e+004   2.8790e+003    0.0000    0.0000    0.0000   -0.0000    0.0000

               lamina:  3     
              matName:  (web-shell)
                     s           e11           e22           e12           s11           s22           s12   s11_fcT   s11_fcC   s22_fcT   s22_fcC   s12_fcS
                   (m)         (m/m)         (m/m)         (rad)          (Pa)          (Pa)          (Pa)       (-)       (-)       (-)       (-)       (-)
                0.0000  -1.0865e-003   4.7934e-004   2.1967e-004  -1.5808e+007  -1.1933e+006   2.6360e+006    0.0000    0.0742    0.0000    0.0000    0.0293
                0.1205  -1.0957e-003   4.8339e-004   2.1152e-004  -1.5941e+007  -1.2032e+006   2.5382e+006    0.0000    0.0748    0.0000    0.0000    0.0282
                0.2410  -1.1049e-003   4.8744e-004   2.0331e-004  -1.6075e+007  -1.2131e+006   2.4397e+006    0.0000    0.0755    0.0000    0.0000    0.0271
                0.3615  -1.1140e-003   4.9150e-004   1.9503e-004  -1.6208e+007  -1.2230e+006   2.3403e+006    0.0000    0.0761    0.0000    0.0000    0.0260
                0.4820  -1.1232e-003   4.9555e-004   1.8668e-004  -1.6341e+007  -1.2330e+006   2.2402e+006    0.0000    0.0767    0.0000    0.0000    0.0249
                0.6024  -1.1324e-003   4.9961e-004   1.7827e-004  -1.6475e+007  -1.2429e+006   2.1392e+006    0.0000    0.0773    0.0000    0.0000    0.0238
                0.7229  -1.1416e-003   5.0366e-004   1.6979e-004  -1.6608e+007  -1.2528e+006   2.0375e+006    0.0000    0.0780    0.0000    0.0000    0.0226
                0.8434  -1.1507e-003   5.0771e-004   1.6124e-004  -1.6741e+007  -1.2627e+006   1.9349e+006    0.0000    0.0786    0.0000    0.0000    0.0215
                0.9639  -1.1599e-003   5.1177e-004   1.5263e-004  -1.6875e+007  -1.2727e+006   1.8316e+006    0.0000    0.0792    0.0000    0.0000    0.0204
                1.0844  -1.1691e-003   5.1582e-004   1.4395e-004  -1.7008e+007  -1.2826e+006   1.7274e+006    0.0000    0.0799    0.0000    0.0000    0.0192

================================================================================
sec        =  16     
zSec       =  21.0000  (m)
nPanelsTop =  5      
nPanelsBot =  5      
nWebs      =  3      

    Top:  panel  nNode   nLam     xc_St    xc_End         b         t         E_eff         G_eff      nu_eff     density  buckleCrit
            (-)    (-)    (-)       (-)       (-)       (m)       (m)          (Pa)          (Pa)         (-)    (kg/m^3)         (-)
              1     12      3    0.0000    0.2827    2.7274    0.0700   4.2251e+009   1.0171e+009      0.3899    435.7143      0.0004
              2      6      5    0.2827    0.4753    1.4608    0.1446   4.1045e+010   3.2766e+009      0.2888   1915.1344      0.0000
              3      2      3    0.4753    0.4762    0.0070    0.0675   4.3716e+009   1.0540e+009      0.3903    444.4325      0.0000
              4      7      3    0.4762    0.7072    1.8162    0.0675   4.3716e+009   1.0540e+009      0.3903    444.4325      0.1110
              5     12      3    0.7072    1.0000    2.3279    0.0675   4.3716e+009   1.0540e+009      0.3903    444.4325      0.1348

            panel:  1     
           lam_num    nPlies        tPly      fibAng     matID  matName
               (-)       (-)         (m)       (deg)       (-)  (-)
                 1         1    0.005000      0.0000         2  (blade-shell)
                 2         1    0.060000      0.0000         5  (LEP-core)
                 3         1    0.005000      0.0000         2  (blade-shell)

               lamina:  1     
              matName:  (blade-shell)
                     s           e11           e22           e12           s11           s22           s12   s11_fcT   s11_fcC   s22_fcT   s22_fcC   s12_fcS
                   (m)         (m/m)         (m/m)         (rad)          (Pa)          (Pa)          (Pa)       (-)       (-)       (-)       (-)       (-)
                0.0000   1.5089e-003  -5.8843e-004   1.2851e-004   4.2341e+007   2.3023e+005   8.9956e+005    0.2940   -0.0000    0.0000   -0.0000    0.0150
                0.1649   1.5122e-003  -5.8970e-004   9.1587e-005   4.2433e+007   2.3074e+005   6.4111e+005    0.2947   -0.0000    0.0000   -0.0000    0.0107
                0.3613   1.4970e-003  -5.8380e-004   4.7772e-005   4.2008e+007   2.2847e+005   3.3441e+005    0.2917   -0.0000    0.0000   -0.0000    0.0056
                0.5590   1.4603e-003  -5.6947e-004   4.4234e-006   4.0978e+007   2.2298e+005   3.0964e+004    0.2846   -0.0000    0.0000   -0.0000    0.0005
                0.7736   1.4033e-003  -5.4723e-004   4.1167e-005   3.9378e+007   2.1438e+005   2.8817e+005    0.2735   -0.0000    0.0000   -0.0000    0.0048
                1.0092   1.3268e-003  -5.1739e-004   8.8951e-005   3.7231e+007   2.0279e+005   6.2266e+005    0.2585   -0.0000    0.0000   -0.0000    0.0104
                1.2636   1.2311e-003  -4.8005e-004   1.3730e-004   3.4545e+007   1.8827e+005   9.6113e+005    0.2399   -0.0000    0.0000   -0.0000    0.0160
                1.5378   1.1171e-003  -4.3559e-004   1.8518e-004   3.1346e+007   1.7092e+005   1.2963e+006    0.2177   -0.0000    0.0000   -0.0000    0.0216
                1.8330   9.8616e-004  -3.8454e-004   2.3140e-004   2.7673e+007   1.5097e+005   1.6198e+006    0.1922   -0.0000    0.0000   -0.0000    0.0270
                2.1467   8.3908e-004  -3.2719e-004   2.7405e-004   2.3546e+007   1.2854e+005   1.9184e+006    0.1635   -0.0000    0.0000   -0.0000    0.0320
                2.4801   6.7761e-004  -2.6422e-004   3.1177e-004   1.9015e+007   1.0385e+005   2.1824e+006    0.1320   -0.0000    0.0000   -0.0000    0.0364
                2.7274   5.5538e-004  -2.1656e-004   3.3451e-004   1.5585e+007   8.5140e+004   2.3415e+006    0.1082   -0.0000    0.0000   -0.0000    0.0390

               lamina:  2     
              matName:  (LEP-core)
                     s           e11           e22           e12           s11           s22           s12   s11_fcT   s11_fcC   s22_fcT   s22_fcC   s12_fcS
                   (m)         (m/m)         (m/m)         (rad)          (Pa)          (Pa)          (Pa)       (-)       (-)       (-)       (-)       (-)
                0.0000   1.5059e-003  -5.8724e-004   1.2851e-004   3.7992e+005  -3.8706e+004   2.5702e+003    0.0000   -0.0000    0.0000    0.0000    0.0000
                0.1649   1.5092e-003  -5.8851e-004   9.1587e-005   3.8075e+005  -3.8789e+004   1.8317e+003    0.0000   -0.0000    0.0000    0.0000    0.0000
                0.3613   1.4941e-003  -5.8264e-004   4.7772e-005   3.7695e+005  -3.8402e+004   9.5544e+002    0.0000   -0.0000    0.0000    0.0000    0.0000
                0.5590   1.4576e-003  -5.6841e-004   4.4234e-006   3.6774e+005  -3.7462e+004   8.8468e+001    0.0000   -0.0000    0.0000    0.0000    0.0000
                0.7736   1.4009e-003  -5.4626e-004   4.1167e-005   3.5342e+005  -3.6002e+004   8.2335e+002    0.0000   -0.0000    0.0000    0.0000    0.0000
                1.0092   1.3246e-003  -5.1652e-004   8.8951e-005   3.3419e+005  -3.4040e+004   1.7790e+003    0.0000   -0.0000    0.0000    0.0000    0.0000
                1.2636   1.2292e-003  -4.7931e-004   1.3730e-004   3.1011e+005  -3.1586e+004   2.7461e+003    0.0000   -0.0000    0.0000    0.0000    0.0000
                1.5378   1.1155e-003  -4.3496e-004   1.8518e-004   2.8142e+005  -2.8663e+004   3.7037e+003    0.0000   -0.0000    0.0000    0.0000    0.0000
                1.8330   9.8487e-004  -3.8403e-004   2.3140e-004   2.4847e+005  -2.5306e+004   4.6280e+003    0.0000   -0.0000    0.0000    0.0000    0.0000
                2.1467   8.3809e-004  -3.2679e-004   2.7405e-004   2.1144e+005  -2.1533e+004   5.4811e+003    0.0000   -0.0000    0.0000    0.0000    0.0000
                2.4801   6.7688e-004  -2.6393e-004   3.1177e-004   1.7077e+005  -1.7390e+004   6.2353e+003    0.0000   -0.0000    0.0000    0.0000    0.0000
                2.7274   5.5481e-004  -2.1633e-004   3.3451e-004   1.3997e+005  -1.4254e+004   6.6901e+003    0.0000   -0.0000    0.0000    0.0000    0.0000

               lamina:  3     
              matName:  (blade-shell)
                     s           e11           e22           e12           s11           s22           s12   s11_fcT   s11_fcC   s22_fcT   s22_fcC   s12_fcS
                   (m)         (m/m)         (m/m)         (rad)          (Pa)          (Pa)          (Pa)       (-)       (-)       (-)       (-)       (-)
                0.0000   1.4699e-003  -5.7295e-004   1.2851e-004   4.1248e+007   2.2839e+005   8.9956e+005    0.2864   -0.0000    0.0000   -0.0000    0.0150
                0.1649   1.4732e-003  -5.7424e-004   9.1587e-005   4.1341e+007   2.2890e+005   6.4111e+005    0.2871   -0.0000    0.0000   -0.0000    0.0107
                0.3613   1.4593e-003  -5.6881e-004   4.7772e-005   4.0950e+007   2.2670e+005   3.3441e+005    0.2844   -0.0000    0.0000   -0.0000    0.0056
                0.5590   1.4253e-003  -5.5557e-004   4.4234e-006   3.9997e+007   2.2133e+005   3.0964e+004    0.2778   -0.0000    0.0000   -0.0000    0.0005
                0.7736   1.3715e-003  -5.3461e-004   4.1167e-005   3.8487e+007   2.1288e+005   2.8817e+005    0.2673   -0.0000    0.0000   -0.0000    0.0048
                1.0092   1.2985e-003  -5.0617e-004   8.8951e-005   3.6439e+007   2.0146e+005   6.2266e+005    0.2530   -0.0000    0.0000   -0.0000    0.0104
                1.2636   1.2067e-003  -4.7038e-004   1.3730e-004   3.3862e+007   1.8712e+005   9.6113e+005    0.2352   -0.0000    0.0000   -0.0000    0.0160
                1.5378   1.0964e-003  -4.2740e-004   1.8518e-004   3.0767e+007   1.6995e+005   1.2963e+006    0.2137   -0.0000    0.0000   -0.0000    0.0216
                1.8330   9.6935e-004  -3.7787e-004   2.3140e-004   2.7202e+007   1.5018e+005   1.6198e+006    0.1889   -0.0000    0.0000   -0.0000    0.0270
                2.1467   8.2624e-004  -3.2209e-004   2.7405e-004   2.3186e+007   1.2793e+005   1.9184e+006    0.1610   -0.0000    0.0000   -0.0000    0.0320
                2.4801   6.6810e-004  -2.6045e-004   3.1177e-004   1.8748e+007   1.0341e+005   2.1824e+006    0.1302   -0.0000    0.0000   -0.0000    0.0364
                2.7274   5.4793e-004  -2.1360e-004   3.3451e-004   1.5376e+007   8.4789e+004   2.3415e+006    0.1068   -0.0000    0.0000   -0.0000    0.0390

            panel:  2     
           lam_num    nPlies        tPly      fibAng     matID  matName
               (-)       (-)         (m)       (deg)       (-)  (-)
                 1         1    0.005000      0.0000         2  (blade-shell)
                 2         1    0.067287      0.0000         3  (spar-uni)
                 3         1    0.000002      0.0000         4  (spar-core)
                 4         1    0.067287      0.0000         3  (spar-uni)
                 5         1    0.005000      0.0000         2  (blade-shell)

               lamina:  1     
              matName:  (blade-shell)
                     s           e11           e22           e12           s11           s22           s12   s11_fcT   s11_fcC   s22_fcT   s22_fcC   s12_fcS
                   (m)         (m/m)         (m/m)         (rad)          (Pa)          (Pa)          (Pa)       (-)       (-)       (-)       (-)       (-)
                0.0000   5.6939e-004  -1.6475e-004   3.4962e-005   1.6326e+007   9.5882e+005   2.4473e+005    0.1134   -0.0000    0.0000   -0.0000    0.0041
                0.1015   5.1278e-004  -1.4829e-004   5.9015e-005   1.4704e+007   8.6464e+005   4.1310e+005    0.1021   -0.0000    0.0000   -0.0000    0.0069
                0.4705   3.2465e-004  -9.3891e-005   1.2704e-004   9.3091e+006   5.4735e+005   8.8926e+005    0.0646   -0.0000    0.0000   -0.0000    0.0148
                0.8537   1.2790e-004  -3.6989e-005   1.6519e-004   3.6675e+006   2.1566e+005   1.1563e+006    0.0255   -0.0000    0.0000   -0.0000    0.0193
                1.2490  -7.3794e-005   2.1319e-005   1.6978e-004  -2.1161e+006  -1.2476e+005   1.1885e+006    0.0000    0.0099    0.0000    0.0000    0.0198
                1.4608  -1.8254e-004   5.2769e-005   1.5770e-004  -5.2344e+006  -3.0812e+005   1.1039e+006    0.0000    0.0246    0.0000    0.0000    0.0184

               lamina:  2     
              matName:  (spar-uni)
                     s           e11           e22           e12           s11           s22           s12   s11_fcT   s11_fcC   s22_fcT   s22_fcC   s12_fcS
                   (m)         (m/m)         (m/m)         (rad)          (Pa)          (Pa)          (Pa)       (-)       (-)       (-)       (-)       (-)
                0.0000   5.6790e-004  -1.6429e-004   3.4962e-005   2.3830e+007  -7.5930e+004   1.0489e+005    0.0245   -0.0000    0.0000    0.0000    0.0035
                0.1015   5.1177e-004  -1.4799e-004   5.9015e-005   2.1475e+007  -6.7431e+004   1.7704e+005    0.0221   -0.0000    0.0000    0.0000    0.0059
                0.4705   3.2399e-004  -9.3690e-005   1.2704e-004   1.3596e+007  -4.2741e+004   3.8111e+005    0.0140   -0.0000    0.0000    0.0000    0.0127
                0.8537   1.2765e-004  -3.6912e-005   1.6519e-004   5.3565e+006  -1.6825e+004   4.9558e+005    0.0055   -0.0000    0.0000    0.0000    0.0165
                1.2490  -7.3744e-005   2.1304e-005   1.6978e-004  -3.0946e+006   9.4265e+003   5.0934e+005    0.0000    0.0044    0.0000   -0.0000    0.0170
                1.4608  -1.8228e-004   5.2688e-005   1.5770e-004  -7.6490e+006   2.3728e+004   4.7310e+005    0.0000    0.0109    0.0000   -0.0000    0.0158

               lamina:  3     
              matName:  (spar-core)
                     s           e11           e22           e12           s11           s22           s12   s11_fcT   s11_fcC   s22_fcT   s22_fcC   s12_fcS
                   (m)         (m/m)         (m/m)         (rad)          (Pa)          (Pa)          (Pa)       (-)       (-)       (-)       (-)       (-)
                0.0000   5.4782e-004  -1.5818e-004   3.4962e-005   1.4296e+005   1.7607e+003   6.9924e+002    0.0000   -0.0000    0.0000   -0.0000    0.0000
                0.1015   4.9813e-004  -1.4383e-004   5.9015e-005   1.2999e+005   1.6010e+003   1.1803e+003    0.0000   -0.0000    0.0000   -0.0000    0.0000
                0.4705   3.1512e-004  -9.0991e-005   1.2704e-004   8.2235e+004   1.0128e+003   2.5407e+003    0.0000   -0.0000    0.0000   -0.0000    0.0000
                0.8537   1.2422e-004  -3.5868e-005   1.6519e-004   3.2417e+004   3.9924e+002   3.3039e+003    0.0000   -0.0000    0.0000   -0.0000    0.0000
                1.2490  -7.3075e-005   2.1100e-005   1.6978e-004  -1.9070e+004  -2.3487e+002   3.3956e+003    0.0000    0.0000    0.0000    0.0000    0.0000
                1.4608  -1.7871e-004   5.1602e-005   1.5770e-004  -4.6637e+004  -5.7438e+002   3.1540e+003    0.0000    0.0000    0.0000    0.0000    0.0000

               lamina:  4     
              matName:  (spar-uni)
                     s           e11           e22           e12           s11           s22           s12   s11_fcT   s11_fcC   s22_fcT   s22_fcC   s12_fcS
                   (m)         (m/m)         (m/m)         (rad)          (Pa)          (Pa)          (Pa)       (-)       (-)       (-)       (-)       (-)
                0.0000   5.4782e-004  -1.5818e-004   3.4962e-005   2.2989e+007  -6.8915e+004   1.0489e+005    0.0237   -0.0000    0.0000    0.0000    0.0035
                0.1015   4.9813e-004  -1.4383e-004   5.9015e-005   2.0904e+007  -6.2664e+004   1.7704e+005    0.0215   -0.0000    0.0000    0.0000    0.0059
                0.4705   3.1512e-004  -9.0991e-005   1.2704e-004   1.3224e+007  -3.9642e+004   3.8111e+005    0.0136   -0.0000    0.0000    0.0000    0.0127
                0.8537   1.2422e-004  -3.5868e-005   1.6519e-004   5.2128e+006  -1.5627e+004   4.9558e+005    0.0054   -0.0000    0.0000    0.0000    0.0165
                1.2490  -7.3075e-005   2.1100e-005   1.6978e-004  -3.0666e+006   9.1928e+003   5.0934e+005    0.0000    0.0044    0.0000   -0.0000    0.0170
                1.4608  -1.7871e-004   5.1602e-005   1.5770e-004  -7.4995e+006   2.2481e+004   4.7310e+005    0.0000    0.0107    0.0000   -0.0000    0.0158

               lamina:  5     
              matName:  (blade-shell)
                     s           e11           e22           e12           s11           s22           s12   s11_fcT   s11_fcC   s22_fcT   s22_fcC   s12_fcS
                   (m)         (m/m)         (m/m)         (rad)          (Pa)          (Pa)          (Pa)       (-)       (-)       (-)       (-)       (-)
                0.0000   5.2774e-004  -1.5207e-004   3.4962e-005   1.5136e+007   8.9817e+005   2.4473e+005    0.1051   -0.0000    0.0000   -0.0000    0.0041
                0.1015   4.8448e-004  -1.3968e-004   5.9015e-005   1.3895e+007   8.2342e+005   4.1310e+005    0.0965   -0.0000    0.0000   -0.0000    0.0069
                0.4705   3.0625e-004  -8.8291e-005   1.2704e-004   8.7831e+006   5.2055e+005   8.8926e+005    0.0610   -0.0000    0.0000   -0.0000    0.0148
                0.8537   1.2079e-004  -3.4825e-005   1.6519e-004   3.4642e+006   2.0530e+005   1.1563e+006    0.0241   -0.0000    0.0000   -0.0000    0.0193
                1.2490  -7.2406e-005   2.0897e-005   1.6978e-004  -2.0765e+006  -1.2274e+005   1.1885e+006    0.0000    0.0097    0.0000    0.0000    0.0198
                1.4608  -1.7514e-004   5.0517e-005   1.5770e-004  -5.0229e+006  -2.9734e+005   1.1039e+006    0.0000    0.0236    0.0000    0.0000    0.0184

            panel:  3     
           lam_num    nPlies        tPly      fibAng     matID  matName
               (-)       (-)         (m)       (deg)       (-)  (-)
                 1         1    0.005000      0.0000         2  (blade-shell)
                 2         1    0.057503      0.0000         6  (TEP-core)
                 3         1    0.005000      0.0000         2  (blade-shell)

               lamina:  1     
              matName:  (blade-shell)
                     s           e11           e22           e12           s11           s22           s12   s11_fcT   s11_fcC   s22_fcT   s22_fcC   s12_fcS
                   (m)         (m/m)         (m/m)         (rad)          (Pa)          (Pa)          (Pa)       (-)       (-)       (-)       (-)       (-)
                0.0000  -1.8005e-004   7.0271e-005   1.0500e-003  -5.0521e+006  -2.6628e+004   7.3497e+006    0.0000    0.0237    0.0000    0.0000    0.1225
                0.0070  -1.8357e-004   7.1642e-005   1.0498e-003  -5.1507e+006  -2.7149e+004   7.3484e+006    0.0000    0.0242    0.0000    0.0000    0.1225

               lamina:  2     
              matName:  (TEP-core)
                     s           e11           e22           e12           s11           s22           s12   s11_fcT   s11_fcC   s22_fcT   s22_fcC   s12_fcS
                   (m)         (m/m)         (m/m)         (rad)          (Pa)          (Pa)          (Pa)       (-)       (-)       (-)       (-)       (-)
                0.0000  -1.7995e-004   7.0230e-005   1.0500e-003  -4.5394e+004   4.6416e+003   2.0999e+004    0.0000    0.0000    0.0000   -0.0000    0.0000
                0.0070  -1.8346e-004   7.1601e-005   1.0498e-003  -4.6281e+004   4.7322e+003   2.0995e+004    0.0000    0.0000    0.0000   -0.0000    0.0000

               lamina:  3     
              matName:  (blade-shell)
                     s           e11           e22           e12           s11           s22           s12   s11_fcT   s11_fcC   s22_fcT   s22_fcC   s12_fcS
                   (m)         (m/m)         (m/m)         (rad)          (Pa)          (Pa)          (Pa)       (-)       (-)       (-)       (-)       (-)
                0.0000  -1.7877e-004   6.9763e-005   1.0500e-003  -5.0163e+006  -2.6570e+004   7.3497e+006    0.0000    0.0236    0.0000    0.0000    0.1225
                0.0070  -1.8229e-004   7.1134e-005   1.0498e-003  -5.1149e+006  -2.7091e+004   7.3484e+006    0.0000    0.0240    0.0000    0.0000    0.1225

            panel:  4     
           lam_num    nPlies        tPly      fibAng     matID  matName
               (-)       (-)         (m)       (deg)       (-)  (-)
                 1         1    0.005000      0.0000         2  (blade-shell)
                 2         1    0.057503      0.0000         6  (TEP-core)
                 3         1    0.005000      0.0000         2  (blade-shell)

               lamina:  1     
              matName:  (blade-shell)
                     s           e11           e22           e12           s11           s22           s12   s11_fcT   s11_fcC   s22_fcT   s22_fcC   s12_fcS
                   (m)         (m/m)         (m/m)         (rad)          (Pa)          (Pa)          (Pa)       (-)       (-)       (-)       (-)       (-)
                0.0000  -1.8357e-004   7.1642e-005   9.0384e-004  -5.1507e+006  -2.7149e+004   6.3268e+006    0.0000    0.0242    0.0000    0.0000    0.1054
                0.1840  -2.7582e-004   1.0765e-004   9.0364e-004  -7.7391e+006  -4.0778e+004   6.3255e+006    0.0000    0.0363    0.0000    0.0000    0.1054
                0.5918  -4.7938e-004   1.8709e-004   9.0364e-004  -1.3451e+007  -7.0909e+004   6.3255e+006    0.0000    0.0632    0.0000    0.0000    0.1054
                0.9983  -6.8174e-004   2.6607e-004   8.9733e-004  -1.9129e+007  -1.0087e+005   6.2813e+006    0.0000    0.0898    0.0000    0.0000    0.1047
                1.3981  -8.8020e-004   3.4352e-004   8.7431e-004  -2.4698e+007  -1.3026e+005   6.1202e+006    0.0000    0.1160    0.0000    0.0000    0.1020
                1.7860  -1.0724e-003   4.1851e-004   8.3901e-004  -3.0090e+007  -1.5874e+005   5.8731e+006    0.0000    0.1413    0.0000    0.0000    0.0979
                1.8162  -1.0875e-003   4.2441e-004   7.9230e-004  -3.0514e+007  -1.6097e+005   5.5461e+006    0.0000    0.1433    0.0000    0.0000    0.0924

               lamina:  2     
              matName:  (TEP-core)
                     s           e11           e22           e12           s11           s22           s12   s11_fcT   s11_fcC   s22_fcT   s22_fcC   s12_fcS
                   (m)         (m/m)         (m/m)         (rad)          (Pa)          (Pa)          (Pa)       (-)       (-)       (-)       (-)       (-)
                0.0000  -1.8346e-004   7.1601e-005   9.0384e-004  -4.6281e+004   4.7322e+003   1.8077e+004    0.0000    0.0000    0.0000   -0.0000    0.0000
                0.1840  -2.7564e-004   1.0758e-004   9.0364e-004  -6.9534e+004   7.1100e+003   1.8073e+004    0.0000    0.0000    0.0000   -0.0000    0.0000
                0.5918  -4.7913e-004   1.8699e-004   9.0364e-004  -1.2087e+005   1.2358e+004   1.8073e+004    0.0000    0.0000    0.0000   -0.0000    0.0000
                0.9983  -6.8142e-004   2.6594e-004   8.9733e-004  -1.7190e+005   1.7575e+004   1.7947e+004    0.0000    0.0000    0.0000   -0.0000    0.0000
                1.3981  -8.7983e-004   3.4337e-004   8.7431e-004  -2.2195e+005   2.2693e+004   1.7486e+004    0.0000    0.0000    0.0000   -0.0000    0.0000
                1.7860  -1.0720e-003   4.1836e-004   8.3901e-004  -2.7042e+005   2.7648e+004   1.6780e+004    0.0000    0.0000    0.0000   -0.0000    0.0000
                1.8162  -1.0871e-003   4.2425e-004   7.9230e-004  -2.7423e+005   2.8037e+004   1.5846e+004    0.0000    0.0000    0.0000   -0.0000    0.0000

               lamina:  3     
              matName:  (blade-shell)
                     s           e11           e22           e12           s11           s22           s12   s11_fcT   s11_fcC   s22_fcT   s22_fcC   s12_fcS
                   (m)         (m/m)         (m/m)         (rad)          (Pa)          (Pa)          (Pa)       (-)       (-)       (-)       (-)       (-)
                0.0000  -1.8229e-004   7.1134e-005   9.0384e-004  -5.1149e+006  -2.7091e+004   6.3268e+006    0.0000    0.0240    0.0000    0.0000    0.1054
                0.1840  -2.7364e-004   1.0678e-004   9.0364e-004  -7.6782e+006  -4.0680e+004   6.3255e+006    0.0000    0.0360    0.0000    0.0000    0.1054
                0.5918  -4.7623e-004   1.8584e-004   9.0364e-004  -1.3363e+007  -7.0767e+004   6.3255e+006    0.0000    0.0627    0.0000    0.0000    0.1054
                0.9983  -6.7769e-004   2.6446e-004   8.9733e-004  -1.9016e+007  -1.0068e+005   6.2813e+006    0.0000    0.0893    0.0000    0.0000    0.1047
                1.3981  -8.7561e-004   3.4170e-004   8.7431e-004  -2.4569e+007  -1.3006e+005   6.1202e+006    0.0000    0.1153    0.0000    0.0000    0.1020
                1.7860  -1.0675e-003   4.1659e-004   8.3901e-004  -2.9954e+007  -1.5853e+005   5.8731e+006    0.0000    0.1406    0.0000    0.0000    0.0979
                1.8162  -1.0823e-003   4.2234e-004   7.9230e-004  -3.0367e+007  -1.6073e+005   5.5461e+006    0.0000    0.1426    0.0000    0.0000    0.0924

            panel:  5     
           lam_num    nPlies        tPly      fibAng     matID  matName
               (-)       (-)         (m)       (deg)       (-)  (-)
                 1         1    0.005000      0.0000         2  (blade-shell)
                 2         1    0.057503      0.0000         6  (TEP-core)
                 3         1    0.005000      0.0000         2  (blade-shell)

               lamina:  1     
              matName:  (blade-shell)
                     s           e11           e22           e12           s11           s22           s12   s11_fcT   s11_fcC   s22_fcT   s22_fcC   s12_fcS
                   (m)         (m/m)         (m/m)         (rad)          (Pa)          (Pa)          (Pa)       (-)       (-)       (-)       (-)       (-)
                0.0000  -1.0875e-003   4.2441e-004   7.3561e-004  -3.0514e+007  -1.6097e+005   5.1492e+006    0.0000    0.1433    0.0000    0.0000    0.0858
                0.3412  -1.2561e-003   4.9023e-004   7.3073e-004  -3.5246e+007  -1.8597e+005   5.1151e+006    0.0000    0.1655    0.0000    0.0000    0.0853
                0.6914  -1.4292e-003   5.5776e-004   6.1636e-004  -4.0101e+007  -2.1163e+005   4.3146e+006    0.0000    0.1883    0.0000    0.0000    0.0719
                1.0159  -1.5895e-003   6.2033e-004   5.5652e-004  -4.4600e+007  -2.3540e+005   3.8956e+006    0.0000    0.2094    0.0000    0.0000    0.0649
                1.3113  -1.7354e-003   6.7727e-004   4.8610e-004  -4.8694e+007  -2.5704e+005   3.4027e+006    0.0000    0.2286    0.0000    0.0000    0.0567
                1.5740  -1.8651e-003   7.2789e-004   4.1272e-004  -5.2334e+007  -2.7629e+005   2.8891e+006    0.0000    0.2457    0.0000    0.0000    0.0482
                1.8009  -1.9773e-003   7.7168e-004   3.3915e-004  -5.5482e+007  -2.9293e+005   2.3741e+006    0.0000    0.2605    0.0000    0.0000    0.0396
                1.9900  -2.0709e-003   8.0819e-004   2.6831e-004  -5.8107e+007  -3.0679e+005   1.8781e+006    0.0000    0.2728    0.0000    0.0000    0.0313
                2.1394  -2.1448e-003   8.3702e-004   2.0298e-004  -6.0180e+007  -3.1775e+005   1.4208e+006    0.0000    0.2825    0.0000    0.0000    0.0237
                2.2475  -2.1981e-003   8.5783e-004   1.4562e-004  -6.1676e+007  -3.2567e+005   1.0194e+006    0.0000    0.2896    0.0000    0.0000    0.0170
                2.3041  -2.2311e-003   8.7075e-004   9.8401e-005  -6.2603e+007  -3.3005e+005   6.8881e+005    0.0000    0.2939    0.0000    0.0000    0.0115
                2.3279  -2.2452e-003   8.7632e-004   6.3243e-005  -6.2999e+007  -3.3138e+005   4.4270e+005    0.0000    0.2958    0.0000    0.0000    0.0074

               lamina:  2     
              matName:  (TEP-core)
                     s           e11           e22           e12           s11           s22           s12   s11_fcT   s11_fcC   s22_fcT   s22_fcC   s12_fcS
                   (m)         (m/m)         (m/m)         (rad)          (Pa)          (Pa)          (Pa)       (-)       (-)       (-)       (-)       (-)
                0.0000  -1.0871e-003   4.2425e-004   7.3561e-004  -2.7423e+005   2.8037e+004   1.4712e+004    0.0000    0.0000    0.0000   -0.0000    0.0000
                0.3412  -1.2557e-003   4.9006e-004   7.3073e-004  -3.1677e+005   3.2386e+004   1.4615e+004    0.0000    0.0000    0.0000   -0.0000    0.0000
                0.6914  -1.4287e-003   5.5759e-004   6.1636e-004  -3.6042e+005   3.6848e+004   1.2327e+004    0.0000    0.0000    0.0000   -0.0000    0.0000
                1.0159  -1.5891e-003   6.2016e-004   5.5652e-004  -4.0087e+005   4.0983e+004   1.1130e+004    0.0000    0.0000    0.0000   -0.0000    0.0000
                1.3113  -1.7350e-003   6.7710e-004   4.8610e-004  -4.3767e+005   4.4745e+004   9.7220e+003    0.0000    0.0000    0.0000   -0.0000    0.0000
                1.5740  -1.8647e-003   7.2773e-004   4.1272e-004  -4.7040e+005   4.8090e+004   8.2545e+003    0.0000    0.0000    0.0000   -0.0000    0.0000
                1.8009  -1.9769e-003   7.7152e-004   3.3915e-004  -4.9870e+005   5.0984e+004   6.7831e+003    0.0000    0.0000    0.0000   -0.0000    0.0000
                1.9900  -2.0705e-003   8.0802e-004   2.6831e-004  -5.2230e+005   5.3396e+004   5.3661e+003    0.0000    0.0000    0.0000   -0.0000    0.0000
                2.1394  -2.1443e-003   8.3686e-004   2.0298e-004  -5.4094e+005   5.5301e+004   4.0595e+003    0.0000    0.0000    0.0000   -0.0000    0.0000
                2.2475  -2.1977e-003   8.5767e-004   1.4562e-004  -5.5439e+005   5.6676e+004   2.9124e+003    0.0000    0.0000    0.0000   -0.0000    0.0000
                2.3041  -2.2300e-003   8.7030e-004   9.8401e-005  -5.6254e+005   5.7518e+004   1.9680e+003    0.0000    0.0000    0.0000   -0.0000    0.0000
                2.3279  -2.2430e-003   8.7543e-004   6.3243e-005  -5.6582e+005   5.7866e+004   1.2649e+003    0.0000    0.0000    0.0000   -0.0000    0.0000

               lamina:  3     
              matName:  (blade-shell)
                     s           e11           e22           e12           s11           s22           s12   s11_fcT   s11_fcC   s22_fcT   s22_fcC   s12_fcS
                   (m)         (m/m)         (m/m)         (rad)          (Pa)          (Pa)          (Pa)       (-)       (-)       (-)       (-)       (-)
                0.0000  -1.0823e-003   4.2234e-004   7.3561e-004  -3.0367e+007  -1.6073e+005   5.1492e+006    0.0000    0.1426    0.0000    0.0000    0.0858
                0.3412  -1.2508e-003   4.8813e-004   7.3073e-004  -3.5098e+007  -1.8573e+005   5.1151e+006    0.0000    0.1648    0.0000    0.0000    0.0853
                0.6914  -1.4238e-003   5.5564e-004   6.1636e-004  -3.9951e+007  -2.1139e+005   4.3146e+006    0.0000    0.1876    0.0000    0.0000    0.0719
                1.0159  -1.5842e-003   6.1821e-004   5.5652e-004  -4.4450e+007  -2.3516e+005   3.8956e+006    0.0000    0.2087    0.0000    0.0000    0.0649
                1.3113  -1.7301e-003   6.7517e-004   4.8610e-004  -4.8546e+007  -2.5680e+005   3.4027e+006    0.0000    0.2279    0.0000    0.0000    0.0567
                1.5740  -1.8600e-003   7.2586e-004   4.1272e-004  -5.2191e+007  -2.7606e+005   2.8891e+006    0.0000    0.2450    0.0000    0.0000    0.0482
                1.8009  -1.9723e-003   7.6968e-004   3.3915e-004  -5.5341e+007  -2.9270e+005   2.3741e+006    0.0000    0.2598    0.0000    0.0000    0.0396
                1.9900  -2.0657e-003   8.0615e-004   2.6831e-004  -5.7963e+007  -3.0656e+005   1.8781e+006    0.0000    0.2721    0.0000    0.0000    0.0313
                2.1394  -2.1396e-003   8.3498e-004   2.0298e-004  -6.0036e+007  -3.1752e+005   1.4208e+006    0.0000    0.2819    0.0000    0.0000    0.0237
                2.2475  -2.1931e-003   8.5586e-004   1.4562e-004  -6.1538e+007  -3.2544e+005   1.0194e+006    0.0000    0.2889    0.0000    0.0000    0.0170
                2.3041  -2.2170e-003   8.6517e-004   9.8401e-005  -6.2209e+007  -3.2942e+005   6.8881e+005    0.0000    0.2921    0.0000    0.0000    0.0115
                2.3279  -2.2174e-003   8.6528e-004   6.3243e-005  -6.2220e+007  -3.3014e+005   4.4270e+005    0.0000    0.2921    0.0000    0.0000    0.0074

  Bottom:  panel  nNode   nLam     xc_St    xc_End         b         t         E_eff         G_eff      nu_eff     density  buckleCrit
            (-)    (-)    (-)       (-)       (-)       (m)       (m)          (Pa)          (Pa)         (-)    (kg/m^3)         (-)
              1     12      3    0.0000    0.2827    2.8362    0.0700   4.2251e+009   1.0171e+009      0.3899    435.7143      0.0016
              2      6      5    0.2827    0.4753    1.4822    0.1446   4.1045e+010   3.2766e+009      0.2888   1915.1344      0.0000
              3      2      3    0.4753    0.4762    0.0074    0.0675   4.3716e+009   1.0540e+009      0.3903    444.4325      0.0000
              4      7      3    0.4762    0.7072    1.9209    0.0675   4.3716e+009   1.0540e+009      0.3903    444.4325      0.1597
              5     12      3    0.7072    1.0000    2.3121    0.0675   4.3716e+009   1.0540e+009      0.3903    444.4325      0.1399

            panel:  1     
           lam_num    nPlies        tPly      fibAng     matID  matName
               (-)       (-)         (m)       (deg)       (-)  (-)
                 1         1    0.005000      0.0000         2  (blade-shell)
                 2         1    0.060000      0.0000         5  (LEP-core)
                 3         1    0.005000      0.0000         2  (blade-shell)

               lamina:  1     
              matName:  (blade-shell)
                     s           e11           e22           e12           s11           s22           s12   s11_fcT   s11_fcC   s22_fcT   s22_fcC   s12_fcS
                   (m)         (m/m)         (m/m)         (rad)          (Pa)          (Pa)          (Pa)       (-)       (-)       (-)       (-)       (-)
                0.0000   1.5088e-003  -5.8837e-004   1.2851e-004   4.2337e+007   2.3030e+005   8.9956e+005    0.2940   -0.0000    0.0000   -0.0000    0.0150
                0.1655   1.4848e-003  -5.7902e-004   1.6526e-004   4.1665e+007   2.2668e+005   1.1568e+006    0.2893   -0.0000    0.0000   -0.0000    0.0193
                0.3622   1.4381e-003  -5.6082e-004   2.0790e-004   4.0356e+007   2.1969e+005   1.4553e+006    0.2802   -0.0000    0.0000   -0.0000    0.0243
                0.5690   1.3719e-003  -5.3499e-004   2.5106e-004   3.8498e+007   2.0973e+005   1.7574e+006    0.2673   -0.0000    0.0000   -0.0000    0.0293
                0.7982   1.2863e-003  -5.0159e-004   2.9636e-004   3.6095e+007   1.9675e+005   2.0745e+006    0.2507   -0.0000    0.0000   -0.0000    0.0346
                1.0532   1.1819e-003  -4.6087e-004   3.4318e-004   3.3165e+007   1.8087e+005   2.4023e+006    0.2303   -0.0000    0.0000   -0.0000    0.0400
                1.3280   1.0605e-003  -4.1353e-004   3.8906e-004   2.9759e+007   1.6240e+005   2.7234e+006    0.2067   -0.0000    0.0000   -0.0000    0.0454
                1.6210   9.2383e-004  -3.6023e-004   4.3240e-004   2.5924e+007   1.4157e+005   3.0268e+006    0.1800   -0.0000    0.0000   -0.0000    0.0504
                1.9310   7.7347e-004  -3.0159e-004   4.7167e-004   2.1705e+007   1.1866e+005   3.3017e+006    0.1507   -0.0000    0.0000   -0.0000    0.0550
                2.2538   6.1197e-004  -2.3861e-004   5.0511e-004   1.7173e+007   9.4061e+004   3.5358e+006    0.1193   -0.0000    0.0000   -0.0000    0.0589
                2.5901   4.4161e-004  -1.7217e-004   5.3170e-004   1.2392e+007   6.8095e+004   3.7219e+006    0.0861   -0.0000    0.0000   -0.0000    0.0620
                2.8362   3.1806e-004  -1.2399e-004   5.4580e-004   8.9254e+006   4.9235e+004   3.8206e+006    0.0620   -0.0000    0.0000   -0.0000    0.0637

               lamina:  2     
              matName:  (LEP-core)
                     s           e11           e22           e12           s11           s22           s12   s11_fcT   s11_fcC   s22_fcT   s22_fcC   s12_fcS
                   (m)         (m/m)         (m/m)         (rad)          (Pa)          (Pa)          (Pa)       (-)       (-)       (-)       (-)       (-)
                0.0000   1.5059e-003  -5.8723e-004   1.2851e-004   3.7992e+005  -3.8704e+004   2.5702e+003    0.0000   -0.0000    0.0000    0.0000    0.0000
                0.1655   1.4820e-003  -5.7791e-004   1.6526e-004   3.7389e+005  -3.8089e+004   3.3051e+003    0.0000   -0.0000    0.0000    0.0000    0.0000
                0.3622   1.4356e-003  -5.5982e-004   2.0790e-004   3.6219e+005  -3.6895e+004   4.1580e+003    0.0000   -0.0000    0.0000    0.0000    0.0000
                0.5690   1.3697e-003  -5.3411e-004   2.5106e-004   3.4557e+005  -3.5199e+004   5.0212e+003    0.0000   -0.0000    0.0000    0.0000    0.0000
                0.7982   1.2844e-003  -5.0083e-004   2.9636e-004   3.2404e+005  -3.3004e+004   5.9272e+003    0.0000   -0.0000    0.0000    0.0000    0.0000
                1.0532   1.1803e-003  -4.6022e-004   3.4318e-004   2.9777e+005  -3.0327e+004   6.8636e+003    0.0000   -0.0000    0.0000    0.0000    0.0000
                1.3280   1.0592e-003  -4.1301e-004   3.8906e-004   2.6722e+005  -2.7214e+004   7.7812e+003    0.0000   -0.0000    0.0000    0.0000    0.0000
                1.6210   9.2281e-004  -3.5982e-004   4.3240e-004   2.3282e+005  -2.3709e+004   8.6480e+003    0.0000   -0.0000    0.0000    0.0000    0.0000
                1.9310   7.7279e-004  -3.0132e-004   4.7167e-004   1.9497e+005  -1.9852e+004   9.4334e+003    0.0000   -0.0000    0.0000    0.0000    0.0000
                2.2538   6.1167e-004  -2.3849e-004   5.0511e-004   1.5432e+005  -1.5711e+004   1.0102e+004    0.0000   -0.0000    0.0000    0.0000    0.0000
                2.5901   4.4265e-004  -1.7258e-004   5.3170e-004   1.1168e+005  -1.1368e+004   1.0634e+004    0.0000   -0.0000    0.0000    0.0000    0.0000
                2.8362   3.2237e-004  -1.2570e-004   5.4580e-004   8.1331e+004  -8.2823e+003   1.0916e+004    0.0000   -0.0000    0.0000    0.0000    0.0000

               lamina:  3     
              matName:  (blade-shell)
                     s           e11           e22           e12           s11           s22           s12   s11_fcT   s11_fcC   s22_fcT   s22_fcC   s12_fcS
                   (m)         (m/m)         (m/m)         (rad)          (Pa)          (Pa)          (Pa)       (-)       (-)       (-)       (-)       (-)
                0.0000   1.4713e-003  -5.7351e-004   1.2851e-004   4.1288e+007   2.2854e+005   8.9956e+005    0.2867   -0.0000    0.0000   -0.0000    0.0150
                0.1655   1.4487e-003  -5.6468e-004   1.6526e-004   4.0653e+007   2.2498e+005   1.1568e+006    0.2823   -0.0000    0.0000   -0.0000    0.0193
                0.3622   1.4054e-003  -5.4781e-004   2.0790e-004   3.9437e+007   2.1815e+005   1.4553e+006    0.2739   -0.0000    0.0000   -0.0000    0.0243
                0.5690   1.3433e-003  -5.2362e-004   2.5106e-004   3.7696e+007   2.0838e+005   1.7574e+006    0.2618   -0.0000    0.0000   -0.0000    0.0293
                0.7982   1.2614e-003  -4.9172e-004   2.9636e-004   3.5398e+007   1.9558e+005   2.0745e+006    0.2458   -0.0000    0.0000   -0.0000    0.0346
                1.0532   1.1607e-003  -4.5246e-004   3.4318e-004   3.2572e+007   1.7988e+005   2.4023e+006    0.2262   -0.0000    0.0000   -0.0000    0.0400
                1.3280   1.0433e-003  -4.0669e-004   3.8906e-004   2.9276e+007   1.6159e+005   2.7234e+006    0.2033   -0.0000    0.0000   -0.0000    0.0454
                1.6210   9.1053e-004  -3.5495e-004   4.3240e-004   2.5551e+007   1.4094e+005   3.0268e+006    0.1774   -0.0000    0.0000   -0.0000    0.0504
                1.9310   7.6456e-004  -2.9805e-004   4.7167e-004   2.1455e+007   1.1824e+005   3.3017e+006    0.1490   -0.0000    0.0000   -0.0000    0.0550
                2.2538   6.0803e-004  -2.3704e-004   5.0511e-004   1.7062e+007   9.3875e+004   3.5358e+006    0.1185   -0.0000    0.0000   -0.0000    0.0589
                2.5901   4.4274e-004  -1.7262e-004   5.3170e-004   1.2424e+007   6.8149e+004   3.7219e+006    0.0863   -0.0000    0.0000   -0.0000    0.0620
                2.8362   3.2273e-004  -1.2584e-004   5.4580e-004   9.0561e+006   4.9454e+004   3.8206e+006    0.0629   -0.0000    0.0000   -0.0000    0.0637

            panel:  2     
           lam_num    nPlies        tPly      fibAng     matID  matName
               (-)       (-)         (m)       (deg)       (-)  (-)
                 1         1    0.005000      0.0000         2  (blade-shell)
                 2         1    0.067287      0.0000         3  (spar-uni)
                 3         1    0.000002      0.0000         4  (spar-core)
                 4         1    0.067287      0.0000         3  (spar-uni)
                 5         1    0.005000      0.0000         2  (blade-shell)

               lamina:  1     
              matName:  (blade-shell)
                     s           e11           e22           e12           s11           s22           s12   s11_fcT   s11_fcC   s22_fcT   s22_fcC   s12_fcS
                   (m)         (m/m)         (m/m)         (rad)          (Pa)          (Pa)          (Pa)       (-)       (-)       (-)       (-)       (-)
                0.0000   3.0987e-004  -8.9279e-005   1.0322e-004   8.8873e+006   5.2756e+005   7.2252e+005    0.0617   -0.0000    0.0000   -0.0000    0.0120
                0.0976   2.4942e-004  -7.1636e-005   1.1641e-004   7.1549e+006   4.2808e+005   8.1486e+005    0.0497   -0.0000    0.0000   -0.0000    0.0136
                0.4649   6.3414e-005  -1.7783e-005   1.4734e-004   1.8218e+006   1.1539e+005   1.0314e+006    0.0127   -0.0000    0.0000   -0.0000    0.0172
                0.8521  -1.2869e-004   3.7890e-005   1.4871e-004  -3.6861e+006  -2.0676e+005   1.0410e+006    0.0000    0.0173    0.0000    0.0000    0.0173
                1.2603  -3.1672e-004   9.2284e-005   1.1679e-004  -9.0776e+006  -5.2355e+005   8.1756e+005    0.0000    0.0426    0.0000    0.0000    0.0136
                1.4822  -4.1609e-004   1.2104e-004   8.5511e-005  -1.1927e+007  -6.9083e+005   5.9857e+005    0.0000    0.0560    0.0000    0.0000    0.0100

               lamina:  2     
              matName:  (spar-uni)
                     s           e11           e22           e12           s11           s22           s12   s11_fcT   s11_fcC   s22_fcT   s22_fcC   s12_fcS
                   (m)         (m/m)         (m/m)         (rad)          (Pa)          (Pa)          (Pa)       (-)       (-)       (-)       (-)       (-)
                0.0000   3.2244e-004  -9.3104e-005   1.0322e-004   1.3531e+007  -4.0562e+004   3.0965e+005    0.0139   -0.0000    0.0000    0.0000    0.0103
                0.0976   2.7406e-004  -7.9136e-005   1.1641e-004   1.1501e+007  -3.4477e+004   3.4923e+005    0.0118   -0.0000    0.0000    0.0000    0.0116
                0.4649   9.7346e-005  -2.8109e-005   1.4734e-004   4.0851e+006  -1.2246e+004   4.4201e+005    0.0042   -0.0000    0.0000    0.0000    0.0147
                0.8521  -1.2545e-004   3.6902e-005   1.4871e-004  -5.2616e+006   2.5547e+004   4.4613e+005    0.0000    0.0075    0.0000   -0.0000    0.0149
                1.2603  -3.1303e-004   9.1160e-005   1.1679e-004  -1.3133e+007   5.0492e+004   3.5038e+005    0.0000    0.0187    0.0000   -0.0000    0.0117
                1.4822  -4.1212e-004   1.1983e-004   8.5511e-005  -1.7291e+007   6.3784e+004   2.5653e+005    0.0000    0.0246    0.0000   -0.0000    0.0086

               lamina:  3     
              matName:  (spar-core)
                     s           e11           e22           e12           s11           s22           s12   s11_fcT   s11_fcC   s22_fcT   s22_fcC   s12_fcS
                   (m)         (m/m)         (m/m)         (rad)          (Pa)          (Pa)          (Pa)       (-)       (-)       (-)       (-)       (-)
                0.0000   3.2244e-004  -9.3104e-005   1.0322e-004   8.4145e+004   1.0363e+003   2.0643e+003    0.0000   -0.0000    0.0000   -0.0000    0.0000
                0.0976   2.7406e-004  -7.9136e-005   1.1641e-004   7.1521e+004   8.8085e+002   2.3282e+003    0.0000   -0.0000    0.0000   -0.0000    0.0000
                0.4649   9.7347e-005  -2.8109e-005   1.4734e-004   2.5404e+004   3.1288e+002   2.9467e+003    0.0000   -0.0000    0.0000   -0.0000    0.0000
                0.8521  -8.1761e-005   2.3609e-005   1.4871e-004  -2.1337e+004  -2.6278e+002   2.9742e+003    0.0000    0.0000    0.0000    0.0000    0.0000
                1.2603  -2.6332e-004   7.6034e-005   1.1679e-004  -6.8717e+004  -8.4632e+002   2.3359e+003    0.0000    0.0000    0.0000    0.0000    0.0000
                1.4822  -3.5872e-004   1.0358e-004   8.5511e-005  -9.3612e+004  -1.1529e+003   1.7102e+003    0.0000    0.0000    0.0000    0.0000    0.0000

               lamina:  4     
              matName:  (spar-uni)
                     s           e11           e22           e12           s11           s22           s12   s11_fcT   s11_fcC   s22_fcT   s22_fcC   s12_fcS
                   (m)         (m/m)         (m/m)         (rad)          (Pa)          (Pa)          (Pa)       (-)       (-)       (-)       (-)       (-)
                0.0000   3.3501e-004  -9.6930e-005   1.0322e-004   1.4058e+007  -4.4954e+004   3.0965e+005    0.0145   -0.0000    0.0000    0.0000    0.0103
                0.0976   2.9871e-004  -8.6635e-005   1.1641e-004   1.2534e+007  -4.3087e+004   3.4923e+005    0.0129   -0.0000    0.0000    0.0000    0.0116
                0.4649   1.3128e-004  -3.8435e-005   1.4734e-004   5.5070e+006  -2.4101e+004   4.4201e+005    0.0057   -0.0000    0.0000    0.0000    0.0147
                0.8521  -8.1760e-005   2.3608e-005   1.4871e-004  -3.4310e+006   1.0285e+004   4.4613e+005    0.0000    0.0049    0.0000   -0.0000    0.0149
                1.2603  -2.6332e-004   7.6033e-005   1.1679e-004  -1.1050e+007   3.3125e+004   3.5038e+005    0.0000    0.0157    0.0000   -0.0000    0.0117
                1.4822  -3.5871e-004   1.0358e-004   8.5511e-005  -1.5053e+007   4.5126e+004   2.5653e+005    0.0000    0.0214    0.0000   -0.0000    0.0086

               lamina:  5     
              matName:  (blade-shell)
                     s           e11           e22           e12           s11           s22           s12   s11_fcT   s11_fcC   s22_fcT   s22_fcC   s12_fcS
                   (m)         (m/m)         (m/m)         (rad)          (Pa)          (Pa)          (Pa)       (-)       (-)       (-)       (-)       (-)
                0.0000   3.3594e-004  -9.7214e-005   1.0322e-004   9.6326e+006   5.6553e+005   7.2252e+005    0.0669   -0.0000    0.0000   -0.0000    0.0120
                0.0976   3.0054e-004  -8.7193e-005   1.1641e-004   8.6161e+006   5.0252e+005   8.1486e+005    0.0598   -0.0000    0.0000   -0.0000    0.0136
                0.4649   1.3380e-004  -3.9202e-005   1.4734e-004   3.8336e+006   2.1789e+005   1.0314e+006    0.0266   -0.0000    0.0000   -0.0000    0.0172
                0.8521  -3.8074e-005   1.0315e-005   1.4871e-004  -1.0960e+006  -7.4795e+004   1.0410e+006    0.0000    0.0051    0.0000    0.0000    0.0173
                1.2603  -2.1361e-004   6.0907e-005   1.1679e-004  -6.1304e+006  -3.7339e+005   8.1756e+005    0.0000    0.0288    0.0000    0.0000    0.0136
                1.4822  -3.0531e-004   8.7327e-005   8.5511e-005  -8.7604e+006  -5.2950e+005   5.9857e+005    0.0000    0.0411    0.0000    0.0000    0.0100

            panel:  3     
           lam_num    nPlies        tPly      fibAng     matID  matName
               (-)       (-)         (m)       (deg)       (-)  (-)
                 1         1    0.005000      0.0000         2  (blade-shell)
                 2         1    0.057503      0.0000         6  (TEP-core)
                 3         1    0.005000      0.0000         2  (blade-shell)

               lamina:  1     
              matName:  (blade-shell)
                     s           e11           e22           e12           s11           s22           s12   s11_fcT   s11_fcC   s22_fcT   s22_fcC   s12_fcS
                   (m)         (m/m)         (m/m)         (rad)          (Pa)          (Pa)          (Pa)       (-)       (-)       (-)       (-)       (-)
                0.0000  -3.7882e-004   1.4791e-004   5.6933e-004  -1.0629e+007  -5.5105e+004   3.9853e+006    0.0000    0.0499    0.0000    0.0000    0.0664
                0.0074  -3.8200e-004   1.4915e-004   5.6892e-004  -1.0718e+007  -5.5577e+004   3.9825e+006    0.0000    0.0503    0.0000    0.0000    0.0664

               lamina:  2     
              matName:  (TEP-core)
                     s           e11           e22           e12           s11           s22           s12   s11_fcT   s11_fcC   s22_fcT   s22_fcC   s12_fcS
                   (m)         (m/m)         (m/m)         (rad)          (Pa)          (Pa)          (Pa)       (-)       (-)       (-)       (-)       (-)
                0.0000  -3.7729e-004   1.4730e-004   5.6933e-004  -9.5171e+004   9.7463e+003   1.1387e+004    0.0000    0.0000    0.0000   -0.0000    0.0000
                0.0074  -3.8047e-004   1.4854e-004   5.6892e-004  -9.5975e+004   9.8285e+003   1.1378e+004    0.0000    0.0000    0.0000   -0.0000    0.0000

               lamina:  3     
              matName:  (blade-shell)
                     s           e11           e22           e12           s11           s22           s12   s11_fcT   s11_fcC   s22_fcT   s22_fcC   s12_fcS
                   (m)         (m/m)         (m/m)         (rad)          (Pa)          (Pa)          (Pa)       (-)       (-)       (-)       (-)       (-)
                0.0000  -3.5968e-004   1.4031e-004   5.6933e-004  -1.0093e+007  -5.4245e+004   3.9853e+006    0.0000    0.0474    0.0000    0.0000    0.0664
                0.0074  -3.6286e-004   1.4155e-004   5.6892e-004  -1.0182e+007  -5.4718e+004   3.9825e+006    0.0000    0.0478    0.0000    0.0000    0.0664

            panel:  4     
           lam_num    nPlies        tPly      fibAng     matID  matName
               (-)       (-)         (m)       (deg)       (-)  (-)
                 1         1    0.005000      0.0000         2  (blade-shell)
                 2         1    0.057503      0.0000         6  (TEP-core)
                 3         1    0.005000      0.0000         2  (blade-shell)

               lamina:  1     
              matName:  (blade-shell)
                     s           e11           e22           e12           s11           s22           s12   s11_fcT   s11_fcC   s22_fcT   s22_fcC   s12_fcS
                   (m)         (m/m)         (m/m)         (rad)          (Pa)          (Pa)          (Pa)       (-)       (-)       (-)       (-)       (-)
                0.0000  -3.8200e-004   1.4915e-004   6.9461e-004  -1.0718e+007  -5.5577e+004   4.8623e+006    0.0000    0.0503    0.0000    0.0000    0.0810
                0.1935  -4.6564e-004   1.8179e-004   6.9420e-004  -1.3065e+007  -6.7932e+004   4.8594e+006    0.0000    0.0613    0.0000    0.0000    0.0810
                0.6259  -6.4770e-004   2.5285e-004   6.9420e-004  -1.8174e+007  -9.4891e+004   4.8594e+006    0.0000    0.0853    0.0000    0.0000    0.0810
                1.0580  -8.2694e-004   3.2280e-004   6.8220e-004  -2.3203e+007  -1.2145e+005   4.7754e+006    0.0000    0.1089    0.0000    0.0000    0.0796
                1.4812  -1.0022e-003   3.9117e-004   6.4678e-004  -2.8119e+007  -1.4744e+005   4.5275e+006    0.0000    0.1320    0.0000    0.0000    0.0755
                1.8886  -1.1718e-003   4.5740e-004   5.9971e-004  -3.2881e+007  -1.7261e+005   4.1979e+006    0.0000    0.1544    0.0000    0.0000    0.0700
                1.9209  -1.1852e-003   4.6258e-004   5.4234e-004  -3.3254e+007  -1.7463e+005   3.7964e+006    0.0000    0.1561    0.0000    0.0000    0.0633

               lamina:  2     
              matName:  (TEP-core)
                     s           e11           e22           e12           s11           s22           s12   s11_fcT   s11_fcC   s22_fcT   s22_fcC   s12_fcS
                   (m)         (m/m)         (m/m)         (rad)          (Pa)          (Pa)          (Pa)       (-)       (-)       (-)       (-)       (-)
                0.0000  -3.8047e-004   1.4854e-004   6.9461e-004  -9.5975e+004   9.8285e+003   1.3892e+004    0.0000    0.0000    0.0000   -0.0000    0.0000
                0.1935  -4.6404e-004   1.8116e-004   6.9420e-004  -1.1705e+005   1.1984e+004   1.3884e+004    0.0000    0.0000    0.0000   -0.0000    0.0000
                0.6259  -6.4605e-004   2.5219e-004   6.9420e-004  -1.6297e+005   1.6678e+004   1.3884e+004    0.0000    0.0000    0.0000   -0.0000    0.0000
                1.0580  -8.2526e-004   3.2213e-004   6.8220e-004  -2.0818e+005   2.1300e+004   1.3644e+004    0.0000    0.0000    0.0000   -0.0000    0.0000
                1.4812  -1.0005e-003   3.9051e-004   6.4678e-004  -2.5238e+005   2.5818e+004   1.2936e+004    0.0000    0.0000    0.0000   -0.0000    0.0000
                1.8886  -1.1702e-003   4.5674e-004   5.9971e-004  -2.9519e+005   3.0195e+004   1.1994e+004    0.0000    0.0000    0.0000   -0.0000    0.0000
                1.9209  -1.1836e-003   4.6195e-004   5.4234e-004  -2.9856e+005   3.0538e+004   1.0847e+004    0.0000    0.0000    0.0000   -0.0000    0.0000

               lamina:  3     
              matName:  (blade-shell)
                     s           e11           e22           e12           s11           s22           s12   s11_fcT   s11_fcC   s22_fcT   s22_fcC   s12_fcS
                   (m)         (m/m)         (m/m)         (rad)          (Pa)          (Pa)          (Pa)       (-)       (-)       (-)       (-)       (-)
                0.0000  -3.6286e-004   1.4155e-004   6.9461e-004  -1.0182e+007  -5.4718e+004   4.8623e+006    0.0000    0.0478    0.0000    0.0000    0.0810
                0.1935  -4.4566e-004   1.7386e-004   6.9420e-004  -1.2505e+007  -6.7035e+004   4.8594e+006    0.0000    0.0587    0.0000    0.0000    0.0810
                0.6259  -6.2703e-004   2.4464e-004   6.9420e-004  -1.7595e+007  -9.3963e+004   4.8594e+006    0.0000    0.0826    0.0000    0.0000    0.0810
                1.0580  -8.0593e-004   3.1445e-004   6.8220e-004  -2.2614e+007  -1.2051e+005   4.7754e+006    0.0000    0.1062    0.0000    0.0000    0.0796
                1.4812  -9.8128e-004   3.8288e-004   6.4678e-004  -2.7534e+007  -1.4650e+005   4.5275e+006    0.0000    0.1293    0.0000    0.0000    0.0755
                1.8886  -1.1512e-003   4.4919e-004   5.9971e-004  -3.2302e+007  -1.7169e+005   4.1979e+006    0.0000    0.1517    0.0000    0.0000    0.0700
                1.9209  -1.1652e-003   4.5466e-004   5.4234e-004  -3.2695e+007  -1.7373e+005   3.7964e+006    0.0000    0.1535    0.0000    0.0000    0.0633

            panel:  5     
           lam_num    nPlies        tPly      fibAng     matID  matName
               (-)       (-)         (m)       (deg)       (-)  (-)
                 1         1    0.005000      0.0000         2  (blade-shell)
                 2         1    0.057503      0.0000         6  (TEP-core)
                 3         1    0.005000      0.0000         2  (blade-shell)

               lamina:  1     
              matName:  (blade-shell)
                     s           e11           e22           e12           s11           s22           s12   s11_fcT   s11_fcC   s22_fcT   s22_fcC   s12_fcS
                   (m)         (m/m)         (m/m)         (rad)          (Pa)          (Pa)          (Pa)       (-)       (-)       (-)       (-)       (-)
                0.0000  -1.1852e-003   4.6258e-004   4.7657e-004  -3.3254e+007  -1.7463e+005   3.3360e+006    0.0000    0.1561    0.0000    0.0000    0.0556
                0.3536  -1.3345e-003   5.2087e-004   4.7091e-004  -3.7445e+007  -1.9681e+005   3.2964e+006    0.0000    0.1758    0.0000    0.0000    0.0549
                0.7119  -1.4887e-003   5.8105e-004   5.4673e-004  -4.1772e+007  -2.1975e+005   3.8271e+006    0.0000    0.1961    0.0000    0.0000    0.0638
                1.0389  -1.6330e-003   6.3733e-004   4.8044e-004  -4.5819e+007  -2.4125e+005   3.3631e+006    0.0000    0.2151    0.0000    0.0000    0.0561
                1.3314  -1.7658e-003   6.8917e-004   4.0508e-004  -4.9547e+007  -2.6108e+005   2.8355e+006    0.0000    0.2326    0.0000    0.0000    0.0473
                1.5883  -1.8855e-003   7.3587e-004   3.2893e-004  -5.2906e+007  -2.7897e+005   2.3025e+006    0.0000    0.2484    0.0000    0.0000    0.0384
                1.8089  -1.9904e-003   7.7680e-004   2.5470e-004  -5.5850e+007  -2.9470e+005   1.7829e+006    0.0000    0.2622    0.0000    0.0000    0.0297
                1.9926  -2.0791e-003   8.1138e-004   1.8458e-004  -5.8337e+007  -3.0801e+005   1.2921e+006    0.0000    0.2739    0.0000    0.0000    0.0215
                2.1388  -2.1499e-003   8.3903e-004   1.2059e-004  -6.0326e+007  -3.1872e+005   8.4414e+005    0.0000    0.2832    0.0000    0.0000    0.0141
                2.2463  -2.2021e-003   8.5936e-004   6.4592e-005  -6.1789e+007  -3.2660e+005   4.5215e+005    0.0000    0.2901    0.0000    0.0000    0.0075
                2.3017  -2.2347e-003   8.7214e-004   1.8212e-005  -6.2704e+007  -3.3091e+005   1.2749e+005    0.0000    0.2944    0.0000    0.0000    0.0021
                2.3121  -2.2454e-003   8.7640e-004   1.6860e-005  -6.3004e+007  -3.3130e+005   1.1802e+005    0.0000    0.2958    0.0000    0.0000    0.0020

               lamina:  2     
              matName:  (TEP-core)
                     s           e11           e22           e12           s11           s22           s12   s11_fcT   s11_fcC   s22_fcT   s22_fcC   s12_fcS
                   (m)         (m/m)         (m/m)         (rad)          (Pa)          (Pa)          (Pa)       (-)       (-)       (-)       (-)       (-)
                0.0000  -1.1836e-003   4.6195e-004   4.7657e-004  -2.9856e+005   3.0538e+004   9.5315e+003    0.0000    0.0000    0.0000   -0.0000    0.0000
                0.3536  -1.3330e-003   5.2026e-004   4.7091e-004  -3.3625e+005   3.4391e+004   9.4182e+003    0.0000    0.0000    0.0000   -0.0000    0.0000
                0.7119  -1.4873e-003   5.8048e-004   5.4673e-004  -3.7518e+005   3.8369e+004   1.0935e+004    0.0000    0.0000    0.0000   -0.0000    0.0000
                1.0389  -1.6317e-003   6.3682e-004   4.8044e-004  -4.1161e+005   4.2091e+004   9.6088e+003    0.0000    0.0000    0.0000   -0.0000    0.0000
                1.3314  -1.7647e-003   6.8873e-004   4.0508e-004  -4.4517e+005   4.5519e+004   8.1016e+003    0.0000    0.0000    0.0000   -0.0000    0.0000
                1.5883  -1.8846e-003   7.3552e-004   3.2893e-004  -4.7542e+005   4.8609e+004   6.5787e+003    0.0000    0.0000    0.0000   -0.0000    0.0000
                1.8089  -1.9898e-003   7.7654e-004   2.5470e-004  -5.0194e+005   5.1318e+004   5.0940e+003    0.0000    0.0000    0.0000   -0.0000    0.0000
                1.9926  -2.0787e-003   8.1122e-004   1.8458e-004  -5.2437e+005   5.3607e+004   3.6916e+003    0.0000    0.0000    0.0000   -0.0000    0.0000
                2.1388  -2.1498e-003   8.3898e-004   1.2059e-004  -5.4232e+005   5.5439e+004   2.4118e+003    0.0000    0.0000    0.0000   -0.0000    0.0000
                2.2463  -2.2033e-003   8.5986e-004   6.4592e-005  -5.5582e+005   5.6819e+004   1.2918e+003    0.0000    0.0000    0.0000   -0.0000    0.0000
                2.3017  -2.2341e-003   8.7188e-004   1.8212e-005  -5.6357e+005   5.7618e+004   3.6425e+002    0.0000    0.0000    0.0000   -0.0000    0.0000
                2.3121  -2.2430e-003   8.7545e-004   1.6860e-005  -5.6583e+005   5.7868e+004   3.3720e+002    0.0000    0.0000    0.0000   -0.0000    0.0000

               lamina:  3     
              matName:  (blade-shell)
                     s           e11           e22           e12           s11           s22           s12   s11_fcT   s11_fcC   s22_fcT   s22_fcC   s12_fcS
                   (m)         (m/m)         (m/m)         (rad)          (Pa)          (Pa)          (Pa)       (-)       (-)       (-)       (-)       (-)
                0.0000  -1.1652e-003   4.5466e-004   4.7657e-004  -3.2695e+007  -1.7373e+005   3.3360e+006    0.0000    0.1535    0.0000    0.0000    0.0556
                0.3536  -1.3151e-003   5.1317e-004   4.7091e-004  -3.6902e+007  -1.9594e+005   3.2964e+006    0.0000    0.1732    0.0000    0.0000    0.0549
                0.7119  -1.4707e-003   5.7389e-004   5.4673e-004  -4.1267e+007  -2.1894e+005   3.8271e+006    0.0000    0.1937    0.0000    0.0000    0.0638
                1.0389  -1.6169e-003   6.3094e-004   4.8044e-004  -4.5369e+007  -2.4052e+005   3.3631e+006    0.0000    0.2130    0.0000    0.0000    0.0561
                1.3314  -1.7521e-003   6.8373e-004   4.0508e-004  -4.9163e+007  -2.6046e+005   2.8355e+006    0.0000    0.2308    0.0000    0.0000    0.0473
                1.5883  -1.8744e-003   7.3147e-004   3.2893e-004  -5.2595e+007  -2.7848e+005   2.3025e+006    0.0000    0.2469    0.0000    0.0000    0.0384
                1.8089  -1.9823e-003   7.7357e-004   2.5470e-004  -5.5621e+007  -2.9433e+005   1.7829e+006    0.0000    0.2611    0.0000    0.0000    0.0297
                1.9926  -2.0741e-003   8.0940e-004   1.8458e-004  -5.8197e+007  -3.0779e+005   1.2921e+006    0.0000    0.2732    0.0000    0.0000    0.0215
                2.1388  -2.1484e-003   8.3841e-004   1.2059e-004  -6.0282e+007  -3.1865e+005   8.4414e+005    0.0000    0.2830    0.0000    0.0000    0.0141
                2.2463  -2.2034e-003   8.5990e-004   6.4592e-005  -6.1827e+007  -3.2666e+005   4.5215e+005    0.0000    0.2903    0.0000    0.0000    0.0075
                2.3017  -2.2264e-003   8.6885e-004   1.8212e-005  -6.2473e+007  -3.3054e+005   1.2749e+005    0.0000    0.2933    0.0000    0.0000    0.0021
                2.3121  -2.2156e-003   8.6456e-004   1.6860e-005  -6.2169e+007  -3.2996e+005   1.1802e+005    0.0000    0.2919    0.0000    0.0000    0.0020

     Web:  panel  nNode   nLam     xc_St    xc_End         b         t         E_eff         G_eff      nu_eff     density  buckleCrit
            (-)    (-)    (-)       (-)       (-)       (m)       (m)          (Pa)          (Pa)         (-)    (kg/m^3)         (-)
              1     10      3    0.2827    0.2827    2.7826    0.0830   7.6445e+008   4.5301e+008      0.4420    257.1084      0.0008
              2     10      3    0.4762    0.4762    2.3017    0.0830   7.6445e+008   4.5301e+008      0.4420    257.1084      0.0006
              3     10      3    0.7072    0.7072    1.0628    0.0830   7.6445e+008   4.5301e+008      0.4420    257.1084      0.0001

            panel:  1     
           lam_num    nPlies        tPly      fibAng     matID  matName
               (-)       (-)         (m)       (deg)       (-)  (-)
                 1         1    0.001500      0.0000         7  (web-shell)
                 2         1    0.080000      0.0000         8  (web-core)
                 3         1    0.001500      0.0000         7  (web-shell)

               lamina:  1     
              matName:  (web-shell)
                     s           e11           e22           e12           s11           s22           s12   s11_fcT   s11_fcC   s22_fcT   s22_fcC   s12_fcS
                   (m)         (m/m)         (m/m)         (rad)          (Pa)          (Pa)          (Pa)       (-)       (-)       (-)       (-)       (-)
                0.0000   5.2155e-004  -2.2962e-004   1.9294e-004   7.5925e+006   5.8159e+005   2.3153e+006    0.0527   -0.0000    0.0000   -0.0000    0.0257
                0.3092   4.9647e-004  -2.1853e-004   2.0305e-004   7.2278e+006   5.5444e+005   2.4367e+006    0.0502   -0.0000    0.0000   -0.0000    0.0271
                0.6184   4.7139e-004  -2.0745e-004   2.1269e-004   6.8631e+006   5.2730e+005   2.5523e+006    0.0477   -0.0000    0.0000   -0.0000    0.0284
                0.9275   4.4631e-004  -1.9636e-004   2.2185e-004   6.4984e+006   5.0016e+005   2.6622e+006    0.0451   -0.0000    0.0000   -0.0000    0.0296
                1.2367   4.2123e-004  -1.8527e-004   2.3054e-004   6.1337e+006   4.7302e+005   2.7665e+006    0.0426   -0.0000    0.0000   -0.0000    0.0307
                1.5459   3.9615e-004  -1.7419e-004   2.3876e-004   5.7690e+006   4.4588e+005   2.8651e+006    0.0401   -0.0000    0.0000   -0.0000    0.0318
                1.8551   3.7106e-004  -1.6310e-004   2.4650e-004   5.4043e+006   4.1874e+005   2.9580e+006    0.0375   -0.0000    0.0000   -0.0000    0.0329
                2.1642   3.4598e-004  -1.5201e-004   2.5377e-004   5.0396e+006   3.9160e+005   3.0452e+006    0.0350   -0.0000    0.0000   -0.0000    0.0338
                2.4734   3.2090e-004  -1.4093e-004   2.6057e-004   4.6748e+006   3.6446e+005   3.1268e+006    0.0325   -0.0000    0.0000   -0.0000    0.0347
                2.7826   2.9582e-004  -1.2984e-004   2.6689e-004   4.3101e+006   3.3731e+005   3.2026e+006    0.0299   -0.0000    0.0000   -0.0000    0.0356

               lamina:  2     
              matName:  (web-core)
                     s           e11           e22           e12           s11           s22           s12   s11_fcT   s11_fcC   s22_fcT   s22_fcC   s12_fcS
                   (m)         (m/m)         (m/m)         (rad)          (Pa)          (Pa)          (Pa)       (-)       (-)       (-)       (-)       (-)
                0.0000   5.7452e-004  -2.5487e-004   1.9294e-004   1.4230e+005  -2.3577e+004   3.8589e+003    0.0000   -0.0000    0.0000    0.0000    0.0000
                0.3092   5.4944e-004  -2.4379e-004   2.0305e-004   1.3609e+005  -2.2559e+004   4.0611e+003    0.0000   -0.0000    0.0000    0.0000    0.0000
                0.6184   5.2435e-004  -2.3270e-004   2.1269e-004   1.2987e+005  -2.1541e+004   4.2538e+003    0.0000   -0.0000    0.0000    0.0000    0.0000
                0.9275   4.9927e-004  -2.2161e-004   2.2185e-004   1.2365e+005  -2.0524e+004   4.4371e+003    0.0000   -0.0000    0.0000    0.0000    0.0000
                1.2367   4.7419e-004  -2.1053e-004   2.3054e-004   1.1744e+005  -1.9506e+004   4.6109e+003    0.0000   -0.0000    0.0000    0.0000    0.0000
                1.5459   4.4911e-004  -1.9944e-004   2.3876e-004   1.1122e+005  -1.8488e+004   4.7752e+003    0.0000   -0.0000    0.0000    0.0000    0.0000
                1.8551   4.2403e-004  -1.8835e-004   2.4650e-004   1.0501e+005  -1.7470e+004   4.9300e+003    0.0000   -0.0000    0.0000    0.0000    0.0000
                2.1642   3.9895e-004  -1.7727e-004   2.5377e-004   9.8791e+004  -1.6452e+004   5.0754e+003    0.0000   -0.0000    0.0000    0.0000    0.0000
                2.4734   3.7387e-004  -1.6618e-004   2.6057e-004   9.2575e+004  -1.5435e+004   5.2113e+003    0.0000   -0.0000    0.0000    0.0000    0.0000
                2.7826   3.4878e-004  -1.5509e-004   2.6689e-004   8.6359e+004  -1.4417e+004   5.3377e+003    0.0000   -0.0000    0.0000    0.0000    0.0000

               lamina:  3     
              matName:  (web-shell)
                     s           e11           e22           e12           s11           s22           s12   s11_fcT   s11_fcC   s22_fcT   s22_fcC   s12_fcS
                   (m)         (m/m)         (m/m)         (rad)          (Pa)          (Pa)          (Pa)       (-)       (-)       (-)       (-)       (-)
                0.0000   5.7551e-004  -2.5535e-004   1.9294e-004   8.3596e+006   6.0493e+005   2.3153e+006    0.0581   -0.0000    0.0000   -0.0000    0.0257
                0.3092   5.5043e-004  -2.4426e-004   2.0305e-004   7.9949e+006   5.7779e+005   2.4367e+006    0.0555   -0.0000    0.0000   -0.0000    0.0271
                0.6184   5.2535e-004  -2.3317e-004   2.1269e-004   7.6302e+006   5.5065e+005   2.5523e+006    0.0530   -0.0000    0.0000   -0.0000    0.0284
                0.9275   5.0027e-004  -2.2209e-004   2.2185e-004   7.2655e+006   5.2351e+005   2.6622e+006    0.0505   -0.0000    0.0000   -0.0000    0.0296
                1.2367   4.7518e-004  -2.1100e-004   2.3054e-004   6.9008e+006   4.9636e+005   2.7665e+006    0.0479   -0.0000    0.0000   -0.0000    0.0307
                1.5459   4.5010e-004  -1.9991e-004   2.3876e-004   6.5361e+006   4.6922e+005   2.8651e+006    0.0454   -0.0000    0.0000   -0.0000    0.0318
                1.8551   4.2502e-004  -1.8883e-004   2.4650e-004   6.1713e+006   4.4208e+005   2.9580e+006    0.0429   -0.0000    0.0000   -0.0000    0.0329
                2.1642   3.9994e-004  -1.7774e-004   2.5377e-004   5.8066e+006   4.1494e+005   3.0452e+006    0.0403   -0.0000    0.0000   -0.0000    0.0338
                2.4734   3.7486e-004  -1.6665e-004   2.6057e-004   5.4419e+006   3.8780e+005   3.1268e+006    0.0378   -0.0000    0.0000   -0.0000    0.0347
                2.7826   3.4978e-004  -1.5557e-004   2.6689e-004   5.0772e+006   3.6066e+005   3.2026e+006    0.0353   -0.0000    0.0000   -0.0000    0.0356

            panel:  2     
           lam_num    nPlies        tPly      fibAng     matID  matName
               (-)       (-)         (m)       (deg)       (-)  (-)
                 1         1    0.001500      0.0000         7  (web-shell)
                 2         1    0.080000      0.0000         8  (web-core)
                 3         1    0.001500      0.0000         7  (web-shell)

               lamina:  1     
              matName:  (web-shell)
                     s           e11           e22           e12           s11           s22           s12   s11_fcT   s11_fcC   s22_fcT   s22_fcC   s12_fcS
                   (m)         (m/m)         (m/m)         (rad)          (Pa)          (Pa)          (Pa)       (-)       (-)       (-)       (-)       (-)
                0.0000  -2.0980e-004   9.3695e-005   2.7616e-004  -3.0418e+006  -2.0917e+005   3.3139e+006    0.0000    0.0143    0.0000    0.0000    0.0368
                0.2557  -2.2989e-004   1.0258e-004   2.7315e-004  -3.3339e+006  -2.3091e+005   3.2778e+006    0.0000    0.0157    0.0000    0.0000    0.0364
                0.5115  -2.4998e-004   1.1146e-004   2.6984e-004  -3.6261e+006  -2.5265e+005   3.2380e+006    0.0000    0.0170    0.0000    0.0000    0.0360
                0.7672  -2.7007e-004   1.2034e-004   2.6621e-004  -3.9182e+006  -2.7439e+005   3.1945e+006    0.0000    0.0184    0.0000    0.0000    0.0355
                1.0230  -2.9016e-004   1.2922e-004   2.6226e-004  -4.2103e+006  -2.9613e+005   3.1471e+006    0.0000    0.0198    0.0000    0.0000    0.0350
                1.2787  -3.1025e-004   1.3810e-004   2.5800e-004  -4.5024e+006  -3.1787e+005   3.0960e+006    0.0000    0.0211    0.0000    0.0000    0.0344
                1.5345  -3.3034e-004   1.4698e-004   2.5343e-004  -4.7946e+006  -3.3961e+005   3.0412e+006    0.0000    0.0225    0.0000    0.0000    0.0338
                1.7902  -3.5043e-004   1.5586e-004   2.4855e-004  -5.0867e+006  -3.6135e+005   2.9826e+006    0.0000    0.0239    0.0000    0.0000    0.0331
                2.0459  -3.7052e-004   1.6474e-004   2.4335e-004  -5.3788e+006  -3.8309e+005   2.9202e+006    0.0000    0.0253    0.0000    0.0000    0.0324
                2.3017  -3.9061e-004   1.7362e-004   2.3783e-004  -5.6710e+006  -4.0483e+005   2.8540e+006    0.0000    0.0266    0.0000    0.0000    0.0317

               lamina:  2     
              matName:  (web-core)
                     s           e11           e22           e12           s11           s22           s12   s11_fcT   s11_fcC   s22_fcT   s22_fcC   s12_fcS
                   (m)         (m/m)         (m/m)         (rad)          (Pa)          (Pa)          (Pa)       (-)       (-)       (-)       (-)       (-)
                0.0000  -2.0881e-004   9.3221e-005   2.7616e-004  -5.1669e+004   8.7368e+003   5.5231e+003    0.0000    0.0000    0.0000   -0.0000    0.0000
                0.2557  -2.2890e-004   1.0210e-004   2.7315e-004  -5.6648e+004   9.5521e+003   5.4631e+003    0.0000    0.0000    0.0000   -0.0000    0.0000
                0.5115  -2.4899e-004   1.1098e-004   2.6984e-004  -6.1627e+004   1.0367e+004   5.3967e+003    0.0000    0.0000    0.0000   -0.0000    0.0000
                0.7672  -2.6908e-004   1.1986e-004   2.6621e-004  -6.6605e+004   1.1183e+004   5.3241e+003    0.0000    0.0000    0.0000   -0.0000    0.0000
                1.0230  -2.8917e-004   1.2874e-004   2.6226e-004  -7.1584e+004   1.1998e+004   5.2452e+003    0.0000    0.0000    0.0000   -0.0000    0.0000
                1.2787  -3.0926e-004   1.3762e-004   2.5800e-004  -7.6563e+004   1.2813e+004   5.1601e+003    0.0000    0.0000    0.0000   -0.0000    0.0000
                1.5345  -3.2935e-004   1.4650e-004   2.5343e-004  -8.1542e+004   1.3628e+004   5.0686e+003    0.0000    0.0000    0.0000   -0.0000    0.0000
                1.7902  -3.4944e-004   1.5538e-004   2.4855e-004  -8.6520e+004   1.4444e+004   4.9709e+003    0.0000    0.0000    0.0000   -0.0000    0.0000
                2.0459  -3.6953e-004   1.6426e-004   2.4335e-004  -9.1499e+004   1.5259e+004   4.8669e+003    0.0000    0.0000    0.0000   -0.0000    0.0000
                2.3017  -3.8962e-004   1.7314e-004   2.3783e-004  -9.6478e+004   1.6074e+004   4.7567e+003    0.0000    0.0000    0.0000   -0.0000    0.0000

               lamina:  3     
              matName:  (web-shell)
                     s           e11           e22           e12           s11           s22           s12   s11_fcT   s11_fcC   s22_fcT   s22_fcC   s12_fcS
                   (m)         (m/m)         (m/m)         (rad)          (Pa)          (Pa)          (Pa)       (-)       (-)       (-)       (-)       (-)
                0.0000  -1.5580e-004   6.7945e-005   2.7616e-004  -2.2741e+006  -1.8581e+005   3.3139e+006    0.0000    0.0107    0.0000    0.0000    0.0368
                0.2557  -1.7589e-004   7.6826e-005   2.7315e-004  -2.5662e+006  -2.0755e+005   3.2778e+006    0.0000    0.0120    0.0000    0.0000    0.0364
                0.5115  -1.9598e-004   8.5706e-005   2.6984e-004  -2.8583e+006  -2.2929e+005   3.2380e+006    0.0000    0.0134    0.0000    0.0000    0.0360
                0.7672  -2.1607e-004   9.4586e-005   2.6621e-004  -3.1505e+006  -2.5103e+005   3.1945e+006    0.0000    0.0148    0.0000    0.0000    0.0355
                1.0230  -2.3616e-004   1.0347e-004   2.6226e-004  -3.4426e+006  -2.7277e+005   3.1471e+006    0.0000    0.0162    0.0000    0.0000    0.0350
                1.2787  -2.5625e-004   1.1235e-004   2.5800e-004  -3.7347e+006  -2.9451e+005   3.0960e+006    0.0000    0.0175    0.0000    0.0000    0.0344
                1.5345  -2.7634e-004   1.2123e-004   2.5343e-004  -4.0269e+006  -3.1625e+005   3.0412e+006    0.0000    0.0189    0.0000    0.0000    0.0338
                1.7902  -2.9643e-004   1.3011e-004   2.4855e-004  -4.3190e+006  -3.3799e+005   2.9826e+006    0.0000    0.0203    0.0000    0.0000    0.0331
                2.0459  -3.1652e-004   1.3899e-004   2.4335e-004  -4.6111e+006  -3.5973e+005   2.9202e+006    0.0000    0.0216    0.0000    0.0000    0.0324
                2.3017  -3.3661e-004   1.4787e-004   2.3783e-004  -4.9032e+006  -3.8147e+005   2.8540e+006    0.0000    0.0230    0.0000    0.0000    0.0317

            panel:  3     
           lam_num    nPlies        tPly      fibAng     matID  matName
               (-)       (-)         (m)       (deg)       (-)  (-)
                 1         1    0.001500      0.0000         7  (web-shell)
                 2         1    0.080000      0.0000         8  (web-core)
                 3         1    0.001500      0.0000         7  (web-shell)

               lamina:  1     
              matName:  (web-shell)
                     s           e11           e22           e12           s11           s22           s12   s11_fcT   s11_fcC   s22_fcT   s22_fcC   s12_fcS
                   (m)         (m/m)         (m/m)         (rad)          (Pa)          (Pa)          (Pa)       (-)       (-)       (-)       (-)       (-)
                0.0000  -1.1098e-003   4.9153e-004   2.1641e-004  -1.6129e+007  -1.1831e+006   2.5969e+006    0.0000    0.0757    0.0000    0.0000    0.0289
                0.1181  -1.1191e-003   4.9561e-004   2.0857e-004  -1.6263e+007  -1.1931e+006   2.5028e+006    0.0000    0.0764    0.0000    0.0000    0.0278
                0.2362  -1.1283e-003   4.9970e-004   2.0067e-004  -1.6398e+007  -1.2031e+006   2.4080e+006    0.0000    0.0770    0.0000    0.0000    0.0268
                0.3543  -1.1375e-003   5.0378e-004   1.9270e-004  -1.6532e+007  -1.2131e+006   2.3124e+006    0.0000    0.0776    0.0000    0.0000    0.0257
                0.4724  -1.1468e-003   5.0786e-004   1.8466e-004  -1.6666e+007  -1.2231e+006   2.2159e+006    0.0000    0.0782    0.0000    0.0000    0.0246
                0.5905  -1.1560e-003   5.1194e-004   1.7656e-004  -1.6801e+007  -1.2331e+006   2.1187e+006    0.0000    0.0789    0.0000    0.0000    0.0235
                0.7086  -1.1652e-003   5.1603e-004   1.6838e-004  -1.6935e+007  -1.2431e+006   2.0206e+006    0.0000    0.0795    0.0000    0.0000    0.0225
                0.8266  -1.1745e-003   5.2011e-004   1.6015e-004  -1.7069e+007  -1.2531e+006   1.9218e+006    0.0000    0.0801    0.0000    0.0000    0.0214
                0.9447  -1.1837e-003   5.2419e-004   1.5184e-004  -1.7203e+007  -1.2631e+006   1.8221e+006    0.0000    0.0808    0.0000    0.0000    0.0202
                1.0628  -1.1929e-003   5.2827e-004   1.4347e-004  -1.7338e+007  -1.2731e+006   1.7217e+006    0.0000    0.0814    0.0000    0.0000    0.0191

               lamina:  2     
              matName:  (web-core)
                     s           e11           e22           e12           s11           s22           s12   s11_fcT   s11_fcC   s22_fcT   s22_fcC   s12_fcS
                   (m)         (m/m)         (m/m)         (rad)          (Pa)          (Pa)          (Pa)       (-)       (-)       (-)       (-)       (-)
                0.0000  -1.1088e-003   4.9106e-004   2.1641e-004  -2.7472e+005   4.5260e+004   4.3282e+003    0.0000    0.0000    0.0000   -0.0000    0.0000
                0.1181  -1.1181e-003   4.9514e-004   2.0857e-004  -2.7701e+005   4.5634e+004   4.1714e+003    0.0000    0.0000    0.0000   -0.0000    0.0000
                0.2362  -1.1273e-003   4.9922e-004   2.0067e-004  -2.7930e+005   4.6009e+004   4.0133e+003    0.0000    0.0000    0.0000   -0.0000    0.0000
                0.3543  -1.1365e-003   5.0331e-004   1.9270e-004  -2.8158e+005   4.6384e+004   3.8539e+003    0.0000    0.0000    0.0000   -0.0000    0.0000
                0.4724  -1.1458e-003   5.0739e-004   1.8466e-004  -2.8387e+005   4.6759e+004   3.6932e+003    0.0000    0.0000    0.0000   -0.0000    0.0000
                0.5905  -1.1550e-003   5.1147e-004   1.7656e-004  -2.8616e+005   4.7133e+004   3.5311e+003    0.0000    0.0000    0.0000   -0.0000    0.0000
                0.7086  -1.1642e-003   5.1555e-004   1.6838e-004  -2.8845e+005   4.7508e+004   3.3677e+003    0.0000    0.0000    0.0000   -0.0000    0.0000
                0.8266  -1.1735e-003   5.1964e-004   1.6015e-004  -2.9074e+005   4.7883e+004   3.2030e+003    0.0000    0.0000    0.0000   -0.0000    0.0000
                0.9447  -1.1827e-003   5.2372e-004   1.5184e-004  -2.9303e+005   4.8258e+004   3.0369e+003    0.0000    0.0000    0.0000   -0.0000    0.0000
                1.0628  -1.1920e-003   5.2780e-004   1.4347e-004  -2.9532e+005   4.8633e+004   2.8695e+003    0.0000    0.0000    0.0000   -0.0000    0.0000

               lamina:  3     
              matName:  (web-shell)
                     s           e11           e22           e12           s11           s22           s12   s11_fcT   s11_fcC   s22_fcT   s22_fcC   s12_fcS
                   (m)         (m/m)         (m/m)         (rad)          (Pa)          (Pa)          (Pa)       (-)       (-)       (-)       (-)       (-)
                0.0000  -1.0558e-003   4.6578e-004   2.1641e-004  -1.5361e+007  -1.1597e+006   2.5969e+006    0.0000    0.0721    0.0000    0.0000    0.0289
                0.1181  -1.0651e-003   4.6986e-004   2.0857e-004  -1.5496e+007  -1.1697e+006   2.5028e+006    0.0000    0.0727    0.0000    0.0000    0.0278
                0.2362  -1.0743e-003   4.7394e-004   2.0067e-004  -1.5630e+007  -1.1797e+006   2.4080e+006    0.0000    0.0734    0.0000    0.0000    0.0268
                0.3543  -1.0835e-003   4.7803e-004   1.9270e-004  -1.5764e+007  -1.1897e+006   2.3124e+006    0.0000    0.0740    0.0000    0.0000    0.0257
                0.4724  -1.0928e-003   4.8211e-004   1.8466e-004  -1.5898e+007  -1.1997e+006   2.2159e+006    0.0000    0.0746    0.0000    0.0000    0.0246
                0.5905  -1.1020e-003   4.8619e-004   1.7656e-004  -1.6033e+007  -1.2097e+006   2.1187e+006    0.0000    0.0753    0.0000    0.0000    0.0235
                0.7086  -1.1112e-003   4.9027e-004   1.6838e-004  -1.6167e+007  -1.2197e+006   2.0206e+006    0.0000    0.0759    0.0000    0.0000    0.0225
                0.8266  -1.1205e-003   4.9436e-004   1.6015e-004  -1.6301e+007  -1.2297e+006   1.9218e+006    0.0000    0.0765    0.0000    0.0000    0.0214
                0.9447  -1.1297e-003   4.9844e-004   1.5184e-004  -1.6436e+007  -1.2397e+006   1.8221e+006    0.0000    0.0772    0.0000    0.0000    0.0202
                1.0628  -1.1389e-003   5.0252e-004   1.4347e-004  -1.6570e+007  -1.2497e+006   1.7217e+006    0.0000    0.0778    0.0000    0.0000    0.0191

================================================================================
sec        =  17     
zSec       =  23.0000  (m)
nPanelsTop =  5      
nPanelsBot =  5      
nWebs      =  3      

    Top:  panel  nNode   nLam     xc_St    xc_End         b         t         E_eff         G_eff      nu_eff     density  buckleCrit
            (-)    (-)    (-)       (-)       (-)       (m)       (m)          (Pa)          (Pa)         (-)    (kg/m^3)         (-)
              1     12      3    0.0000    0.2811    2.6313    0.0700   4.2251e+009   1.0171e+009      0.3899    435.7143      0.0003
              2      6      5    0.2811    0.4749    1.4574    0.1427   4.1032e+010   3.2803e+009      0.2889   1915.0696      0.0000
              3      2      3    0.4749    0.4757    0.0068    0.0642   4.5848e+009   1.1077e+009      0.3908    457.1120      0.0000
              4      6      3    0.4757    0.7031    1.7652    0.0642   4.5848e+009   1.1077e+009      0.3908    457.1120      0.1007
              5     13      3    0.7031    1.0000    2.3300    0.0642   4.5848e+009   1.1077e+009      0.3908    457.1120      0.4198

            panel:  1     
           lam_num    nPlies        tPly      fibAng     matID  matName
               (-)       (-)         (m)       (deg)       (-)  (-)
                 1         1    0.005000      0.0000         2  (blade-shell)
                 2         1    0.060000      0.0000         5  (LEP-core)
                 3         1    0.005000      0.0000         2  (blade-shell)

               lamina:  1     
              matName:  (blade-shell)
                     s           e11           e22           e12           s11           s22           s12   s11_fcT   s11_fcC   s22_fcT   s22_fcC   s12_fcS
                   (m)         (m/m)         (m/m)         (rad)          (Pa)          (Pa)          (Pa)       (-)       (-)       (-)       (-)       (-)
                0.0000   1.4442e-003  -5.6320e-004   1.2404e-004   4.0526e+007   2.2034e+005   8.6825e+005    0.2814   -0.0000    0.0000   -0.0000    0.0145
                0.1494   1.4468e-003  -5.6422e-004   9.1232e-005   4.0599e+007   2.2075e+005   6.3862e+005    0.2819   -0.0000    0.0000   -0.0000    0.0106
                0.3274   1.4317e-003  -5.5830e-004   5.2291e-005   4.0174e+007   2.1849e+005   3.6604e+005    0.2790   -0.0000    0.0000   -0.0000    0.0061
                0.5122   1.3961e-003  -5.4444e-004   1.2560e-005   3.9177e+007   2.1318e+005   8.7920e+004    0.2721   -0.0000    0.0000   -0.0000    0.0015
                0.7175   1.3414e-003  -5.2308e-004   3.0202e-005   3.7640e+007   2.0492e+005   2.1142e+005    0.2614   -0.0000    0.0000   -0.0000    0.0035
                0.9456   1.2680e-003  -4.9447e-004   7.5528e-005   3.5582e+007   1.9382e+005   5.2869e+005    0.2471   -0.0000    0.0000   -0.0000    0.0088
                1.1945   1.1764e-003  -4.5874e-004   1.2189e-004   3.3012e+007   1.7992e+005   8.5320e+005    0.2292   -0.0000    0.0000   -0.0000    0.0142
                1.4645   1.0674e-003  -4.1623e-004   1.6810e-004   2.9952e+007   1.6332e+005   1.1767e+006    0.2080   -0.0000    0.0000   -0.0000    0.0196
                1.7564   9.4224e-004  -3.6742e-004   2.1285e-004   2.6440e+007   1.4424e+005   1.4900e+006    0.1836   -0.0000    0.0000   -0.0000    0.0248
                2.0672   8.0162e-004  -3.1258e-004   2.5425e-004   2.2494e+007   1.2279e+005   1.7798e+006    0.1562   -0.0000    0.0000   -0.0000    0.0297
                2.3980   6.4715e-004  -2.5234e-004   2.9087e-004   1.8160e+007   9.9166e+004   2.0361e+006    0.1261   -0.0000    0.0000   -0.0000    0.0339
                2.6313   5.3578e-004  -2.0891e-004   3.1198e-004   1.5035e+007   8.2121e+004   2.1839e+006    0.1044   -0.0000    0.0000   -0.0000    0.0364

               lamina:  2     
              matName:  (LEP-core)
                     s           e11           e22           e12           s11           s22           s12   s11_fcT   s11_fcC   s22_fcT   s22_fcC   s12_fcS
                   (m)         (m/m)         (m/m)         (rad)          (Pa)          (Pa)          (Pa)       (-)       (-)       (-)       (-)       (-)
                0.0000   1.4413e-003  -5.6205e-004   1.2404e-004   3.6363e+005  -3.7046e+004   2.4807e+003    0.0000   -0.0000    0.0000    0.0000    0.0000
                0.1494   1.4439e-003  -5.6308e-004   9.1232e-005   3.6429e+005  -3.7113e+004   1.8246e+003    0.0000   -0.0000    0.0000    0.0000    0.0000
                0.3274   1.4289e-003  -5.5720e-004   5.2291e-005   3.6049e+005  -3.6725e+004   1.0458e+003    0.0000   -0.0000    0.0000    0.0000    0.0000
                0.5122   1.3935e-003  -5.4342e-004   1.2560e-005   3.5158e+005  -3.5815e+004   2.5120e+002    0.0000   -0.0000    0.0000    0.0000    0.0000
                0.7175   1.3390e-003  -5.2216e-004   3.0202e-005   3.3783e+005  -3.4413e+004   6.0405e+002    0.0000   -0.0000    0.0000    0.0000    0.0000
                0.9456   1.2660e-003  -4.9365e-004   7.5528e-005   3.1939e+005  -3.2533e+004   1.5106e+003    0.0000   -0.0000    0.0000    0.0000    0.0000
                1.1945   1.1746e-003  -4.5803e-004   1.2189e-004   2.9635e+005  -3.0184e+004   2.4377e+003    0.0000   -0.0000    0.0000    0.0000    0.0000
                1.4645   1.0659e-003  -4.1562e-004   1.6810e-004   2.6891e+005  -2.7389e+004   3.3620e+003    0.0000   -0.0000    0.0000    0.0000    0.0000
                1.7564   9.4099e-004  -3.6692e-004   2.1285e-004   2.3740e+005  -2.4178e+004   4.2570e+003    0.0000   -0.0000    0.0000    0.0000    0.0000
                2.0672   8.0066e-004  -3.1220e-004   2.5425e-004   2.0200e+005  -2.0571e+004   5.0851e+003    0.0000   -0.0000    0.0000    0.0000    0.0000
                2.3980   6.4643e-004  -2.5206e-004   2.9087e-004   1.6309e+005  -1.6608e+004   5.8175e+003    0.0000   -0.0000    0.0000    0.0000    0.0000
                2.6313   5.3521e-004  -2.0869e-004   3.1198e-004   1.3503e+005  -1.3750e+004   6.2396e+003    0.0000   -0.0000    0.0000    0.0000    0.0000

               lamina:  3     
              matName:  (blade-shell)
                     s           e11           e22           e12           s11           s22           s12   s11_fcT   s11_fcC   s22_fcT   s22_fcC   s12_fcS
                   (m)         (m/m)         (m/m)         (rad)          (Pa)          (Pa)          (Pa)       (-)       (-)       (-)       (-)       (-)
                0.0000   1.4065e-003  -5.4824e-004   1.2404e-004   3.9470e+007   2.1857e+005   8.6825e+005    0.2741   -0.0000    0.0000   -0.0000    0.0145
                0.1494   1.4092e-003  -5.4930e-004   9.1232e-005   3.9546e+007   2.1898e+005   6.3862e+005    0.2746   -0.0000    0.0000   -0.0000    0.0106
                0.3274   1.3954e-003  -5.4393e-004   5.2291e-005   3.9159e+007   2.1679e+005   3.6604e+005    0.2719   -0.0000    0.0000   -0.0000    0.0061
                0.5122   1.3627e-003  -5.3118e-004   1.2560e-005   3.8241e+007   2.1161e+005   8.7920e+004    0.2656   -0.0000    0.0000   -0.0000    0.0015
                0.7175   1.3111e-003  -5.1108e-004   3.0202e-005   3.6793e+007   2.0350e+005   2.1142e+005    0.2555   -0.0000    0.0000   -0.0000    0.0035
                0.9456   1.2412e-003  -4.8382e-004   7.5528e-005   3.4830e+007   1.9256e+005   5.2869e+005    0.2419   -0.0000    0.0000   -0.0000    0.0088
                1.1945   1.1532e-003  -4.4953e-004   1.2189e-004   3.2361e+007   1.7882e+005   8.5320e+005    0.2247   -0.0000    0.0000   -0.0000    0.0142
                1.4645   1.0476e-003  -4.0838e-004   1.6810e-004   2.9399e+007   1.6239e+005   1.1767e+006    0.2042   -0.0000    0.0000   -0.0000    0.0196
                1.7564   9.2601e-004  -3.6098e-004   2.1285e-004   2.5986e+007   1.4347e+005   1.4900e+006    0.1805   -0.0000    0.0000   -0.0000    0.0248
                2.0672   7.8909e-004  -3.0761e-004   2.5425e-004   2.2143e+007   1.2220e+005   1.7798e+006    0.1538   -0.0000    0.0000   -0.0000    0.0297
                2.3980   6.3775e-004  -2.4861e-004   2.9087e-004   1.7896e+007   9.8723e+004   2.0361e+006    0.1243   -0.0000    0.0000   -0.0000    0.0339
                2.6313   5.2836e-004  -2.0597e-004   3.1198e-004   1.4827e+007   8.1771e+004   2.1839e+006    0.1030   -0.0000    0.0000   -0.0000    0.0364

            panel:  2     
           lam_num    nPlies        tPly      fibAng     matID  matName
               (-)       (-)         (m)       (deg)       (-)  (-)
                 1         1    0.005000      0.0000         2  (blade-shell)
                 2         1    0.066336      0.0000         3  (spar-uni)
                 3         1    0.000002      0.0000         4  (spar-core)
                 4         1    0.066336      0.0000         3  (spar-uni)
                 5         1    0.005000      0.0000         2  (blade-shell)

               lamina:  1     
              matName:  (blade-shell)
                     s           e11           e22           e12           s11           s22           s12   s11_fcT   s11_fcC   s22_fcT   s22_fcC   s12_fcS
                   (m)         (m/m)         (m/m)         (rad)          (Pa)          (Pa)          (Pa)       (-)       (-)       (-)       (-)       (-)
                0.0000   5.4954e-004  -1.5908e-004   3.2075e-005   1.5757e+007   9.2427e+005   2.2453e+005    0.1094   -0.0000    0.0000   -0.0000    0.0037
                0.1128   4.9006e-004  -1.4180e-004   5.8341e-005   1.4052e+007   8.2516e+005   4.0839e+005    0.0976   -0.0000    0.0000   -0.0000    0.0068
                0.4791   3.1017e-004  -8.9762e-005   1.2419e-004   8.8936e+006   5.2205e+005   8.6932e+005    0.0618   -0.0000    0.0000   -0.0000    0.0145
                0.8592   1.2228e-004  -3.5405e-005   1.6095e-004   3.5060e+006   2.0552e+005   1.1266e+006    0.0243   -0.0000    0.0000   -0.0000    0.0188
                1.2510  -7.0594e-005   2.0372e-005   1.6506e-004  -2.0245e+006  -1.1968e+005   1.1554e+006    0.0000    0.0095    0.0000    0.0000    0.0193
                1.4574  -1.7275e-004   4.9925e-005   1.5341e-004  -4.9539e+006  -2.9182e+005   1.0739e+006    0.0000    0.0233    0.0000    0.0000    0.0179

               lamina:  2     
              matName:  (spar-uni)
                     s           e11           e22           e12           s11           s22           s12   s11_fcT   s11_fcC   s22_fcT   s22_fcC   s12_fcS
                   (m)         (m/m)         (m/m)         (rad)          (Pa)          (Pa)          (Pa)       (-)       (-)       (-)       (-)       (-)
                0.0000   5.4805e-004  -1.5862e-004   3.2075e-005   2.2997e+007  -7.4319e+004   9.6225e+004    0.0237   -0.0000    0.0000    0.0000    0.0032
                0.1128   4.8900e-004  -1.4148e-004   5.8341e-005   2.0520e+007  -6.5496e+004   1.7502e+005    0.0211   -0.0000    0.0000    0.0000    0.0058
                0.4791   3.0944e-004  -8.9539e-005   1.2419e-004   1.2985e+007  -4.1637e+004   3.7256e+005    0.0134   -0.0000    0.0000    0.0000    0.0124
                0.8592   1.2191e-004  -3.5292e-005   1.6095e-004   5.1154e+006  -1.6653e+004   4.8284e+005    0.0053   -0.0000    0.0000    0.0000    0.0161
                1.2510  -7.1843e-005   2.0753e-005   1.6506e-004  -3.0149e+006   9.1579e+003   4.9517e+005    0.0000    0.0043    0.0000   -0.0000    0.0165
                1.4574  -1.7266e-004   4.9895e-005   1.5341e-004  -7.2453e+006   2.2302e+004   4.6023e+005    0.0000    0.0103    0.0000   -0.0000    0.0153

               lamina:  3     
              matName:  (spar-core)
                     s           e11           e22           e12           s11           s22           s12   s11_fcT   s11_fcC   s22_fcT   s22_fcC   s12_fcS
                   (m)         (m/m)         (m/m)         (rad)          (Pa)          (Pa)          (Pa)       (-)       (-)       (-)       (-)       (-)
                0.0000   5.2833e-004  -1.5262e-004   3.2075e-005   1.3787e+005   1.6805e+003   6.4150e+002    0.0000   -0.0000    0.0000   -0.0000    0.0000
                0.1128   4.7502e-004  -1.3722e-004   5.8341e-005   1.2396e+005   1.5110e+003   1.1668e+003    0.0000   -0.0000    0.0000   -0.0000    0.0000
                0.4791   2.9974e-004  -8.6586e-005   1.2419e-004   7.8220e+004   9.5344e+002   2.4838e+003    0.0000   -0.0000    0.0000   -0.0000    0.0000
                0.8592   1.1698e-004  -3.3792e-005   1.6095e-004   3.0527e+004   3.7210e+002   3.2189e+003    0.0000   -0.0000    0.0000   -0.0000    0.0000
                1.2510  -7.1844e-005   2.0753e-005   1.6506e-004  -1.8748e+004  -2.2852e+002   3.3011e+003    0.0000    0.0000    0.0000    0.0000    0.0000
                1.4574  -1.7136e-004   4.9500e-005   1.5341e-004  -4.4717e+004  -5.4507e+002   3.0682e+003    0.0000    0.0000    0.0000    0.0000    0.0000

               lamina:  4     
              matName:  (spar-uni)
                     s           e11           e22           e12           s11           s22           s12   s11_fcT   s11_fcC   s22_fcT   s22_fcC   s12_fcS
                   (m)         (m/m)         (m/m)         (rad)          (Pa)          (Pa)          (Pa)       (-)       (-)       (-)       (-)       (-)
                0.0000   5.2833e-004  -1.5262e-004   3.2075e-005   2.2171e+007  -6.7346e+004   9.6225e+004    0.0228   -0.0000    0.0000    0.0000    0.0032
                0.1128   4.7502e-004  -1.3722e-004   5.8341e-005   1.9934e+007  -6.0550e+004   1.7502e+005    0.0205   -0.0000    0.0000    0.0000    0.0058
                0.4791   2.9974e-004  -8.6586e-005   1.2419e-004   1.2579e+007  -3.8208e+004   3.7256e+005    0.0129   -0.0000    0.0000    0.0000    0.0124
                0.8592   1.1698e-004  -3.3792e-005   1.6095e-004   4.9091e+006  -1.4912e+004   4.8284e+005    0.0051   -0.0000    0.0000    0.0000    0.0161
                1.2510  -7.3093e-005   2.1134e-005   1.6506e-004  -3.0672e+006   9.5999e+003   4.9517e+005    0.0000    0.0044    0.0000   -0.0000    0.0165
                1.4574  -1.7136e-004   4.9500e-005   1.5341e-004  -7.1910e+006   2.1843e+004   4.6023e+005    0.0000    0.0102    0.0000   -0.0000    0.0153

               lamina:  5     
              matName:  (blade-shell)
                     s           e11           e22           e12           s11           s22           s12   s11_fcT   s11_fcC   s22_fcT   s22_fcC   s12_fcS
                   (m)         (m/m)         (m/m)         (rad)          (Pa)          (Pa)          (Pa)       (-)       (-)       (-)       (-)       (-)
                0.0000   5.0862e-004  -1.4661e-004   3.2075e-005   1.4587e+007   8.6487e+005   2.2453e+005    0.1013   -0.0000    0.0000   -0.0000    0.0037
                0.1128   4.6103e-004  -1.3296e-004   5.8341e-005   1.3222e+007   7.8303e+005   4.0839e+005    0.0918   -0.0000    0.0000   -0.0000    0.0068
                0.4791   2.9005e-004  -8.3633e-005   1.2419e-004   8.3185e+006   4.9284e+005   8.6932e+005    0.0578   -0.0000    0.0000   -0.0000    0.0145
                0.8592   1.1206e-004  -3.2293e-005   1.6095e-004   3.2139e+006   1.9069e+005   1.1266e+006    0.0223   -0.0000    0.0000   -0.0000    0.0188
                1.2510  -7.3188e-005   2.1163e-005   1.6506e-004  -2.0986e+006  -1.2345e+005   1.1554e+006    0.0000    0.0099    0.0000    0.0000    0.0193
                1.4574  -1.7006e-004   4.9105e-005   1.5341e-004  -4.8769e+006  -2.8791e+005   1.0739e+006    0.0000    0.0229    0.0000    0.0000    0.0179

            panel:  3     
           lam_num    nPlies        tPly      fibAng     matID  matName
               (-)       (-)         (m)       (deg)       (-)  (-)
                 1         1    0.005000      0.0000         2  (blade-shell)
                 2         1    0.054174      0.0000         6  (TEP-core)
                 3         1    0.005000      0.0000         2  (blade-shell)

               lamina:  1     
              matName:  (blade-shell)
                     s           e11           e22           e12           s11           s22           s12   s11_fcT   s11_fcC   s22_fcT   s22_fcC   s12_fcS
                   (m)         (m/m)         (m/m)         (rad)          (Pa)          (Pa)          (Pa)       (-)       (-)       (-)       (-)       (-)
                0.0000  -1.7185e-004   6.7154e-005   1.0100e-003  -4.8214e+006  -2.4120e+004   7.0703e+006    0.0000    0.0226    0.0000    0.0000    0.1178
                0.0068  -1.7514e-004   6.8442e-005   1.0099e-003  -4.9139e+006  -2.4583e+004   7.0691e+006    0.0000    0.0231    0.0000    0.0000    0.1178

               lamina:  2     
              matName:  (TEP-core)
                     s           e11           e22           e12           s11           s22           s12   s11_fcT   s11_fcC   s22_fcT   s22_fcC   s12_fcS
                   (m)         (m/m)         (m/m)         (rad)          (Pa)          (Pa)          (Pa)       (-)       (-)       (-)       (-)       (-)
                0.0000  -1.7181e-004   6.7139e-005   1.0100e-003  -4.3334e+004   4.4560e+003   2.0201e+004    0.0000    0.0000    0.0000   -0.0000    0.0000
                0.0068  -1.7511e-004   6.8427e-005   1.0099e-003  -4.4165e+004   4.5415e+003   2.0197e+004    0.0000    0.0000    0.0000   -0.0000    0.0000

               lamina:  3     
              matName:  (blade-shell)
                     s           e11           e22           e12           s11           s22           s12   s11_fcT   s11_fcC   s22_fcT   s22_fcC   s12_fcS
                   (m)         (m/m)         (m/m)         (rad)          (Pa)          (Pa)          (Pa)       (-)       (-)       (-)       (-)       (-)
                0.0000  -1.7140e-004   6.6976e-005   1.0100e-003  -4.8088e+006  -2.4101e+004   7.0703e+006    0.0000    0.0226    0.0000    0.0000    0.1178
                0.0068  -1.7469e-004   6.8264e-005   1.0099e-003  -4.9013e+006  -2.4564e+004   7.0691e+006    0.0000    0.0230    0.0000    0.0000    0.1178

            panel:  4     
           lam_num    nPlies        tPly      fibAng     matID  matName
               (-)       (-)         (m)       (deg)       (-)  (-)
                 1         1    0.005000      0.0000         2  (blade-shell)
                 2         1    0.054174      0.0000         6  (TEP-core)
                 3         1    0.005000      0.0000         2  (blade-shell)

               lamina:  1     
              matName:  (blade-shell)
                     s           e11           e22           e12           s11           s22           s12   s11_fcT   s11_fcC   s22_fcT   s22_fcC   s12_fcS
                   (m)         (m/m)         (m/m)         (rad)          (Pa)          (Pa)          (Pa)       (-)       (-)       (-)       (-)       (-)
                0.0000  -1.7514e-004   6.8442e-005   8.6882e-004  -4.9139e+006  -2.4583e+004   6.0818e+006    0.0000    0.0231    0.0000    0.0000    0.1014
                0.1856  -2.6502e-004   1.0356e-004   8.6864e-004  -7.4353e+006  -3.7168e+004   6.0805e+006    0.0000    0.0349    0.0000    0.0000    0.1013
                0.5888  -4.5966e-004   1.7963e-004   8.6864e-004  -1.2896e+007  -6.4472e+004   6.0805e+006    0.0000    0.0605    0.0000    0.0000    0.1013
                0.9900  -6.5302e-004   2.5519e-004   8.6238e-004  -1.8321e+007  -9.1596e+004   6.0367e+006    0.0000    0.0860    0.0000    0.0000    0.1006
                1.3846  -8.4278e-004   3.2934e-004   8.4000e-004  -2.3645e+007  -1.1823e+005   5.8800e+006    0.0000    0.1110    0.0000    0.0000    0.0980
                1.7652  -1.0254e-003   4.0071e-004   8.0581e-004  -2.8769e+007  -1.4388e+005   5.6407e+006    0.0000    0.1351    0.0000    0.0000    0.0940

               lamina:  2     
              matName:  (TEP-core)
                     s           e11           e22           e12           s11           s22           s12   s11_fcT   s11_fcC   s22_fcT   s22_fcC   s12_fcS
                   (m)         (m/m)         (m/m)         (rad)          (Pa)          (Pa)          (Pa)       (-)       (-)       (-)       (-)       (-)
                0.0000  -1.7511e-004   6.8427e-005   8.6882e-004  -4.4165e+004   4.5415e+003   1.7376e+004    0.0000    0.0000    0.0000   -0.0000    0.0000
                0.1856  -2.6491e-004   1.0352e-004   8.6864e-004  -6.6816e+004   6.8712e+003   1.7373e+004    0.0000    0.0000    0.0000   -0.0000    0.0000
                0.5888  -4.5949e-004   1.7956e-004   8.6864e-004  -1.1589e+005   1.1918e+004   1.7373e+004    0.0000    0.0000    0.0000   -0.0000    0.0000
                0.9900  -6.5278e-004   2.5510e-004   8.6238e-004  -1.6464e+005   1.6931e+004   1.7248e+004    0.0000    0.0000    0.0000   -0.0000    0.0000
                1.3846  -8.4250e-004   3.2923e-004   8.4000e-004  -2.1249e+005   2.1852e+004   1.6800e+004    0.0000    0.0000    0.0000   -0.0000    0.0000
                1.7652  -1.0251e-003   4.0059e-004   8.0581e-004  -2.5855e+005   2.6588e+004   1.6116e+004    0.0000    0.0000    0.0000   -0.0000    0.0000

               lamina:  3     
              matName:  (blade-shell)
                     s           e11           e22           e12           s11           s22           s12   s11_fcT   s11_fcC   s22_fcT   s22_fcC   s12_fcS
                   (m)         (m/m)         (m/m)         (rad)          (Pa)          (Pa)          (Pa)       (-)       (-)       (-)       (-)       (-)
                0.0000  -1.7469e-004   6.8264e-005   8.6882e-004  -4.9013e+006  -2.4564e+004   6.0818e+006    0.0000    0.0230    0.0000    0.0000    0.1014
                0.1856  -2.6380e-004   1.0308e-004   8.6864e-004  -7.4014e+006  -3.7117e+004   6.0805e+006    0.0000    0.0347    0.0000    0.0000    0.1013
                0.5888  -4.5766e-004   1.7883e-004   8.6864e-004  -1.2840e+007  -6.4388e+004   6.0805e+006    0.0000    0.0603    0.0000    0.0000    0.1013
                0.9900  -6.5023e-004   2.5408e-004   8.6238e-004  -1.8243e+007  -9.1479e+004   6.0367e+006    0.0000    0.0856    0.0000    0.0000    0.1006
                1.3846  -8.3947e-004   3.2803e-004   8.4000e-004  -2.3552e+007  -1.1809e+005   5.8800e+006    0.0000    0.1106    0.0000    0.0000    0.0980
                1.7652  -1.0219e-003   3.9932e-004   8.0581e-004  -2.8671e+007  -1.4373e+005   5.6407e+006    0.0000    0.1346    0.0000    0.0000    0.0940

            panel:  5     
           lam_num    nPlies        tPly      fibAng     matID  matName
               (-)       (-)         (m)       (deg)       (-)  (-)
                 1         1    0.005000      0.0000         2  (blade-shell)
                 2         1    0.054174      0.0000         6  (TEP-core)
                 3         1    0.005000      0.0000         2  (blade-shell)

               lamina:  1     
              matName:  (blade-shell)
                     s           e11           e22           e12           s11           s22           s12   s11_fcT   s11_fcC   s22_fcT   s22_fcC   s12_fcS
                   (m)         (m/m)         (m/m)         (rad)          (Pa)          (Pa)          (Pa)       (-)       (-)       (-)       (-)       (-)
                0.0000  -1.0254e-003   4.0071e-004   7.6059e-004  -2.8769e+007  -1.4388e+005   5.3241e+006    0.0000    0.1351    0.0000    0.0000    0.0887
                0.0019  -1.0265e-003   4.0114e-004   7.0612e-004  -2.8800e+007  -1.4401e+005   4.9428e+006    0.0000    0.1352    0.0000    0.0000    0.0824
                0.3684  -1.2022e-003   4.6978e-004   5.9869e-004  -3.3728e+007  -1.6869e+005   4.1908e+006    0.0000    0.1583    0.0000    0.0000    0.0698
                0.7139  -1.3677e-003   5.3445e-004   5.9840e-004  -3.8371e+007  -1.9193e+005   4.1888e+006    0.0000    0.1801    0.0000    0.0000    0.0698
                1.0343  -1.5210e-003   5.9439e-004   5.3579e-004  -4.2674e+007  -2.1348e+005   3.7506e+006    0.0000    0.2003    0.0000    0.0000    0.0625
                1.3256  -1.6605e-003   6.4890e-004   4.6775e-004  -4.6588e+007  -2.3308e+005   3.2742e+006    0.0000    0.2187    0.0000    0.0000    0.0546
                1.5849  -1.7847e-003   6.9740e-004   3.9680e-004  -5.0071e+007  -2.5052e+005   2.7776e+006    0.0000    0.2351    0.0000    0.0000    0.0463
                1.8091  -1.8920e-003   7.3937e-004   3.2573e-004  -5.3084e+007  -2.6561e+005   2.2801e+006    0.0000    0.2492    0.0000    0.0000    0.0380
                1.9960  -1.9816e-003   7.7435e-004   2.5723e-004  -5.5596e+007  -2.7819e+005   1.8006e+006    0.0000    0.2610    0.0000    0.0000    0.0300
                2.1435  -2.0523e-003   8.0199e-004   1.9402e-004  -5.7580e+007  -2.8812e+005   1.3581e+006    0.0000    0.2703    0.0000    0.0000    0.0226
                2.2504  -2.1034e-003   8.2195e-004   1.3850e-004  -5.9013e+007  -2.9530e+005   9.6953e+005    0.0000    0.2771    0.0000    0.0000    0.0162
                2.3071  -2.1350e-003   8.3432e-004   9.2865e-005  -5.9899e+007  -2.9931e+005   6.5006e+005    0.0000    0.2812    0.0000    0.0000    0.0108
                2.3300  -2.1485e-003   8.3965e-004   5.8790e-005  -6.0278e+007  -3.0052e+005   4.1153e+005    0.0000    0.2830    0.0000    0.0000    0.0069

               lamina:  2     
              matName:  (TEP-core)
                     s           e11           e22           e12           s11           s22           s12   s11_fcT   s11_fcC   s22_fcT   s22_fcC   s12_fcS
                   (m)         (m/m)         (m/m)         (rad)          (Pa)          (Pa)          (Pa)       (-)       (-)       (-)       (-)       (-)
                0.0000  -1.0251e-003   4.0059e-004   7.6059e-004  -2.5855e+005   2.6588e+004   1.5212e+004    0.0000    0.0000    0.0000   -0.0000    0.0000
                0.0019  -1.0262e-003   4.0101e-004   7.0612e-004  -2.5882e+005   2.6616e+004   1.4122e+004    0.0000    0.0000    0.0000   -0.0000    0.0000
                0.3684  -1.2018e-003   4.6965e-004   5.9869e-004  -3.0313e+005   3.1171e+004   1.1974e+004    0.0000    0.0000    0.0000   -0.0000    0.0000
                0.7139  -1.3673e-003   5.3432e-004   5.9840e-004  -3.4486e+005   3.5463e+004   1.1968e+004    0.0000    0.0000    0.0000   -0.0000    0.0000
                1.0343  -1.5207e-003   5.9425e-004   5.3579e-004  -3.8355e+005   3.9441e+004   1.0716e+004    0.0000    0.0000    0.0000   -0.0000    0.0000
                1.3256  -1.6602e-003   6.4876e-004   4.6775e-004  -4.1873e+005   4.3058e+004   9.3549e+003    0.0000    0.0000    0.0000   -0.0000    0.0000
                1.5849  -1.7843e-003   6.9727e-004   3.9680e-004  -4.5004e+005   4.6278e+004   7.9359e+003    0.0000    0.0000    0.0000   -0.0000    0.0000
                1.8091  -1.8917e-003   7.3923e-004   3.2573e-004  -4.7713e+005   4.9062e+004   6.5145e+003    0.0000    0.0000    0.0000   -0.0000    0.0000
                1.9960  -1.9813e-003   7.7422e-004   2.5723e-004  -4.9971e+005   5.1384e+004   5.1446e+003    0.0000    0.0000    0.0000   -0.0000    0.0000
                2.1435  -2.0520e-003   8.0185e-004   1.9402e-004  -5.1754e+005   5.3218e+004   3.8804e+003    0.0000    0.0000    0.0000   -0.0000    0.0000
                2.2504  -2.1031e-003   8.2182e-004   1.3850e-004  -5.3043e+005   5.4543e+004   2.7701e+003    0.0000    0.0000    0.0000   -0.0000    0.0000
                2.3071  -2.1340e-003   8.3392e-004   9.2865e-005  -5.3822e+005   5.5351e+004   1.8573e+003    0.0000    0.0000    0.0000   -0.0000    0.0000
                2.3300  -2.1464e-003   8.3882e-004   5.8790e-005  -5.4136e+005   5.5685e+004   1.1758e+003    0.0000    0.0000    0.0000   -0.0000    0.0000

               lamina:  3     
              matName:  (blade-shell)
                     s           e11           e22           e12           s11           s22           s12   s11_fcT   s11_fcC   s22_fcT   s22_fcC   s12_fcS
                   (m)         (m/m)         (m/m)         (rad)          (Pa)          (Pa)          (Pa)       (-)       (-)       (-)       (-)       (-)
                0.0000  -1.0219e-003   3.9932e-004   7.6059e-004  -2.8671e+007  -1.4373e+005   5.3241e+006    0.0000    0.1346    0.0000    0.0000    0.0887
                0.0019  -1.0226e-003   3.9961e-004   7.0612e-004  -2.8692e+007  -1.4385e+005   4.9428e+006    0.0000    0.1347    0.0000    0.0000    0.0824
                0.3684  -1.1982e-003   4.6821e-004   5.9869e-004  -3.3618e+007  -1.6852e+005   4.1908e+006    0.0000    0.1578    0.0000    0.0000    0.0698
                0.7139  -1.3636e-003   5.3284e-004   5.9840e-004  -3.8257e+007  -1.9176e+005   4.1888e+006    0.0000    0.1796    0.0000    0.0000    0.0698
                1.0343  -1.5170e-003   5.9278e-004   5.3579e-004  -4.2561e+007  -2.1331e+005   3.7506e+006    0.0000    0.1998    0.0000    0.0000    0.0625
                1.3256  -1.6565e-003   6.4731e-004   4.6775e-004  -4.6476e+007  -2.3291e+005   3.2742e+006    0.0000    0.2182    0.0000    0.0000    0.0546
                1.5849  -1.7807e-003   6.9584e-004   3.9680e-004  -4.9960e+007  -2.5036e+005   2.7776e+006    0.0000    0.2346    0.0000    0.0000    0.0463
                1.8091  -1.8881e-003   7.3781e-004   3.2573e-004  -5.2974e+007  -2.6545e+005   2.2801e+006    0.0000    0.2487    0.0000    0.0000    0.0380
                1.9960  -1.9776e-003   7.7278e-004   2.5723e-004  -5.5484e+007  -2.7802e+005   1.8006e+006    0.0000    0.2605    0.0000    0.0000    0.0300
                2.1435  -2.0482e-003   8.0036e-004   1.9402e-004  -5.7465e+007  -2.8794e+005   1.3581e+006    0.0000    0.2698    0.0000    0.0000    0.0226
                2.2504  -2.0994e-003   8.2037e-004   1.3850e-004  -5.8902e+007  -2.9513e+005   9.6953e+005    0.0000    0.2765    0.0000    0.0000    0.0162
                2.3071  -2.1230e-003   8.2956e-004   9.2865e-005  -5.9563e+007  -2.9881e+005   6.5006e+005    0.0000    0.2796    0.0000    0.0000    0.0108
                2.3300  -2.1237e-003   8.2978e-004   5.8790e-005  -5.9582e+007  -2.9948e+005   4.1153e+005    0.0000    0.2797    0.0000    0.0000    0.0069

  Bottom:  panel  nNode   nLam     xc_St    xc_End         b         t         E_eff         G_eff      nu_eff     density  buckleCrit
            (-)    (-)    (-)       (-)       (-)       (m)       (m)          (Pa)          (Pa)         (-)    (kg/m^3)         (-)
              1     12      3    0.0000    0.2811    2.7566    0.0700   4.2251e+009   1.0171e+009      0.3899    435.7143      0.0014
              2      6      5    0.2811    0.4749    1.4805    0.1427   4.1032e+010   3.2803e+009      0.2889   1915.0696      0.0000
              3      2      3    0.4749    0.4757    0.0072    0.0642   4.5848e+009   1.1077e+009      0.3908    457.1120      0.0000
              4      6      3    0.4757    0.7031    1.8639    0.0642   4.5848e+009   1.1077e+009      0.3908    457.1120      0.1487
              5     13      3    0.7031    1.0000    2.3211    0.0642   4.5848e+009   1.1077e+009      0.3908    457.1120      0.1445

            panel:  1     
           lam_num    nPlies        tPly      fibAng     matID  matName
               (-)       (-)         (m)       (deg)       (-)  (-)
                 1         1    0.005000      0.0000         2  (blade-shell)
                 2         1    0.060000      0.0000         5  (LEP-core)
                 3         1    0.005000      0.0000         2  (blade-shell)

               lamina:  1     
              matName:  (blade-shell)
                     s           e11           e22           e12           s11           s22           s12   s11_fcT   s11_fcC   s22_fcT   s22_fcC   s12_fcS
                   (m)         (m/m)         (m/m)         (rad)          (Pa)          (Pa)          (Pa)       (-)       (-)       (-)       (-)       (-)
                0.0000   1.4440e-003  -5.6314e-004   1.2404e-004   4.0522e+007   2.2042e+005   8.6825e+005    0.2814   -0.0000    0.0000   -0.0000    0.0145
                0.1501   1.4216e-003  -5.5437e-004   1.5674e-004   3.9891e+007   2.1704e+005   1.0972e+006    0.2770   -0.0000    0.0000   -0.0000    0.0183
                0.3307   1.3774e-003  -5.3713e-004   1.9521e-004   3.8651e+007   2.1043e+005   1.3665e+006    0.2684   -0.0000    0.0000   -0.0000    0.0228
                0.5268   1.3141e-003  -5.1245e-004   2.3540e-004   3.6876e+007   2.0093e+005   1.6478e+006    0.2561   -0.0000    0.0000   -0.0000    0.0275
                0.7488   1.2321e-003  -4.8044e-004   2.7849e-004   3.4573e+007   1.8848e+005   1.9494e+006    0.2401   -0.0000    0.0000   -0.0000    0.0325
                0.9989   1.1318e-003  -4.4133e-004   3.2359e-004   3.1759e+007   1.7323e+005   2.2651e+006    0.2206   -0.0000    0.0000   -0.0000    0.0378
                1.2705   1.0151e-003  -3.9583e-004   3.6811e-004   2.8486e+007   1.5546e+005   2.5768e+006    0.1978   -0.0000    0.0000   -0.0000    0.0429
                1.5614   8.8369e-004  -3.4458e-004   4.1032e-004   2.4798e+007   1.3542e+005   2.8723e+006    0.1722   -0.0000    0.0000   -0.0000    0.0479
                1.8696   7.3916e-004  -2.8821e-004   4.4860e-004   2.0742e+007   1.1339e+005   3.1402e+006    0.1440   -0.0000    0.0000   -0.0000    0.0523
                2.1908   5.8393e-004  -2.2767e-004   4.8118e-004   1.6386e+007   8.9750e+004   3.3683e+006    0.1138   -0.0000    0.0000   -0.0000    0.0561
                2.5246   4.2050e-004  -1.6394e-004   5.0698e-004   1.1800e+007   6.4848e+004   3.5488e+006    0.0819   -0.0000    0.0000   -0.0000    0.0591
                2.7566   3.0791e-004  -1.2003e-004   5.2005e-004   8.6405e+006   4.7679e+004   3.6404e+006    0.0600   -0.0000    0.0000   -0.0000    0.0607

               lamina:  2     
              matName:  (LEP-core)
                     s           e11           e22           e12           s11           s22           s12   s11_fcT   s11_fcC   s22_fcT   s22_fcC   s12_fcS
                   (m)         (m/m)         (m/m)         (rad)          (Pa)          (Pa)          (Pa)       (-)       (-)       (-)       (-)       (-)
                0.0000   1.4413e-003  -5.6204e-004   1.2404e-004   3.6362e+005  -3.7044e+004   2.4807e+003    0.0000   -0.0000    0.0000    0.0000    0.0000
                0.1501   1.4189e-003  -5.5332e-004   1.5674e-004   3.5798e+005  -3.6468e+004   3.1348e+003    0.0000   -0.0000    0.0000    0.0000    0.0000
                0.3307   1.3750e-003  -5.3618e-004   1.9521e-004   3.4690e+005  -3.5337e+004   3.9042e+003    0.0000   -0.0000    0.0000    0.0000    0.0000
                0.5268   1.3121e-003  -5.1163e-004   2.3540e-004   3.3102e+005  -3.3717e+004   4.7080e+003    0.0000   -0.0000    0.0000    0.0000    0.0000
                0.7488   1.2303e-003  -4.7972e-004   2.7849e-004   3.1038e+005  -3.1613e+004   5.5698e+003    0.0000   -0.0000    0.0000    0.0000    0.0000
                0.9989   1.1303e-003  -4.4072e-004   3.2359e-004   2.8515e+005  -2.9042e+004   6.4717e+003    0.0000   -0.0000    0.0000    0.0000    0.0000
                1.2705   1.0139e-003  -3.9533e-004   3.6811e-004   2.5579e+005  -2.6050e+004   7.3622e+003    0.0000   -0.0000    0.0000    0.0000    0.0000
                1.5614   8.8272e-004  -3.4419e-004   4.1032e-004   2.2270e+005  -2.2679e+004   8.2065e+003    0.0000   -0.0000    0.0000    0.0000    0.0000
                1.8696   7.3850e-004  -2.8795e-004   4.4860e-004   1.8632e+005  -1.8972e+004   8.9720e+003    0.0000   -0.0000    0.0000    0.0000    0.0000
                2.1908   5.8364e-004  -2.2756e-004   4.8118e-004   1.4725e+005  -1.4991e+004   9.6236e+003    0.0000   -0.0000    0.0000    0.0000    0.0000
                2.5246   4.2164e-004  -1.6439e-004   5.0698e-004   1.0638e+005  -1.0828e+004   1.0140e+004    0.0000   -0.0000    0.0000    0.0000    0.0000
                2.7566   3.1237e-004  -1.2180e-004   5.2005e-004   7.8808e+004  -8.0257e+003   1.0401e+004    0.0000   -0.0000    0.0000    0.0000    0.0000

               lamina:  3     
              matName:  (blade-shell)
                     s           e11           e22           e12           s11           s22           s12   s11_fcT   s11_fcC   s22_fcT   s22_fcC   s12_fcS
                   (m)         (m/m)         (m/m)         (rad)          (Pa)          (Pa)          (Pa)       (-)       (-)       (-)       (-)       (-)
                0.0000   1.4081e-003  -5.4886e-004   1.2404e-004   3.9514e+007   2.1872e+005   8.6825e+005    0.2744   -0.0000    0.0000   -0.0000    0.0145
                0.1501   1.3871e-003  -5.4068e-004   1.5674e-004   3.8925e+007   2.1541e+005   1.0972e+006    0.2703   -0.0000    0.0000   -0.0000    0.0183
                0.3307   1.3464e-003  -5.2484e-004   1.9521e-004   3.7784e+007   2.0898e+005   1.3665e+006    0.2624   -0.0000    0.0000   -0.0000    0.0228
                0.5268   1.2873e-003  -5.0179e-004   2.3540e-004   3.6124e+007   1.9966e+005   1.6478e+006    0.2509   -0.0000    0.0000   -0.0000    0.0275
                0.7488   1.2087e-003  -4.7118e-004   2.7849e-004   3.3920e+007   1.8738e+005   1.9494e+006    0.2356   -0.0000    0.0000   -0.0000    0.0325
                0.9989   1.1119e-003  -4.3342e-004   3.2359e-004   3.1201e+007   1.7229e+005   2.2651e+006    0.2167   -0.0000    0.0000   -0.0000    0.0378
                1.2705   9.9881e-004  -3.8936e-004   3.6811e-004   2.8029e+007   1.5469e+005   2.5768e+006    0.1946   -0.0000    0.0000   -0.0000    0.0429
                1.5614   8.7105e-004  -3.3956e-004   4.1032e-004   2.4443e+007   1.3483e+005   2.8723e+006    0.1697   -0.0000    0.0000   -0.0000    0.0479
                1.8696   7.3060e-004  -2.8482e-004   4.4860e-004   2.0502e+007   1.1299e+005   3.1402e+006    0.1424   -0.0000    0.0000   -0.0000    0.0523
                2.1908   5.8017e-004  -2.2618e-004   4.8118e-004   1.6280e+007   8.9573e+004   3.3683e+006    0.1131   -0.0000    0.0000   -0.0000    0.0561
                2.5246   4.2174e-004  -1.6443e-004   5.0698e-004   1.1835e+007   6.4907e+004   3.5488e+006    0.0822   -0.0000    0.0000   -0.0000    0.0591
                2.7566   3.1274e-004  -1.2195e-004   5.2005e-004   8.7759e+006   4.7906e+004   3.6404e+006    0.0609   -0.0000    0.0000   -0.0000    0.0607

            panel:  2     
           lam_num    nPlies        tPly      fibAng     matID  matName
               (-)       (-)         (m)       (deg)       (-)  (-)
                 1         1    0.005000      0.0000         2  (blade-shell)
                 2         1    0.066336      0.0000         3  (spar-uni)
                 3         1    0.000002      0.0000         4  (spar-core)
                 4         1    0.066336      0.0000         3  (spar-uni)
                 5         1    0.005000      0.0000         2  (blade-shell)

               lamina:  1     
              matName:  (blade-shell)
                     s           e11           e22           e12           s11           s22           s12   s11_fcT   s11_fcC   s22_fcT   s22_fcC   s12_fcS
                   (m)         (m/m)         (m/m)         (rad)          (Pa)          (Pa)          (Pa)       (-)       (-)       (-)       (-)       (-)
                0.0000   2.9955e-004  -8.6327e-005   1.0006e-004   8.5911e+006   5.0965e+005   7.0045e+005    0.0597   -0.0000    0.0000   -0.0000    0.0117
                0.1086   2.3598e-004  -6.7784e-005   1.1450e-004   6.7695e+006   4.0493e+005   8.0153e+005    0.0470   -0.0000    0.0000   -0.0000    0.0134
                0.4729   5.8030e-005  -1.6232e-005   1.4428e-004   1.6673e+006   1.0621e+005   1.0100e+006    0.0116   -0.0000    0.0000   -0.0000    0.0168
                0.8578  -1.2528e-004   3.6915e-005   1.4542e-004  -3.5881e+006  -2.0081e+005   1.0179e+006    0.0000    0.0168    0.0000    0.0000    0.0170
                1.2637  -3.0424e-004   8.8701e-005   1.1421e-004  -8.7195e+006  -5.0208e+005   7.9947e+005    0.0000    0.0409    0.0000    0.0000    0.0133
                1.4805  -3.9730e-004   1.1564e-004   8.4307e-005  -1.1388e+007  -6.5867e+005   5.9015e+005    0.0000    0.0535    0.0000    0.0000    0.0098

               lamina:  2     
              matName:  (spar-uni)
                     s           e11           e22           e12           s11           s22           s12   s11_fcT   s11_fcC   s22_fcT   s22_fcC   s12_fcS
                   (m)         (m/m)         (m/m)         (rad)          (Pa)          (Pa)          (Pa)       (-)       (-)       (-)       (-)       (-)
                0.0000   3.1238e-004  -9.0237e-005   1.0006e-004   1.3109e+007  -3.9819e+004   3.0019e+005    0.0135   -0.0000    0.0000    0.0000    0.0100
                0.1086   2.6041e-004  -7.5224e-005   1.1450e-004   1.0928e+007  -3.3194e+004   3.4351e+005    0.0112   -0.0000    0.0000    0.0000    0.0115
                0.4729   9.1766e-005  -2.6508e-005   1.4428e-004   3.8509e+006  -1.1697e+004   4.3284e+005    0.0040   -0.0000    0.0000    0.0000    0.0144
                0.8578  -1.2204e-004   3.5929e-005   1.4542e-004  -5.1186e+006   2.5270e+004   4.3625e+005    0.0000    0.0073    0.0000   -0.0000    0.0145
                1.2637  -3.0060e-004   8.7593e-005   1.1421e-004  -1.2611e+007   4.9237e+004   3.4263e+005    0.0000    0.0180    0.0000   -0.0000    0.0114
                1.4805  -3.9343e-004   1.1446e-004   8.4307e-005  -1.6507e+007   6.1767e+004   2.5292e+005    0.0000    0.0235    0.0000   -0.0000    0.0084

               lamina:  3     
              matName:  (spar-core)
                     s           e11           e22           e12           s11           s22           s12   s11_fcT   s11_fcC   s22_fcT   s22_fcC   s12_fcS
                   (m)         (m/m)         (m/m)         (rad)          (Pa)          (Pa)          (Pa)       (-)       (-)       (-)       (-)       (-)
                0.0000   3.1238e-004  -9.0237e-005   1.0006e-004   8.1518e+004   9.9364e+002   2.0013e+003    0.0000   -0.0000    0.0000   -0.0000    0.0000
                0.1086   2.6041e-004  -7.5224e-005   1.1450e-004   6.7955e+004   8.2833e+002   2.2901e+003    0.0000   -0.0000    0.0000   -0.0000    0.0000
                0.4729   9.1767e-005  -2.6508e-005   1.4428e-004   2.3947e+004   2.9189e+002   2.8856e+003    0.0000   -0.0000    0.0000   -0.0000    0.0000
                0.8578  -7.9090e-005   2.2846e-005   1.4542e-004  -2.0639e+004  -2.5157e+002   2.9083e+003    0.0000    0.0000    0.0000    0.0000    0.0000
                1.2637  -2.5232e-004   7.2886e-005   1.1421e-004  -6.5843e+004  -8.0258e+002   2.2842e+003    0.0000    0.0000    0.0000    0.0000    0.0000
                1.4805  -3.4207e-004   9.8811e-005   8.4307e-005  -8.9263e+004  -1.0881e+003   1.6861e+003    0.0000    0.0000    0.0000    0.0000    0.0000

               lamina:  4     
              matName:  (spar-uni)
                     s           e11           e22           e12           s11           s22           s12   s11_fcT   s11_fcC   s22_fcT   s22_fcC   s12_fcS
                   (m)         (m/m)         (m/m)         (rad)          (Pa)          (Pa)          (Pa)       (-)       (-)       (-)       (-)       (-)
                0.0000   3.2522e-004  -9.4147e-005   1.0006e-004   1.3647e+007  -4.4359e+004   3.0019e+005    0.0140   -0.0000    0.0000    0.0000    0.0100
                0.1086   2.8484e-004  -8.2665e-005   1.1450e-004   1.1951e+007  -4.1833e+004   3.4351e+005    0.0123   -0.0000    0.0000    0.0000    0.0115
                0.4729   1.2550e-004  -3.6784e-005   1.4428e-004   5.2645e+006  -2.3628e+004   4.3284e+005    0.0054   -0.0000    0.0000    0.0000    0.0144
                0.8578  -7.9089e-005   2.2846e-005   1.4542e-004  -3.3189e+006   1.0081e+004   4.3625e+005    0.0000    0.0047    0.0000   -0.0000    0.0145
                1.2637  -2.5232e-004   7.2886e-005   1.1421e-004  -1.0588e+007   3.2162e+004   3.4263e+005    0.0000    0.0151    0.0000   -0.0000    0.0114
                1.4805  -3.4206e-004   9.8811e-005   8.4307e-005  -1.4354e+007   4.3603e+004   2.5292e+005    0.0000    0.0204    0.0000   -0.0000    0.0084

               lamina:  5     
              matName:  (blade-shell)
                     s           e11           e22           e12           s11           s22           s12   s11_fcT   s11_fcC   s22_fcT   s22_fcC   s12_fcS
                   (m)         (m/m)         (m/m)         (rad)          (Pa)          (Pa)          (Pa)       (-)       (-)       (-)       (-)       (-)
                0.0000   3.2619e-004  -9.4442e-005   1.0006e-004   9.3526e+006   5.4833e+005   7.0045e+005    0.0649   -0.0000    0.0000   -0.0000    0.0117
                0.1086   2.8668e-004  -8.3225e-005   1.1450e-004   8.2184e+006   4.7853e+005   8.0153e+005    0.0571   -0.0000    0.0000   -0.0000    0.0134
                0.4729   1.2804e-004  -3.7559e-005   1.4428e-004   3.6684e+006   2.0786e+005   1.0100e+006    0.0255   -0.0000    0.0000   -0.0000    0.0168
                0.8578  -3.6138e-005   9.7635e-006   1.4542e-004  -1.0404e+006  -7.1398e+004   1.0179e+006    0.0000    0.0049    0.0000    0.0000    0.0170
                1.2637  -2.0403e-004   5.8179e-005   1.1421e-004  -5.8556e+006  -3.5661e+005   7.9947e+005    0.0000    0.0275    0.0000    0.0000    0.0133
                1.4805  -2.9070e-004   8.3165e-005   8.4307e-005  -8.3411e+006  -5.0391e+005   5.9015e+005    0.0000    0.0392    0.0000    0.0000    0.0098

            panel:  3     
           lam_num    nPlies        tPly      fibAng     matID  matName
               (-)       (-)         (m)       (deg)       (-)  (-)
                 1         1    0.005000      0.0000         2  (blade-shell)
                 2         1    0.054174      0.0000         6  (TEP-core)
                 3         1    0.005000      0.0000         2  (blade-shell)

               lamina:  1     
              matName:  (blade-shell)
                     s           e11           e22           e12           s11           s22           s12   s11_fcT   s11_fcC   s22_fcT   s22_fcC   s12_fcS
                   (m)         (m/m)         (m/m)         (rad)          (Pa)          (Pa)          (Pa)       (-)       (-)       (-)       (-)       (-)
                0.0000  -3.6141e-004   1.4129e-004   5.5508e-004  -1.0139e+007  -4.9825e+004   3.8856e+006    0.0000    0.0476    0.0000    0.0000    0.0648
                0.0072  -3.6439e-004   1.4245e-004   5.5469e-004  -1.0223e+007  -5.0244e+004   3.8828e+006    0.0000    0.0480    0.0000    0.0000    0.0647

               lamina:  2     
              matName:  (TEP-core)
                     s           e11           e22           e12           s11           s22           s12   s11_fcT   s11_fcC   s22_fcT   s22_fcC   s12_fcS
                   (m)         (m/m)         (m/m)         (rad)          (Pa)          (Pa)          (Pa)       (-)       (-)       (-)       (-)       (-)
                0.0000  -3.5990e-004   1.4069e-004   5.5508e-004  -9.0770e+004   9.3487e+003   1.1102e+004    0.0000    0.0000    0.0000   -0.0000    0.0000
                0.0072  -3.6289e-004   1.4186e-004   5.5469e-004  -9.1522e+004   9.4260e+003   1.1094e+004    0.0000    0.0000    0.0000   -0.0000    0.0000

               lamina:  3     
              matName:  (blade-shell)
                     s           e11           e22           e12           s11           s22           s12   s11_fcT   s11_fcC   s22_fcT   s22_fcC   s12_fcS
                   (m)         (m/m)         (m/m)         (rad)          (Pa)          (Pa)          (Pa)       (-)       (-)       (-)       (-)       (-)
                0.0000  -3.4363e-004   1.3423e-004   5.5508e-004  -9.6412e+006  -4.9079e+004   3.8856e+006    0.0000    0.0453    0.0000    0.0000    0.0648
                0.0072  -3.4661e-004   1.3539e-004   5.5469e-004  -9.7248e+006  -4.9498e+004   3.8828e+006    0.0000    0.0457    0.0000    0.0000    0.0647

            panel:  4     
           lam_num    nPlies        tPly      fibAng     matID  matName
               (-)       (-)         (m)       (deg)       (-)  (-)
                 1         1    0.005000      0.0000         2  (blade-shell)
                 2         1    0.054174      0.0000         6  (TEP-core)
                 3         1    0.005000      0.0000         2  (blade-shell)

               lamina:  1     
              matName:  (blade-shell)
                     s           e11           e22           e12           s11           s22           s12   s11_fcT   s11_fcC   s22_fcT   s22_fcC   s12_fcS
                   (m)         (m/m)         (m/m)         (rad)          (Pa)          (Pa)          (Pa)       (-)       (-)       (-)       (-)       (-)
                0.0000  -3.6439e-004   1.4245e-004   6.7704e-004  -1.0223e+007  -5.0244e+004   4.7393e+006    0.0000    0.0480    0.0000    0.0000    0.0790
                0.1956  -4.4567e-004   1.7422e-004   6.7665e-004  -1.2503e+007  -6.1632e+004   4.7366e+006    0.0000    0.0587    0.0000    0.0000    0.0789
                0.6229  -6.1962e-004   2.4219e-004   6.7665e-004  -1.7384e+007  -8.6043e+004   4.7366e+006    0.0000    0.0816    0.0000    0.0000    0.0789
                1.0489  -7.9100e-004   3.0916e-004   6.6479e-004  -2.2192e+007  -1.1011e+005   4.6535e+006    0.0000    0.1042    0.0000    0.0000    0.0776
                1.4653  -9.5868e-004   3.7469e-004   6.3050e-004  -2.6897e+007  -1.3368e+005   4.4135e+006    0.0000    0.1263    0.0000    0.0000    0.0736
                1.8639  -1.1201e-003   4.3778e-004   5.8504e-004  -3.1427e+007  -1.5637e+005   4.0953e+006    0.0000    0.1475    0.0000    0.0000    0.0683

               lamina:  2     
              matName:  (TEP-core)
                     s           e11           e22           e12           s11           s22           s12   s11_fcT   s11_fcC   s22_fcT   s22_fcC   s12_fcS
                   (m)         (m/m)         (m/m)         (rad)          (Pa)          (Pa)          (Pa)       (-)       (-)       (-)       (-)       (-)
                0.0000  -3.6289e-004   1.4186e-004   6.7704e-004  -9.1522e+004   9.4260e+003   1.3541e+004    0.0000    0.0000    0.0000   -0.0000    0.0000
                0.1956  -4.4412e-004   1.7360e-004   6.7665e-004  -1.1201e+005   1.1533e+004   1.3533e+004    0.0000    0.0000    0.0000   -0.0000    0.0000
                0.6229  -6.1802e-004   2.4156e-004   6.7665e-004  -1.5587e+005   1.6044e+004   1.3533e+004    0.0000    0.0000    0.0000   -0.0000    0.0000
                1.0489  -7.8938e-004   3.0852e-004   6.6479e-004  -1.9909e+005   2.0488e+004   1.3296e+004    0.0000    0.0000    0.0000   -0.0000    0.0000
                1.4653  -9.5708e-004   3.7405e-004   6.3050e-004  -2.4139e+005   2.4837e+004   1.2610e+004    0.0000    0.0000    0.0000   -0.0000    0.0000
                1.8639  -1.1186e-003   4.3715e-004   5.8504e-004  -2.8212e+005   2.9024e+004   1.1701e+004    0.0000    0.0000    0.0000   -0.0000    0.0000

               lamina:  3     
              matName:  (blade-shell)
                     s           e11           e22           e12           s11           s22           s12   s11_fcT   s11_fcC   s22_fcT   s22_fcC   s12_fcS
                   (m)         (m/m)         (m/m)         (rad)          (Pa)          (Pa)          (Pa)       (-)       (-)       (-)       (-)       (-)
                0.0000  -3.4661e-004   1.3539e-004   6.7704e-004  -9.7248e+006  -4.9498e+004   4.7393e+006    0.0000    0.0457    0.0000    0.0000    0.0790
                0.1956  -4.2729e-004   1.6692e-004   6.7665e-004  -1.1988e+007  -6.0860e+004   4.7366e+006    0.0000    0.0563    0.0000    0.0000    0.0789
                0.6229  -6.0072e-004   2.3469e-004   6.7665e-004  -1.6854e+007  -8.5250e+004   4.7366e+006    0.0000    0.0791    0.0000    0.0000    0.0789
                1.0489  -7.7190e-004   3.0158e-004   6.6479e-004  -2.1657e+007  -1.0931e+005   4.6535e+006    0.0000    0.1017    0.0000    0.0000    0.0776
                1.4653  -9.3977e-004   3.6717e-004   6.3050e-004  -2.6367e+007  -1.3288e+005   4.4135e+006    0.0000    0.1238    0.0000    0.0000    0.0736
                1.8639  -1.1014e-003   4.3032e-004   5.8504e-004  -3.0900e+007  -1.5558e+005   4.0953e+006    0.0000    0.1451    0.0000    0.0000    0.0683

            panel:  5     
           lam_num    nPlies        tPly      fibAng     matID  matName
               (-)       (-)         (m)       (deg)       (-)  (-)
                 1         1    0.005000      0.0000         2  (blade-shell)
                 2         1    0.054174      0.0000         6  (TEP-core)
                 3         1    0.005000      0.0000         2  (blade-shell)

               lamina:  1     
              matName:  (blade-shell)
                     s           e11           e22           e12           s11           s22           s12   s11_fcT   s11_fcC   s22_fcT   s22_fcC   s12_fcS
                   (m)         (m/m)         (m/m)         (rad)          (Pa)          (Pa)          (Pa)       (-)       (-)       (-)       (-)       (-)
                0.0000  -1.1201e-003   4.3778e-004   5.2975e-004  -3.1427e+007  -1.5637e+005   3.7083e+006    0.0000    0.1475    0.0000    0.0000    0.0618
                0.0031  -1.1210e-003   4.3812e-004   4.6677e-004  -3.1451e+007  -1.5653e+005   3.2674e+006    0.0000    0.1477    0.0000    0.0000    0.0545
                0.3823  -1.2768e-003   4.9899e-004   5.3846e-004  -3.5822e+007  -1.7844e+005   3.7692e+006    0.0000    0.1682    0.0000    0.0000    0.0628
                0.7358  -1.4243e-003   5.5664e-004   5.3793e-004  -3.9961e+007  -1.9923e+005   3.7655e+006    0.0000    0.1876    0.0000    0.0000    0.0628
                1.0589  -1.5623e-003   6.1054e-004   4.6869e-004  -4.3832e+007  -2.1870e+005   3.2808e+006    0.0000    0.2058    0.0000    0.0000    0.0547
                1.3482  -1.6894e-003   6.6020e-004   3.9588e-004  -4.7397e+007  -2.3667e+005   2.7712e+006    0.0000    0.2225    0.0000    0.0000    0.0462
                1.6026  -1.8039e-003   7.0494e-004   3.2221e-004  -5.0610e+007  -2.5289e+005   2.2555e+006    0.0000    0.2376    0.0000    0.0000    0.0376
                1.8212  -1.9043e-003   7.4417e-004   2.5031e-004  -5.3428e+007  -2.6714e+005   1.7521e+006    0.0000    0.2508    0.0000    0.0000    0.0292
                2.0033  -1.9892e-003   7.7732e-004   1.8232e-004  -5.5809e+007  -2.7922e+005   1.2762e+006    0.0000    0.2620    0.0000    0.0000    0.0213
                2.1484  -2.0572e-003   8.0388e-004   1.2025e-004  -5.7716e+007  -2.8894e+005   8.4176e+005    0.0000    0.2710    0.0000    0.0000    0.0140
                2.2548  -2.1071e-003   8.2339e-004   6.5897e-005  -5.9118e+007  -2.9609e+005   4.6128e+005    0.0000    0.2775    0.0000    0.0000    0.0077
                2.3111  -2.1384e-003   8.3565e-004   2.0869e-005  -5.9996e+007  -3.0006e+005   1.4609e+005    0.0000    0.2817    0.0000    0.0000    0.0024
                2.3211  -2.1487e-003   8.3973e-004   1.3156e-005  -6.0283e+007  -3.0045e+005   9.2094e+004    0.0000    0.2830    0.0000    0.0000    0.0015

               lamina:  2     
              matName:  (TEP-core)
                     s           e11           e22           e12           s11           s22           s12   s11_fcT   s11_fcC   s22_fcT   s22_fcC   s12_fcS
                   (m)         (m/m)         (m/m)         (rad)          (Pa)          (Pa)          (Pa)       (-)       (-)       (-)       (-)       (-)
                0.0000  -1.1186e-003   4.3715e-004   5.2975e-004  -2.8212e+005   2.9024e+004   1.0595e+004    0.0000    0.0000    0.0000   -0.0000    0.0000
                0.0031  -1.1195e-003   4.3752e-004   4.6677e-004  -2.8235e+005   2.9048e+004   9.3354e+003    0.0000    0.0000    0.0000   -0.0000    0.0000
                0.3823  -1.2753e-003   4.9840e-004   5.3846e-004  -3.2165e+005   3.3088e+004   1.0769e+004    0.0000    0.0000    0.0000   -0.0000    0.0000
                0.7358  -1.4229e-003   5.5609e-004   5.3793e-004  -3.5889e+005   3.6916e+004   1.0759e+004    0.0000    0.0000    0.0000   -0.0000    0.0000
                1.0589  -1.5610e-003   6.1005e-004   4.6869e-004  -3.9372e+005   4.0496e+004   9.3738e+003    0.0000    0.0000    0.0000   -0.0000    0.0000
                1.3482  -1.6883e-003   6.5977e-004   3.9588e-004  -4.2582e+005   4.3795e+004   7.9177e+003    0.0000    0.0000    0.0000   -0.0000    0.0000
                1.6026  -1.8030e-003   7.0459e-004   3.2221e-004  -4.5476e+005   4.6768e+004   6.4442e+003    0.0000    0.0000    0.0000   -0.0000    0.0000
                1.8212  -1.9037e-003   7.4392e-004   2.5031e-004  -4.8014e+005   4.9376e+004   5.0061e+003    0.0000    0.0000    0.0000   -0.0000    0.0000
                2.0033  -1.9888e-003   7.7717e-004   1.8232e-004  -5.0161e+005   5.1580e+004   3.6463e+003    0.0000    0.0000    0.0000   -0.0000    0.0000
                2.1484  -2.0570e-003   8.0383e-004   1.2025e-004  -5.1882e+005   5.3348e+004   2.4050e+003    0.0000    0.0000    0.0000   -0.0000    0.0000
                2.2548  -2.1081e-003   8.2380e-004   6.5897e-005  -5.3172e+005   5.4673e+004   1.3179e+003    0.0000    0.0000    0.0000   -0.0000    0.0000
                2.3111  -2.1378e-003   8.3541e-004   2.0869e-005  -5.3920e+005   5.5447e+004   4.1739e+002    0.0000    0.0000    0.0000   -0.0000    0.0000
                2.3211  -2.1464e-003   8.3883e-004   1.3156e-005  -5.4136e+005   5.5687e+004   2.6313e+002    0.0000    0.0000    0.0000   -0.0000    0.0000

               lamina:  3     
              matName:  (blade-shell)
                     s           e11           e22           e12           s11           s22           s12   s11_fcT   s11_fcC   s22_fcT   s22_fcC   s12_fcS
                   (m)         (m/m)         (m/m)         (rad)          (Pa)          (Pa)          (Pa)       (-)       (-)       (-)       (-)       (-)
                0.0000  -1.1014e-003   4.3032e-004   5.2975e-004  -3.0900e+007  -1.5558e+005   3.7083e+006    0.0000    0.1451    0.0000    0.0000    0.0618
                0.0031  -1.1029e-003   4.3094e-004   4.6677e-004  -3.0945e+007  -1.5577e+005   3.2674e+006    0.0000    0.1453    0.0000    0.0000    0.0545
                0.3823  -1.2592e-003   4.9199e-004   5.3846e-004  -3.5328e+007  -1.7770e+005   3.7692e+006    0.0000    0.1659    0.0000    0.0000    0.0628
                0.7358  -1.4079e-003   5.5010e-004   5.3793e-004  -3.9500e+007  -1.9854e+005   3.7655e+006    0.0000    0.1854    0.0000    0.0000    0.0628
                1.0589  -1.5475e-003   6.0469e-004   4.6869e-004  -4.3419e+007  -2.1809e+005   3.2808e+006    0.0000    0.2038    0.0000    0.0000    0.0547
                1.3482  -1.6768e-003   6.5518e-004   3.9588e-004  -4.7044e+007  -2.3614e+005   2.7712e+006    0.0000    0.2209    0.0000    0.0000    0.0462
                1.6026  -1.7936e-003   7.0086e-004   3.2221e-004  -5.0323e+007  -2.5246e+005   2.2555e+006    0.0000    0.2363    0.0000    0.0000    0.0376
                1.8212  -1.8967e-003   7.4115e-004   2.5031e-004  -5.3214e+007  -2.6682e+005   1.7521e+006    0.0000    0.2498    0.0000    0.0000    0.0292
                2.0033  -1.9845e-003   7.7546e-004   1.8232e-004  -5.5677e+007  -2.7902e+005   1.2762e+006    0.0000    0.2614    0.0000    0.0000    0.0213
                2.1484  -2.0556e-003   8.0326e-004   1.2025e-004  -5.7673e+007  -2.8887e+005   8.4176e+005    0.0000    0.2708    0.0000    0.0000    0.0140
                2.2548  -2.1082e-003   8.2384e-004   6.5897e-005  -5.9149e+007  -2.9613e+005   4.6128e+005    0.0000    0.2777    0.0000    0.0000    0.0077
                2.3111  -2.1314e-003   8.3288e-004   2.0869e-005  -5.9800e+007  -2.9977e+005   1.4609e+005    0.0000    0.2808    0.0000    0.0000    0.0024
                2.3211  -2.1219e-003   8.2911e-004   1.3156e-005  -5.9534e+007  -2.9933e+005   9.2094e+004    0.0000    0.2795    0.0000    0.0000    0.0015

     Web:  panel  nNode   nLam     xc_St    xc_End         b         t         E_eff         G_eff      nu_eff     density  buckleCrit
            (-)    (-)    (-)       (-)       (-)       (m)       (m)          (Pa)          (Pa)         (-)    (kg/m^3)         (-)
              1     10      3    0.2811    0.2811    2.6296    0.0830   7.6445e+008   4.5301e+008      0.4420    257.1084      0.0006
              2     10      3    0.4757    0.4757    2.1643    0.0830   7.6445e+008   4.5301e+008      0.4420    257.1084      0.0005
              3     10      3    0.7031    0.7031    1.0164    0.0830   7.6445e+008   4.5301e+008      0.4420    257.1084      0.0001

            panel:  1     
           lam_num    nPlies        tPly      fibAng     matID  matName
               (-)       (-)         (m)       (deg)       (-)  (-)
                 1         1    0.001500      0.0000         7  (web-shell)
                 2         1    0.080000      0.0000         8  (web-core)
                 3         1    0.001500      0.0000         7  (web-shell)

               lamina:  1     
              matName:  (web-shell)
                     s           e11           e22           e12           s11           s22           s12   s11_fcT   s11_fcC   s22_fcT   s22_fcC   s12_fcS
                   (m)         (m/m)         (m/m)         (rad)          (Pa)          (Pa)          (Pa)       (-)       (-)       (-)       (-)       (-)
                0.0000   5.0291e-004  -2.2141e-004   1.9153e-004   7.3212e+006   5.6081e+005   2.2984e+006    0.0508   -0.0000    0.0000   -0.0000    0.0255
                0.2922   4.7889e-004  -2.1080e-004   2.0098e-004   6.9719e+006   5.3482e+005   2.4117e+006    0.0484   -0.0000    0.0000   -0.0000    0.0268
                0.5843   4.5488e-004  -2.0018e-004   2.0998e-004   6.6227e+006   5.0883e+005   2.5198e+006    0.0460   -0.0000    0.0000   -0.0000    0.0280
                0.8765   4.3086e-004  -1.8956e-004   2.1855e-004   6.2734e+006   4.8284e+005   2.6226e+006    0.0436   -0.0000    0.0000   -0.0000    0.0291
                1.1687   4.0684e-004  -1.7895e-004   2.2668e-004   5.9242e+006   4.5685e+005   2.7202e+006    0.0411   -0.0000    0.0000   -0.0000    0.0302
                1.4609   3.8282e-004  -1.6833e-004   2.3437e-004   5.5750e+006   4.3086e+005   2.8125e+006    0.0387   -0.0000    0.0000   -0.0000    0.0312
                1.7530   3.5881e-004  -1.5771e-004   2.4162e-004   5.2257e+006   4.0487e+005   2.8995e+006    0.0363   -0.0000    0.0000   -0.0000    0.0322
                2.0452   3.3479e-004  -1.4710e-004   2.4843e-004   4.8765e+006   3.7888e+005   2.9812e+006    0.0339   -0.0000    0.0000   -0.0000    0.0331
                2.3374   3.1077e-004  -1.3648e-004   2.5481e-004   4.5272e+006   3.5288e+005   3.0577e+006    0.0314   -0.0000    0.0000   -0.0000    0.0340
                2.6296   2.8675e-004  -1.2586e-004   2.6074e-004   4.1780e+006   3.2689e+005   3.1289e+006    0.0290   -0.0000    0.0000   -0.0000    0.0348

               lamina:  2     
              matName:  (web-core)
                     s           e11           e22           e12           s11           s22           s12   s11_fcT   s11_fcC   s22_fcT   s22_fcC   s12_fcS
                   (m)         (m/m)         (m/m)         (rad)          (Pa)          (Pa)          (Pa)       (-)       (-)       (-)       (-)       (-)
                0.0000   5.5401e-004  -2.4578e-004   1.9153e-004   1.3722e+005  -2.2735e+004   3.8306e+003    0.0000   -0.0000    0.0000    0.0000    0.0000
                0.2922   5.2999e-004  -2.3516e-004   2.0098e-004   1.3127e+005  -2.1761e+004   4.0195e+003    0.0000   -0.0000    0.0000    0.0000    0.0000
                0.5843   5.0597e-004  -2.2454e-004   2.0998e-004   1.2532e+005  -2.0786e+004   4.1997e+003    0.0000   -0.0000    0.0000    0.0000    0.0000
                0.8765   4.8196e-004  -2.1393e-004   2.1855e-004   1.1936e+005  -1.9812e+004   4.3711e+003    0.0000   -0.0000    0.0000    0.0000    0.0000
                1.1687   4.5794e-004  -2.0331e-004   2.2668e-004   1.1341e+005  -1.8837e+004   4.5336e+003    0.0000   -0.0000    0.0000    0.0000    0.0000
                1.4609   4.3392e-004  -1.9269e-004   2.3437e-004   1.0746e+005  -1.7862e+004   4.6874e+003    0.0000   -0.0000    0.0000    0.0000    0.0000
                1.7530   4.0990e-004  -1.8208e-004   2.4162e-004   1.0151e+005  -1.6888e+004   4.8324e+003    0.0000   -0.0000    0.0000    0.0000    0.0000
                2.0452   3.8588e-004  -1.7146e-004   2.4843e-004   9.5556e+004  -1.5913e+004   4.9687e+003    0.0000   -0.0000    0.0000    0.0000    0.0000
                2.3374   3.6187e-004  -1.6084e-004   2.5481e-004   8.9604e+004  -1.4938e+004   5.0961e+003    0.0000   -0.0000    0.0000    0.0000    0.0000
                2.6296   3.3785e-004  -1.5023e-004   2.6074e-004   8.3651e+004  -1.3964e+004   5.2148e+003    0.0000   -0.0000    0.0000    0.0000    0.0000

               lamina:  3     
              matName:  (web-shell)
                     s           e11           e22           e12           s11           s22           s12   s11_fcT   s11_fcC   s22_fcT   s22_fcC   s12_fcS
                   (m)         (m/m)         (m/m)         (rad)          (Pa)          (Pa)          (Pa)       (-)       (-)       (-)       (-)       (-)
                0.0000   5.5497e-004  -2.4623e-004   1.9153e-004   8.0612e+006   5.8333e+005   2.2984e+006    0.0560   -0.0000    0.0000   -0.0000    0.0255
                0.2922   5.3095e-004  -2.3562e-004   2.0098e-004   7.7120e+006   5.5734e+005   2.4117e+006    0.0536   -0.0000    0.0000   -0.0000    0.0268
                0.5843   5.0693e-004  -2.2500e-004   2.0998e-004   7.3627e+006   5.3135e+005   2.5198e+006    0.0511   -0.0000    0.0000   -0.0000    0.0280
                0.8765   4.8291e-004  -2.1438e-004   2.1855e-004   7.0135e+006   5.0536e+005   2.6226e+006    0.0487   -0.0000    0.0000   -0.0000    0.0291
                1.1687   4.5890e-004  -2.0377e-004   2.2668e-004   6.6642e+006   4.7937e+005   2.7202e+006    0.0463   -0.0000    0.0000   -0.0000    0.0302
                1.4609   4.3488e-004  -1.9315e-004   2.3437e-004   6.3150e+006   4.5338e+005   2.8125e+006    0.0439   -0.0000    0.0000   -0.0000    0.0312
                1.7530   4.1086e-004  -1.8253e-004   2.4162e-004   5.9657e+006   4.2739e+005   2.8995e+006    0.0414   -0.0000    0.0000   -0.0000    0.0322
                2.0452   3.8684e-004  -1.7192e-004   2.4843e-004   5.6165e+006   4.0140e+005   2.9812e+006    0.0390   -0.0000    0.0000   -0.0000    0.0331
                2.3374   3.6282e-004  -1.6130e-004   2.5481e-004   5.2672e+006   3.7541e+005   3.0577e+006    0.0366   -0.0000    0.0000   -0.0000    0.0340
                2.6296   3.3881e-004  -1.5068e-004   2.6074e-004   4.9180e+006   3.4942e+005   3.1289e+006    0.0342   -0.0000    0.0000   -0.0000    0.0348

            panel:  2     
           lam_num    nPlies        tPly      fibAng     matID  matName
               (-)       (-)         (m)       (deg)       (-)  (-)
                 1         1    0.001500      0.0000         7  (web-shell)
                 2         1    0.080000      0.0000         8  (web-core)
                 3         1    0.001500      0.0000         7  (web-shell)

               lamina:  1     
              matName:  (web-shell)
                     s           e11           e22           e12           s11           s22           s12   s11_fcT   s11_fcC   s22_fcT   s22_fcC   s12_fcS
                   (m)         (m/m)         (m/m)         (rad)          (Pa)          (Pa)          (Pa)       (-)       (-)       (-)       (-)       (-)
                0.0000  -2.0123e-004   8.9873e-005   2.6664e-004  -2.9175e+006  -2.0053e+005   3.1997e+006    0.0000    0.0137    0.0000    0.0000    0.0356
                0.2405  -2.2036e-004   9.8327e-005   2.6387e-004  -3.1956e+006  -2.2122e+005   3.1664e+006    0.0000    0.0150    0.0000    0.0000    0.0352
                0.4810  -2.3948e-004   1.0678e-004   2.6081e-004  -3.4737e+006  -2.4192e+005   3.1297e+006    0.0000    0.0163    0.0000    0.0000    0.0348
                0.7214  -2.5860e-004   1.1523e-004   2.5746e-004  -3.7518e+006  -2.6261e+005   3.0895e+006    0.0000    0.0176    0.0000    0.0000    0.0343
                0.9619  -2.7773e-004   1.2369e-004   2.5382e-004  -4.0298e+006  -2.8330e+005   3.0458e+006    0.0000    0.0189    0.0000    0.0000    0.0338
                1.2024  -2.9685e-004   1.3214e-004   2.4989e-004  -4.3079e+006  -3.0400e+005   2.9987e+006    0.0000    0.0202    0.0000    0.0000    0.0333
                1.4429  -3.1598e-004   1.4059e-004   2.4568e-004  -4.5860e+006  -3.2469e+005   2.9482e+006    0.0000    0.0215    0.0000    0.0000    0.0328
                1.6833  -3.3510e-004   1.4905e-004   2.4118e-004  -4.8641e+006  -3.4539e+005   2.8942e+006    0.0000    0.0228    0.0000    0.0000    0.0322
                1.9238  -3.5422e-004   1.5750e-004   2.3639e-004  -5.1422e+006  -3.6608e+005   2.8367e+006    0.0000    0.0241    0.0000    0.0000    0.0315
                2.1643  -3.7335e-004   1.6595e-004   2.3131e-004  -5.4203e+006  -3.8678e+005   2.7758e+006    0.0000    0.0254    0.0000    0.0000    0.0308

               lamina:  2     
              matName:  (web-core)
                     s           e11           e22           e12           s11           s22           s12   s11_fcT   s11_fcC   s22_fcT   s22_fcC   s12_fcS
                   (m)         (m/m)         (m/m)         (rad)          (Pa)          (Pa)          (Pa)       (-)       (-)       (-)       (-)       (-)
                0.0000  -2.0027e-004   8.9416e-005   2.6664e-004  -4.9557e+004   8.3812e+003   5.3328e+003    0.0000    0.0000    0.0000   -0.0000    0.0000
                0.2405  -2.1940e-004   9.7869e-005   2.6387e-004  -5.4296e+004   9.1573e+003   5.2773e+003    0.0000    0.0000    0.0000   -0.0000    0.0000
                0.4810  -2.3852e-004   1.0632e-004   2.6081e-004  -5.9035e+004   9.9333e+003   5.2161e+003    0.0000    0.0000    0.0000   -0.0000    0.0000
                0.7214  -2.5764e-004   1.1478e-004   2.5746e-004  -6.3775e+004   1.0709e+004   5.1491e+003    0.0000    0.0000    0.0000   -0.0000    0.0000
                0.9619  -2.7677e-004   1.2323e-004   2.5382e-004  -6.8514e+004   1.1485e+004   5.0764e+003    0.0000    0.0000    0.0000   -0.0000    0.0000
                1.2024  -2.9589e-004   1.3168e-004   2.4989e-004  -7.3254e+004   1.2261e+004   4.9979e+003    0.0000    0.0000    0.0000   -0.0000    0.0000
                1.4429  -3.1502e-004   1.4014e-004   2.4568e-004  -7.7993e+004   1.3038e+004   4.9136e+003    0.0000    0.0000    0.0000   -0.0000    0.0000
                1.6833  -3.3414e-004   1.4859e-004   2.4118e-004  -8.2732e+004   1.3814e+004   4.8236e+003    0.0000    0.0000    0.0000   -0.0000    0.0000
                1.9238  -3.5326e-004   1.5704e-004   2.3639e-004  -8.7472e+004   1.4590e+004   4.7278e+003    0.0000    0.0000    0.0000   -0.0000    0.0000
                2.1643  -3.7239e-004   1.6550e-004   2.3131e-004  -9.2211e+004   1.5366e+004   4.6263e+003    0.0000    0.0000    0.0000   -0.0000    0.0000

               lamina:  3     
              matName:  (web-shell)
                     s           e11           e22           e12           s11           s22           s12   s11_fcT   s11_fcC   s22_fcT   s22_fcC   s12_fcS
                   (m)         (m/m)         (m/m)         (rad)          (Pa)          (Pa)          (Pa)       (-)       (-)       (-)       (-)       (-)
                0.0000  -1.4913e-004   6.5029e-005   2.6664e-004  -2.1768e+006  -1.7798e+005   3.1997e+006    0.0000    0.0102    0.0000    0.0000    0.0356
                0.2405  -1.6825e-004   7.3482e-005   2.6387e-004  -2.4549e+006  -1.9868e+005   3.1664e+006    0.0000    0.0115    0.0000    0.0000    0.0352
                0.4810  -1.8738e-004   8.1936e-005   2.6081e-004  -2.7329e+006  -2.1937e+005   3.1297e+006    0.0000    0.0128    0.0000    0.0000    0.0348
                0.7214  -2.0650e-004   9.0389e-005   2.5746e-004  -3.0110e+006  -2.4007e+005   3.0895e+006    0.0000    0.0141    0.0000    0.0000    0.0343
                0.9619  -2.2562e-004   9.8842e-005   2.5382e-004  -3.2891e+006  -2.6076e+005   3.0458e+006    0.0000    0.0154    0.0000    0.0000    0.0338
                1.2024  -2.4475e-004   1.0730e-004   2.4989e-004  -3.5672e+006  -2.8146e+005   2.9987e+006    0.0000    0.0167    0.0000    0.0000    0.0333
                1.4429  -2.6387e-004   1.1575e-004   2.4568e-004  -3.8453e+006  -3.0215e+005   2.9482e+006    0.0000    0.0181    0.0000    0.0000    0.0328
                1.6833  -2.8300e-004   1.2420e-004   2.4118e-004  -4.1234e+006  -3.2285e+005   2.8942e+006    0.0000    0.0194    0.0000    0.0000    0.0322
                1.9238  -3.0212e-004   1.3266e-004   2.3639e-004  -4.4014e+006  -3.4354e+005   2.8367e+006    0.0000    0.0207    0.0000    0.0000    0.0315
                2.1643  -3.2124e-004   1.4111e-004   2.3131e-004  -4.6795e+006  -3.6423e+005   2.7758e+006    0.0000    0.0220    0.0000    0.0000    0.0308

            panel:  3     
           lam_num    nPlies        tPly      fibAng     matID  matName
               (-)       (-)         (m)       (deg)       (-)  (-)
                 1         1    0.001500      0.0000         7  (web-shell)
                 2         1    0.080000      0.0000         8  (web-core)
                 3         1    0.001500      0.0000         7  (web-shell)

               lamina:  1     
              matName:  (web-shell)
                     s           e11           e22           e12           s11           s22           s12   s11_fcT   s11_fcC   s22_fcT   s22_fcC   s12_fcS
                   (m)         (m/m)         (m/m)         (rad)          (Pa)          (Pa)          (Pa)       (-)       (-)       (-)       (-)       (-)
                0.0000  -1.0485e-003   4.6439e-004   2.0309e-004  -1.5238e+007  -1.1174e+006   2.4371e+006    0.0000    0.0715    0.0000    0.0000    0.0271
                0.1129  -1.0574e-003   4.6830e-004   1.9584e-004  -1.5366e+007  -1.1270e+006   2.3501e+006    0.0000    0.0721    0.0000    0.0000    0.0261
                0.2259  -1.0662e-003   4.7222e-004   1.8852e-004  -1.5495e+007  -1.1365e+006   2.2622e+006    0.0000    0.0727    0.0000    0.0000    0.0251
                0.3388  -1.0750e-003   4.7613e-004   1.8114e-004  -1.5624e+007  -1.1461e+006   2.1737e+006    0.0000    0.0734    0.0000    0.0000    0.0242
                0.4517  -1.0839e-003   4.8004e-004   1.7369e-004  -1.5752e+007  -1.1557e+006   2.0843e+006    0.0000    0.0740    0.0000    0.0000    0.0232
                0.5646  -1.0927e-003   4.8395e-004   1.6619e-004  -1.5881e+007  -1.1652e+006   1.9943e+006    0.0000    0.0746    0.0000    0.0000    0.0222
                0.6776  -1.1016e-003   4.8786e-004   1.5862e-004  -1.6010e+007  -1.1748e+006   1.9034e+006    0.0000    0.0752    0.0000    0.0000    0.0211
                0.7905  -1.1104e-003   4.9177e-004   1.5099e-004  -1.6138e+007  -1.1844e+006   1.8119e+006    0.0000    0.0758    0.0000    0.0000    0.0201
                0.9034  -1.1193e-003   4.9568e-004   1.4329e-004  -1.6267e+007  -1.1940e+006   1.7195e+006    0.0000    0.0764    0.0000    0.0000    0.0191
                1.0164  -1.1281e-003   4.9959e-004   1.3554e-004  -1.6396e+007  -1.2035e+006   1.6265e+006    0.0000    0.0770    0.0000    0.0000    0.0181

               lamina:  2     
              matName:  (web-core)
                     s           e11           e22           e12           s11           s22           s12   s11_fcT   s11_fcC   s22_fcT   s22_fcC   s12_fcS
                   (m)         (m/m)         (m/m)         (rad)          (Pa)          (Pa)          (Pa)       (-)       (-)       (-)       (-)       (-)
                0.0000  -1.0475e-003   4.6394e-004   2.0309e-004  -2.5953e+005   4.2764e+004   4.0619e+003    0.0000    0.0000    0.0000   -0.0000    0.0000
                0.1129  -1.0564e-003   4.6785e-004   1.9584e-004  -2.6173e+005   4.3123e+004   3.9168e+003    0.0000    0.0000    0.0000   -0.0000    0.0000
                0.2259  -1.0652e-003   4.7176e-004   1.8852e-004  -2.6392e+005   4.3482e+004   3.7704e+003    0.0000    0.0000    0.0000   -0.0000    0.0000
                0.3388  -1.0741e-003   4.7567e-004   1.8114e-004  -2.6611e+005   4.3841e+004   3.6228e+003    0.0000    0.0000    0.0000   -0.0000    0.0000
                0.4517  -1.0829e-003   4.7958e-004   1.7369e-004  -2.6830e+005   4.4200e+004   3.4739e+003    0.0000    0.0000    0.0000   -0.0000    0.0000
                0.5646  -1.0918e-003   4.8349e-004   1.6619e-004  -2.7050e+005   4.4559e+004   3.3238e+003    0.0000    0.0000    0.0000   -0.0000    0.0000
                0.6776  -1.1006e-003   4.8740e-004   1.5862e-004  -2.7269e+005   4.4918e+004   3.1724e+003    0.0000    0.0000    0.0000   -0.0000    0.0000
                0.7905  -1.1095e-003   4.9131e-004   1.5099e-004  -2.7488e+005   4.5277e+004   3.0198e+003    0.0000    0.0000    0.0000   -0.0000    0.0000
                0.9034  -1.1183e-003   4.9522e-004   1.4329e-004  -2.7707e+005   4.5636e+004   2.8659e+003    0.0000    0.0000    0.0000   -0.0000    0.0000
                1.0164  -1.1272e-003   4.9913e-004   1.3554e-004  -2.7927e+005   4.5995e+004   2.7108e+003    0.0000    0.0000    0.0000   -0.0000    0.0000

               lamina:  3     
              matName:  (web-shell)
                     s           e11           e22           e12           s11           s22           s12   s11_fcT   s11_fcC   s22_fcT   s22_fcC   s12_fcS
                   (m)         (m/m)         (m/m)         (rad)          (Pa)          (Pa)          (Pa)       (-)       (-)       (-)       (-)       (-)
                0.0000  -9.9638e-004   4.3954e-004   2.0309e-004  -1.4497e+007  -1.0948e+006   2.4371e+006    0.0000    0.0681    0.0000    0.0000    0.0271
                0.1129  -1.0052e-003   4.4345e-004   1.9584e-004  -1.4625e+007  -1.1044e+006   2.3501e+006    0.0000    0.0687    0.0000    0.0000    0.0261
                0.2259  -1.0141e-003   4.4736e-004   1.8852e-004  -1.4754e+007  -1.1140e+006   2.2622e+006    0.0000    0.0693    0.0000    0.0000    0.0251
                0.3388  -1.0229e-003   4.5127e-004   1.8114e-004  -1.4883e+007  -1.1235e+006   2.1737e+006    0.0000    0.0699    0.0000    0.0000    0.0242
                0.4517  -1.0318e-003   4.5518e-004   1.7369e-004  -1.5011e+007  -1.1331e+006   2.0843e+006    0.0000    0.0705    0.0000    0.0000    0.0232
                0.5646  -1.0406e-003   4.5909e-004   1.6619e-004  -1.5140e+007  -1.1427e+006   1.9943e+006    0.0000    0.0711    0.0000    0.0000    0.0222
                0.6776  -1.0495e-003   4.6300e-004   1.5862e-004  -1.5269e+007  -1.1523e+006   1.9034e+006    0.0000    0.0717    0.0000    0.0000    0.0211
                0.7905  -1.0583e-003   4.6691e-004   1.5099e-004  -1.5397e+007  -1.1618e+006   1.8119e+006    0.0000    0.0723    0.0000    0.0000    0.0201
                0.9034  -1.0672e-003   4.7082e-004   1.4329e-004  -1.5526e+007  -1.1714e+006   1.7195e+006    0.0000    0.0729    0.0000    0.0000    0.0191
                1.0164  -1.0760e-003   4.7473e-004   1.3554e-004  -1.5655e+007  -1.1810e+006   1.6265e+006    0.0000    0.0735    0.0000    0.0000    0.0181

================================================================================
sec        =  18     
zSec       =  26.0000  (m)
nPanelsTop =  5      
nPanelsBot =  5      
nWebs      =  3      

    Top:  panel  nNode   nLam     xc_St    xc_End         b         t         E_eff         G_eff      nu_eff     density  buckleCrit
            (-)    (-)    (-)       (-)       (-)       (m)       (m)          (Pa)          (Pa)         (-)    (kg/m^3)         (-)
              1     12      3    0.0000    0.2789    2.5105    0.0700   4.2251e+009   1.0171e+009      0.3899    435.7143      0.0003
              2      6      5    0.2789    0.4751    1.4526    0.1398   4.1013e+010   3.2860e+009      0.2890   1914.9689      0.0000
              3      2      3    0.4751    0.4760    0.0065    0.0592   4.9495e+009   1.1994e+009      0.3915    478.8058      0.0000
              4      6      3    0.4760    0.6985    1.6932    0.0592   4.9495e+009   1.1994e+009      0.3915    478.8058      0.1030
              5     13      3    0.6985    1.0000    2.3174    0.0592   4.9495e+009   1.1994e+009      0.3915    478.8058      0.5243

            panel:  1     
           lam_num    nPlies        tPly      fibAng     matID  matName
               (-)       (-)         (m)       (deg)       (-)  (-)
                 1         1    0.005000      0.0000         2  (blade-shell)
                 2         1    0.060000      0.0000         5  (LEP-core)
                 3         1    0.005000      0.0000         2  (blade-shell)

               lamina:  1     
              matName:  (blade-shell)
                     s           e11           e22           e12           s11           s22           s12   s11_fcT   s11_fcC   s22_fcT   s22_fcC   s12_fcS
                   (m)         (m/m)         (m/m)         (rad)          (Pa)          (Pa)          (Pa)       (-)       (-)       (-)       (-)       (-)
                0.0000   1.3490e-003  -5.2608e-004   1.1666e-004   3.7854e+007   2.0578e+005   8.1661e+005    0.2629   -0.0000    0.0000   -0.0000    0.0136
                0.1328   1.3506e-003  -5.2671e-004   8.8360e-005   3.7900e+007   2.0604e+005   6.1852e+005    0.2632   -0.0000    0.0000   -0.0000    0.0103
                0.2907   1.3353e-003  -5.2073e-004   5.4867e-005   3.7470e+007   2.0377e+005   3.8407e+005    0.2602   -0.0000    0.0000   -0.0000    0.0064
                0.4613   1.3013e-003  -5.0746e-004   1.9323e-005   3.6516e+007   1.9870e+005   1.3526e+005    0.2536   -0.0000    0.0000   -0.0000    0.0023
                0.6561   1.2496e-003  -4.8731e-004   1.9991e-005   3.5066e+007   1.9092e+005   1.3994e+005    0.2435   -0.0000    0.0000   -0.0000    0.0023
                0.8748   1.1806e-003  -4.6040e-004   6.2065e-005   3.3130e+007   1.8047e+005   4.3445e+005    0.2301   -0.0000    0.0000   -0.0000    0.0072
                1.1165   1.0948e-003  -4.2692e-004   1.0563e-004   3.0722e+007   1.6743e+005   7.3941e+005    0.2133   -0.0000    0.0000   -0.0000    0.0123
                1.3806   9.9284e-004  -3.8715e-004   1.4933e-004   2.7860e+007   1.5191e+005   1.0453e+006    0.1935   -0.0000    0.0000   -0.0000    0.0174
                1.6666   8.7580e-004  -3.4151e-004   1.9172e-004   2.4576e+007   1.3406e+005   1.3420e+006    0.1707   -0.0000    0.0000   -0.0000    0.0224
                1.9722   7.4444e-004  -2.9028e-004   2.3102e-004   2.0890e+007   1.1401e+005   1.6172e+006    0.1451   -0.0000    0.0000   -0.0000    0.0270
                2.2976   6.0015e-004  -2.3402e-004   2.6577e-004   1.6841e+007   9.1945e+004   1.8604e+006    0.1170   -0.0000    0.0000   -0.0000    0.0310
                2.5105   5.0360e-004  -1.9637e-004   2.8445e-004   1.4132e+007   7.7180e+004   1.9911e+006    0.0981   -0.0000    0.0000   -0.0000    0.0332

               lamina:  2     
              matName:  (LEP-core)
                     s           e11           e22           e12           s11           s22           s12   s11_fcT   s11_fcC   s22_fcT   s22_fcC   s12_fcS
                   (m)         (m/m)         (m/m)         (rad)          (Pa)          (Pa)          (Pa)       (-)       (-)       (-)       (-)       (-)
                0.0000   1.3463e-003  -5.2499e-004   1.1666e-004   3.3964e+005  -3.4603e+004   2.3332e+003    0.0000   -0.0000    0.0000    0.0000    0.0000
                0.1328   1.3479e-003  -5.2562e-004   8.8360e-005   3.4005e+005  -3.4645e+004   1.7672e+003    0.0000   -0.0000    0.0000    0.0000    0.0000
                0.2907   1.3327e-003  -5.1969e-004   5.4867e-005   3.3622e+005  -3.4253e+004   1.0973e+003    0.0000   -0.0000    0.0000    0.0000    0.0000
                0.4613   1.2989e-003  -5.0651e-004   1.9323e-005   3.2770e+005  -3.3383e+004   3.8646e+002    0.0000   -0.0000    0.0000    0.0000    0.0000
                0.6561   1.2475e-003  -4.8645e-004   1.9991e-005   3.1473e+005  -3.2060e+004   3.9983e+002    0.0000   -0.0000    0.0000    0.0000    0.0000
                0.8748   1.1787e-003  -4.5964e-004   6.2065e-005   2.9738e+005  -3.0291e+004   1.2413e+003    0.0000   -0.0000    0.0000    0.0000    0.0000
                1.1165   1.0931e-003  -4.2626e-004   1.0563e-004   2.7579e+005  -2.8091e+004   2.1126e+003    0.0000   -0.0000    0.0000    0.0000    0.0000
                1.3806   9.9142e-004  -3.8659e-004   1.4933e-004   2.5013e+005  -2.5476e+004   2.9866e+003    0.0000   -0.0000    0.0000    0.0000    0.0000
                1.6666   8.7463e-004  -3.4104e-004   1.9172e-004   2.2066e+005  -2.2473e+004   3.8343e+003    0.0000   -0.0000    0.0000    0.0000    0.0000
                1.9722   7.4352e-004  -2.8992e-004   2.3102e-004   1.8759e+005  -1.9104e+004   4.6204e+003    0.0000   -0.0000    0.0000    0.0000    0.0000
                2.2976   5.9945e-004  -2.3374e-004   2.6577e-004   1.5124e+005  -1.5401e+004   5.3155e+003    0.0000   -0.0000    0.0000    0.0000    0.0000
                2.5105   5.0305e-004  -1.9615e-004   2.8445e-004   1.2692e+005  -1.2924e+004   5.6889e+003    0.0000   -0.0000    0.0000    0.0000    0.0000

               lamina:  3     
              matName:  (blade-shell)
                     s           e11           e22           e12           s11           s22           s12   s11_fcT   s11_fcC   s22_fcT   s22_fcC   s12_fcS
                   (m)         (m/m)         (m/m)         (rad)          (Pa)          (Pa)          (Pa)       (-)       (-)       (-)       (-)       (-)
                0.0000   1.3132e-003  -5.1187e-004   1.1666e-004   3.6851e+007   2.0410e+005   8.1661e+005    0.2559   -0.0000    0.0000   -0.0000    0.0136
                0.1328   1.3150e-003  -5.1256e-004   8.8360e-005   3.6901e+007   2.0436e+005   6.1852e+005    0.2563   -0.0000    0.0000   -0.0000    0.0103
                0.2907   1.3013e-003  -5.0723e-004   5.4867e-005   3.6517e+007   2.0217e+005   3.8407e+005    0.2536   -0.0000    0.0000   -0.0000    0.0064
                0.4613   1.2702e-003  -4.9510e-004   1.9323e-005   3.5643e+007   1.9723e+005   1.3526e+005    0.2475   -0.0000    0.0000   -0.0000    0.0023
                0.6561   1.2216e-003  -4.7616e-004   1.9991e-005   3.4280e+007   1.8959e+005   1.3994e+005    0.2381   -0.0000    0.0000   -0.0000    0.0023
                0.8748   1.1558e-003  -4.5052e-004   6.2065e-005   3.2433e+007   1.7930e+005   4.3445e+005    0.2252   -0.0000    0.0000   -0.0000    0.0072
                1.1165   1.0732e-003  -4.1834e-004   1.0563e-004   3.0116e+007   1.6642e+005   7.3941e+005    0.2091   -0.0000    0.0000   -0.0000    0.0123
                1.3806   9.7438e-004  -3.7983e-004   1.4933e-004   2.7343e+007   1.5104e+005   1.0453e+006    0.1899   -0.0000    0.0000   -0.0000    0.0174
                1.6666   8.6057e-004  -3.3547e-004   1.9172e-004   2.4149e+007   1.3334e+005   1.3420e+006    0.1677   -0.0000    0.0000   -0.0000    0.0224
                1.9722   7.3257e-004  -2.8557e-004   2.3102e-004   2.0557e+007   1.1345e+005   1.6172e+006    0.1428   -0.0000    0.0000   -0.0000    0.0270
                2.2976   5.9112e-004  -2.3043e-004   2.6577e-004   1.6588e+007   9.1520e+004   1.8604e+006    0.1152   -0.0000    0.0000   -0.0000    0.0310
                2.5105   4.9647e-004  -1.9354e-004   2.8445e-004   1.3932e+007   7.6844e+004   1.9911e+006    0.0967   -0.0000    0.0000   -0.0000    0.0332

            panel:  2     
           lam_num    nPlies        tPly      fibAng     matID  matName
               (-)       (-)         (m)       (deg)       (-)  (-)
                 1         1    0.005000      0.0000         2  (blade-shell)
                 2         1    0.064909      0.0000         3  (spar-uni)
                 3         1    0.000002      0.0000         4  (spar-core)
                 4         1    0.064909      0.0000         3  (spar-uni)
                 5         1    0.005000      0.0000         2  (blade-shell)

               lamina:  1     
              matName:  (blade-shell)
                     s           e11           e22           e12           s11           s22           s12   s11_fcT   s11_fcC   s22_fcT   s22_fcC   s12_fcS
                   (m)         (m/m)         (m/m)         (rad)          (Pa)          (Pa)          (Pa)       (-)       (-)       (-)       (-)       (-)
                0.0000   5.1657e-004  -1.4963e-004   2.9211e-005   1.4811e+007   8.6731e+005   2.0448e+005    0.1029   -0.0000    0.0000   -0.0000    0.0034
                0.1280   4.5378e-004  -1.3140e-004   5.8041e-005   1.3011e+007   7.6260e+005   4.0629e+005    0.0904   -0.0000    0.0000   -0.0000    0.0068
                0.4885   2.8586e-004  -8.2794e-005   1.2004e-004   8.1960e+006   4.8009e+005   8.4025e+005    0.0569   -0.0000    0.0000   -0.0000    0.0140
                0.8627   1.1082e-004  -3.2131e-005   1.5426e-004   3.1772e+006   1.8560e+005   1.0798e+006    0.0221   -0.0000    0.0000   -0.0000    0.0180
                1.2479  -6.8983e-005   1.9898e-005   1.5733e-004  -1.9784e+006  -1.1711e+005   1.1013e+006    0.0000    0.0093    0.0000    0.0000    0.0184
                1.4526  -1.6493e-004   4.7666e-005   1.4567e-004  -4.7294e+006  -2.7856e+005   1.0197e+006    0.0000    0.0222    0.0000    0.0000    0.0170

               lamina:  2     
              matName:  (spar-uni)
                     s           e11           e22           e12           s11           s22           s12   s11_fcT   s11_fcC   s22_fcT   s22_fcC   s12_fcS
                   (m)         (m/m)         (m/m)         (rad)          (Pa)          (Pa)          (Pa)       (-)       (-)       (-)       (-)       (-)
                0.0000   5.1514e-004  -1.4920e-004   2.9211e-005   2.1616e+007  -7.1272e+004   8.7632e+004    0.0222   -0.0000    0.0000    0.0000    0.0029
                0.1280   4.5273e-004  -1.3108e-004   5.8041e-005   1.8997e+007  -6.2011e+004   1.7412e+005    0.0195   -0.0000    0.0000    0.0000    0.0058
                0.4885   2.8511e-004  -8.2565e-005   1.2004e-004   1.1964e+007  -3.9319e+004   3.6011e+005    0.0123   -0.0000    0.0000    0.0000    0.0120
                0.8627   1.1038e-004  -3.1996e-005   1.5426e-004   4.6315e+006  -1.5676e+004   4.6279e+005    0.0048   -0.0000    0.0000    0.0000    0.0154
                1.2479  -7.1588e-005   2.0692e-005   1.5733e-004  -3.0041e+006   9.3108e+003   4.7200e+005    0.0000    0.0043    0.0000   -0.0000    0.0157
                1.4526  -1.6530e-004   4.7779e-005   1.4567e-004  -6.9365e+006   2.1499e+004   4.3700e+005    0.0000    0.0099    0.0000   -0.0000    0.0146

               lamina:  3     
              matName:  (spar-core)
                     s           e11           e22           e12           s11           s22           s12   s11_fcT   s11_fcC   s22_fcT   s22_fcC   s12_fcS
                   (m)         (m/m)         (m/m)         (rad)          (Pa)          (Pa)          (Pa)       (-)       (-)       (-)       (-)       (-)
                0.0000   4.9657e-004  -1.4353e-004   2.9211e-005   1.2958e+005   1.5540e+003   5.8421e+002    0.0000   -0.0000    0.0000   -0.0000    0.0000
                0.1280   4.3914e-004  -1.2693e-004   5.8041e-005   1.1459e+005   1.3742e+003   1.1608e+003    0.0000   -0.0000    0.0000   -0.0000    0.0000
                0.4885   2.7539e-004  -7.9600e-005   1.2004e-004   7.1859e+004   8.6178e+002   2.4007e+003    0.0000   -0.0000    0.0000   -0.0000    0.0000
                0.8627   1.0464e-004  -3.0246e-005   1.5426e-004   2.7305e+004   3.2746e+002   3.0853e+003    0.0000   -0.0000    0.0000   -0.0000    0.0000
                1.2479  -7.1588e-005   2.0692e-005   1.5733e-004  -1.8680e+004  -2.2403e+002   3.1466e+003    0.0000    0.0000    0.0000    0.0000    0.0000
                1.4526  -1.6530e-004   4.7779e-005   1.4567e-004  -4.3133e+004  -5.1728e+002   2.9134e+003    0.0000    0.0000    0.0000    0.0000    0.0000

               lamina:  4     
              matName:  (spar-uni)
                     s           e11           e22           e12           s11           s22           s12   s11_fcT   s11_fcC   s22_fcT   s22_fcC   s12_fcS
                   (m)         (m/m)         (m/m)         (rad)          (Pa)          (Pa)          (Pa)       (-)       (-)       (-)       (-)       (-)
                0.0000   4.9657e-004  -1.4353e-004   2.9211e-005   2.0838e+007  -6.4584e+004   8.7632e+004    0.0214   -0.0000    0.0000    0.0000    0.0029
                0.1280   4.3914e-004  -1.2693e-004   5.8041e-005   1.8428e+007  -5.7114e+004   1.7412e+005    0.0190   -0.0000    0.0000    0.0000    0.0058
                0.4885   2.7539e-004  -7.9600e-005   1.2004e-004   1.1556e+007  -3.5817e+004   3.6011e+005    0.0119   -0.0000    0.0000    0.0000    0.0120
                0.8627   1.0464e-004  -3.0246e-005   1.5426e-004   4.3911e+006  -1.3609e+004   4.6279e+005    0.0045   -0.0000    0.0000    0.0000    0.0154
                1.2479  -7.4194e-005   2.1487e-005   1.5733e-004  -3.1133e+006   1.0249e+004   4.7200e+005    0.0000    0.0044    0.0000   -0.0000    0.0157
                1.4526  -1.6567e-004   4.7893e-005   1.4567e-004  -6.9521e+006   2.1633e+004   4.3700e+005    0.0000    0.0099    0.0000   -0.0000    0.0146

               lamina:  5     
              matName:  (blade-shell)
                     s           e11           e22           e12           s11           s22           s12   s11_fcT   s11_fcC   s22_fcT   s22_fcC   s12_fcS
                   (m)         (m/m)         (m/m)         (rad)          (Pa)          (Pa)          (Pa)       (-)       (-)       (-)       (-)       (-)
                0.0000   4.7801e-004  -1.3787e-004   2.9211e-005   1.3709e+007   8.1160e+005   2.0448e+005    0.0952   -0.0000    0.0000   -0.0000    0.0034
                0.1280   4.2554e-004  -1.2278e-004   5.8041e-005   1.2204e+007   7.2180e+005   4.0629e+005    0.0847   -0.0000    0.0000   -0.0000    0.0068
                0.4885   2.6567e-004  -7.6634e-005   1.2004e-004   7.6190e+006   4.5092e+005   8.4025e+005    0.0529   -0.0000    0.0000   -0.0000    0.0140
                0.8627   9.8903e-005  -2.8496e-005   1.5426e-004   2.8366e+006   1.6839e+005   1.0798e+006    0.0197   -0.0000    0.0000   -0.0000    0.0180
                1.2479  -7.4395e-005   2.1549e-005   1.5733e-004  -2.1330e+006  -1.2493e+005   1.1013e+006    0.0000    0.0100    0.0000    0.0000    0.0184
                1.4526  -1.6570e-004   4.7901e-005   1.4567e-004  -4.7515e+006  -2.7967e+005   1.0197e+006    0.0000    0.0223    0.0000    0.0000    0.0170

            panel:  3     
           lam_num    nPlies        tPly      fibAng     matID  matName
               (-)       (-)         (m)       (deg)       (-)  (-)
                 1         1    0.005000      0.0000         2  (blade-shell)
                 2         1    0.049181      0.0000         6  (TEP-core)
                 3         1    0.005000      0.0000         2  (blade-shell)

               lamina:  1     
              matName:  (blade-shell)
                     s           e11           e22           e12           s11           s22           s12   s11_fcT   s11_fcC   s22_fcT   s22_fcC   s12_fcS
                   (m)         (m/m)         (m/m)         (rad)          (Pa)          (Pa)          (Pa)       (-)       (-)       (-)       (-)       (-)
                0.0000  -1.6517e-004   6.4672e-005   9.4286e-004  -4.6333e+006  -2.1252e+004   6.6000e+006    0.0000    0.0218    0.0000    0.0000    0.1100
                0.0065  -1.6816e-004   6.5844e-005   9.4268e-004  -4.7172e+006  -2.1637e+004   6.5988e+006    0.0000    0.0221    0.0000    0.0000    0.1100

               lamina:  2     
              matName:  (TEP-core)
                     s           e11           e22           e12           s11           s22           s12   s11_fcT   s11_fcC   s22_fcT   s22_fcC   s12_fcS
                   (m)         (m/m)         (m/m)         (rad)          (Pa)          (Pa)          (Pa)       (-)       (-)       (-)       (-)       (-)
                0.0000  -1.6528e-004   6.4715e-005   9.4286e-004  -4.1676e+004   4.3232e+003   1.8857e+004    0.0000    0.0000    0.0000   -0.0000    0.0000
                0.0065  -1.6827e-004   6.5887e-005   9.4268e-004  -4.2431e+004   4.4015e+003   1.8854e+004    0.0000    0.0000    0.0000   -0.0000    0.0000

               lamina:  3     
              matName:  (blade-shell)
                     s           e11           e22           e12           s11           s22           s12   s11_fcT   s11_fcC   s22_fcT   s22_fcC   s12_fcS
                   (m)         (m/m)         (m/m)         (rad)          (Pa)          (Pa)          (Pa)       (-)       (-)       (-)       (-)       (-)
                0.0000  -1.6529e-004   6.4720e-005   9.4286e-004  -4.6367e+006  -2.1257e+004   6.6000e+006    0.0000    0.0218    0.0000    0.0000    0.1100
                0.0065  -1.6829e-004   6.5892e-005   9.4268e-004  -4.7206e+006  -2.1642e+004   6.5988e+006    0.0000    0.0222    0.0000    0.0000    0.1100

            panel:  4     
           lam_num    nPlies        tPly      fibAng     matID  matName
               (-)       (-)         (m)       (deg)       (-)  (-)
                 1         1    0.005000      0.0000         2  (blade-shell)
                 2         1    0.049181      0.0000         6  (TEP-core)
                 3         1    0.005000      0.0000         2  (blade-shell)

               lamina:  1     
              matName:  (blade-shell)
                     s           e11           e22           e12           s11           s22           s12   s11_fcT   s11_fcC   s22_fcT   s22_fcC   s12_fcS
                   (m)         (m/m)         (m/m)         (rad)          (Pa)          (Pa)          (Pa)       (-)       (-)       (-)       (-)       (-)
                0.0000  -1.6816e-004   6.5844e-005   8.1397e-004  -4.7172e+006  -2.1637e+004   5.6978e+006    0.0000    0.0221    0.0000    0.0000    0.0950
                0.1806  -2.5117e-004   9.8347e-005   8.1380e-004  -7.0457e+006  -3.2287e+004   5.6966e+006    0.0000    0.0331    0.0000    0.0000    0.0949
                0.5762  -4.3257e-004   1.6937e-004   8.1380e-004  -1.2134e+007  -5.5591e+004   5.6966e+006    0.0000    0.0570    0.0000    0.0000    0.0949
                0.9693  -6.1271e-004   2.3991e-004   8.0777e-004  -1.7187e+007  -7.8733e+004   5.6544e+006    0.0000    0.0807    0.0000    0.0000    0.0942
                1.3556  -7.8945e-004   3.0911e-004   7.8628e-004  -2.2145e+007  -1.0145e+005   5.5040e+006    0.0000    0.1040    0.0000    0.0000    0.0917
                1.6932  -9.4372e-004   3.6952e-004   7.5364e-004  -2.6473e+007  -1.2128e+005   5.2755e+006    0.0000    0.1243    0.0000    0.0000    0.0879

               lamina:  2     
              matName:  (TEP-core)
                     s           e11           e22           e12           s11           s22           s12   s11_fcT   s11_fcC   s22_fcT   s22_fcC   s12_fcS
                   (m)         (m/m)         (m/m)         (rad)          (Pa)          (Pa)          (Pa)       (-)       (-)       (-)       (-)       (-)
                0.0000  -1.6827e-004   6.5887e-005   8.1397e-004  -4.2431e+004   4.4015e+003   1.6279e+004    0.0000    0.0000    0.0000   -0.0000    0.0000
                0.1806  -2.5113e-004   9.8330e-005   8.1380e-004  -6.3323e+004   6.5690e+003   1.6276e+004    0.0000    0.0000    0.0000   -0.0000    0.0000
                0.5762  -4.3247e-004   1.6933e-004   8.1380e-004  -1.0905e+005   1.1313e+004   1.6276e+004    0.0000    0.0000    0.0000   -0.0000    0.0000
                0.9693  -6.1255e-004   2.3985e-004   8.0777e-004  -1.5446e+005   1.6023e+004   1.6155e+004    0.0000    0.0000    0.0000   -0.0000    0.0000
                1.3556  -7.8925e-004   3.0903e-004   7.8628e-004  -1.9901e+005   2.0645e+004   1.5726e+004    0.0000    0.0000    0.0000   -0.0000    0.0000
                1.6932  -9.4350e-004   3.6943e-004   7.5364e-004  -2.3791e+005   2.4680e+004   1.5073e+004    0.0000    0.0000    0.0000   -0.0000    0.0000

               lamina:  3     
              matName:  (blade-shell)
                     s           e11           e22           e12           s11           s22           s12   s11_fcT   s11_fcC   s22_fcT   s22_fcC   s12_fcS
                   (m)         (m/m)         (m/m)         (rad)          (Pa)          (Pa)          (Pa)       (-)       (-)       (-)       (-)       (-)
                0.0000  -1.6829e-004   6.5892e-005   8.1397e-004  -4.7206e+006  -2.1642e+004   5.6978e+006    0.0000    0.0222    0.0000    0.0000    0.0950
                0.1806  -2.5071e-004   9.8162e-005   8.1380e-004  -7.0327e+006  -3.2270e+004   5.6966e+006    0.0000    0.0330    0.0000    0.0000    0.0949
                0.5762  -4.3148e-004   1.6894e-004   8.1380e-004  -1.2104e+007  -5.5550e+004   5.6966e+006    0.0000    0.0568    0.0000    0.0000    0.0949
                0.9693  -6.1100e-004   2.3923e-004   8.0777e-004  -1.7139e+007  -7.8668e+004   5.6544e+006    0.0000    0.0805    0.0000    0.0000    0.0942
                1.3556  -7.8729e-004   3.0826e-004   7.8628e-004  -2.2085e+007  -1.0137e+005   5.5040e+006    0.0000    0.1037    0.0000    0.0000    0.0917
                1.6932  -9.4137e-004   3.6858e-004   7.5364e-004  -2.6407e+007  -1.2119e+005   5.2755e+006    0.0000    0.1240    0.0000    0.0000    0.0879

            panel:  5     
           lam_num    nPlies        tPly      fibAng     matID  matName
               (-)       (-)         (m)       (deg)       (-)  (-)
                 1         1    0.005000      0.0000         2  (blade-shell)
                 2         1    0.049181      0.0000         6  (TEP-core)
                 3         1    0.005000      0.0000         2  (blade-shell)

               lamina:  1     
              matName:  (blade-shell)
                     s           e11           e22           e12           s11           s22           s12   s11_fcT   s11_fcC   s22_fcT   s22_fcC   s12_fcS
                   (m)         (m/m)         (m/m)         (rad)          (Pa)          (Pa)          (Pa)       (-)       (-)       (-)       (-)       (-)
                0.0000  -9.4372e-004   3.6952e-004   7.1061e-004  -2.6473e+007  -1.2128e+005   4.9743e+006    0.0000    0.1243    0.0000    0.0000    0.0829
                0.0366  -9.6063e-004   3.7614e-004   6.6411e-004  -2.6947e+007  -1.2344e+005   4.6488e+006    0.0000    0.1265    0.0000    0.0000    0.0775
                0.3955  -1.1243e-003   4.4024e-004   5.6909e-004  -3.1539e+007  -1.4450e+005   3.9836e+006    0.0000    0.1481    0.0000    0.0000    0.0664
                0.7335  -1.2785e-003   5.0060e-004   5.6355e-004  -3.5864e+007  -1.6432e+005   3.9448e+006    0.0000    0.1684    0.0000    0.0000    0.0657
                1.0472  -1.4215e-003   5.5659e-004   5.0410e-004  -3.9875e+007  -1.8271e+005   3.5287e+006    0.0000    0.1872    0.0000    0.0000    0.0588
                1.3325  -1.5515e-003   6.0751e-004   4.3957e-004  -4.3523e+007  -1.9944e+005   3.0770e+006    0.0000    0.2043    0.0000    0.0000    0.0513
                1.5865  -1.6673e-003   6.5283e-004   3.7226e-004  -4.6770e+007  -2.1433e+005   2.6058e+006    0.0000    0.2196    0.0000    0.0000    0.0434
                1.8061  -1.7674e-003   6.9203e-004   3.0484e-004  -4.9578e+007  -2.2721e+005   2.1339e+006    0.0000    0.2328    0.0000    0.0000    0.0356
                1.9893  -1.8509e-003   7.2474e-004   2.3985e-004  -5.1922e+007  -2.3795e+005   1.6790e+006    0.0000    0.2438    0.0000    0.0000    0.0280
                2.1340  -1.9169e-003   7.5058e-004   1.7989e-004  -5.3773e+007  -2.4644e+005   1.2593e+006    0.0000    0.2525    0.0000    0.0000    0.0210
                2.2388  -1.9646e-003   7.6925e-004   1.2722e-004  -5.5111e+007  -2.5257e+005   8.9051e+005    0.0000    0.2587    0.0000    0.0000    0.0148
                2.2953  -1.9941e-003   7.8080e-004   8.3871e-005  -5.5936e+007  -2.5603e+005   5.8709e+005    0.0000    0.2626    0.0000    0.0000    0.0098
                2.3174  -2.0066e-003   7.8575e-004   5.1523e-005  -5.6288e+007  -2.5708e+005   3.6066e+005    0.0000    0.2643    0.0000    0.0000    0.0060

               lamina:  2     
              matName:  (TEP-core)
                     s           e11           e22           e12           s11           s22           s12   s11_fcT   s11_fcC   s22_fcT   s22_fcC   s12_fcS
                   (m)         (m/m)         (m/m)         (rad)          (Pa)          (Pa)          (Pa)       (-)       (-)       (-)       (-)       (-)
                0.0000  -9.4350e-004   3.6943e-004   7.1061e-004  -2.3791e+005   2.4680e+004   1.4212e+004    0.0000    0.0000    0.0000   -0.0000    0.0000
                0.0366  -9.6038e-004   3.7604e-004   6.6411e-004  -2.4216e+005   2.5122e+004   1.3282e+004    0.0000    0.0000    0.0000   -0.0000    0.0000
                0.3955  -1.1241e-003   4.4014e-004   5.6909e-004  -2.8344e+005   2.9404e+004   1.1382e+004    0.0000    0.0000    0.0000   -0.0000    0.0000
                0.7335  -1.2782e-003   5.0050e-004   5.6355e-004  -3.2231e+005   3.3436e+004   1.1271e+004    0.0000    0.0000    0.0000   -0.0000    0.0000
                1.0472  -1.4212e-003   5.5648e-004   5.0410e-004  -3.5836e+005   3.7176e+004   1.0082e+004    0.0000    0.0000    0.0000   -0.0000    0.0000
                1.3325  -1.5513e-003   6.0740e-004   4.3957e-004  -3.9116e+005   4.0577e+004   8.7913e+003    0.0000    0.0000    0.0000   -0.0000    0.0000
                1.5865  -1.6670e-003   6.5272e-004   3.7226e-004  -4.2034e+005   4.3605e+004   7.4452e+003    0.0000    0.0000    0.0000   -0.0000    0.0000
                1.8061  -1.7671e-003   6.9193e-004   3.0484e-004  -4.4559e+005   4.6224e+004   6.0967e+003    0.0000    0.0000    0.0000   -0.0000    0.0000
                1.9893  -1.8507e-003   7.2463e-004   2.3985e-004  -4.6665e+005   4.8409e+004   4.7970e+003    0.0000    0.0000    0.0000   -0.0000    0.0000
                2.1340  -1.9166e-003   7.5047e-004   1.7989e-004  -4.8329e+005   5.0135e+004   3.5979e+003    0.0000    0.0000    0.0000   -0.0000    0.0000
                2.2388  -1.9643e-003   7.6914e-004   1.2722e-004  -4.9531e+005   5.1382e+004   2.5443e+003    0.0000    0.0000    0.0000   -0.0000    0.0000
                2.2953  -1.9932e-003   7.8044e-004   8.3871e-005  -5.0258e+005   5.2141e+004   1.6774e+003    0.0000    0.0000    0.0000   -0.0000    0.0000
                2.3174  -2.0047e-003   7.8497e-004   5.1523e-005  -5.0548e+005   5.2451e+004   1.0305e+003    0.0000    0.0000    0.0000   -0.0000    0.0000

               lamina:  3     
              matName:  (blade-shell)
                     s           e11           e22           e12           s11           s22           s12   s11_fcT   s11_fcC   s22_fcT   s22_fcC   s12_fcS
                   (m)         (m/m)         (m/m)         (rad)          (Pa)          (Pa)          (Pa)       (-)       (-)       (-)       (-)       (-)
                0.0000  -9.4137e-004   3.6858e-004   7.1061e-004  -2.6407e+007  -1.2119e+005   4.9743e+006    0.0000    0.1240    0.0000    0.0000    0.0829
                0.0366  -9.5794e-004   3.7507e-004   6.6411e-004  -2.6872e+007  -1.2334e+005   4.6488e+006    0.0000    0.1262    0.0000    0.0000    0.0775
                0.3955  -1.1216e-003   4.3914e-004   5.6909e-004  -3.1462e+007  -1.4439e+005   3.9836e+006    0.0000    0.1477    0.0000    0.0000    0.0664
                0.7335  -1.2756e-003   4.9946e-004   5.6355e-004  -3.5783e+007  -1.6421e+005   3.9448e+006    0.0000    0.1680    0.0000    0.0000    0.0657
                1.0472  -1.4186e-003   5.5542e-004   5.0410e-004  -3.9793e+007  -1.8260e+005   3.5287e+006    0.0000    0.1868    0.0000    0.0000    0.0588
                1.3325  -1.5486e-003   6.0635e-004   4.3957e-004  -4.3441e+007  -1.9933e+005   3.0770e+006    0.0000    0.2039    0.0000    0.0000    0.0513
                1.5865  -1.6644e-003   6.5168e-004   3.7226e-004  -4.6689e+007  -2.1423e+005   2.6058e+006    0.0000    0.2192    0.0000    0.0000    0.0434
                1.8061  -1.7645e-003   6.9088e-004   3.0484e-004  -4.9497e+007  -2.2710e+005   2.1339e+006    0.0000    0.2324    0.0000    0.0000    0.0356
                1.9893  -1.8479e-003   7.2354e-004   2.3985e-004  -5.1837e+007  -2.3784e+005   1.6790e+006    0.0000    0.2434    0.0000    0.0000    0.0280
                2.1340  -1.9138e-003   7.4933e-004   1.7989e-004  -5.3684e+007  -2.4632e+005   1.2593e+006    0.0000    0.2520    0.0000    0.0000    0.0210
                2.2388  -1.9615e-003   7.6803e-004   1.2722e-004  -5.5024e+007  -2.5246e+005   8.9051e+005    0.0000    0.2583    0.0000    0.0000    0.0148
                2.2953  -1.9843e-003   7.7692e-004   8.3871e-005  -5.5663e+007  -2.5566e+005   5.8709e+005    0.0000    0.2613    0.0000    0.0000    0.0098
                2.3174  -1.9855e-003   7.7737e-004   5.1523e-005  -5.5697e+007  -2.5629e+005   3.6066e+005    0.0000    0.2615    0.0000    0.0000    0.0060

  Bottom:  panel  nNode   nLam     xc_St    xc_End         b         t         E_eff         G_eff      nu_eff     density  buckleCrit
            (-)    (-)    (-)       (-)       (-)       (m)       (m)          (Pa)          (Pa)         (-)    (kg/m^3)         (-)
              1     12      3    0.0000    0.2789    2.6508    0.0700   4.2251e+009   1.0171e+009      0.3899    435.7143      0.0012
              2      6      5    0.2789    0.4751    1.4774    0.1398   4.1013e+010   3.2860e+009      0.2890   1914.9689      0.0000
              3      2      3    0.4751    0.4760    0.0069    0.0592   4.9495e+009   1.1994e+009      0.3915    478.8058      0.0000
              4      6      3    0.4760    0.6985    1.7855    0.0592   4.9495e+009   1.1994e+009      0.3915    478.8058      0.1376
              5     13      3    0.6985    1.0000    2.3141    0.0592   4.9495e+009   1.1994e+009      0.3915    478.8058      0.1498

            panel:  1     
           lam_num    nPlies        tPly      fibAng     matID  matName
               (-)       (-)         (m)       (deg)       (-)  (-)
                 1         1    0.005000      0.0000         2  (blade-shell)
                 2         1    0.060000      0.0000         5  (LEP-core)
                 3         1    0.005000      0.0000         2  (blade-shell)

               lamina:  1     
              matName:  (blade-shell)
                     s           e11           e22           e12           s11           s22           s12   s11_fcT   s11_fcC   s22_fcT   s22_fcC   s12_fcS
                   (m)         (m/m)         (m/m)         (rad)          (Pa)          (Pa)          (Pa)       (-)       (-)       (-)       (-)       (-)
                0.0000   1.3488e-003  -5.2601e-004   1.1666e-004   3.7850e+007   2.0586e+005   8.1661e+005    0.2628   -0.0000    0.0000   -0.0000    0.0136
                0.1338   1.3286e-003  -5.1813e-004   1.4496e-004   3.7283e+007   2.0284e+005   1.0147e+006    0.2589   -0.0000    0.0000   -0.0000    0.0169
                0.2965   1.2883e-003  -5.0237e-004   1.7864e-004   3.6150e+007   1.9683e+005   1.2505e+006    0.2510   -0.0000    0.0000   -0.0000    0.0208
                0.4802   1.2297e-003  -4.7954e-004   2.1528e-004   3.4508e+007   1.8804e+005   1.5069e+006    0.2396   -0.0000    0.0000   -0.0000    0.0251
                0.6938   1.1533e-003  -4.4973e-004   2.5560e-004   3.2363e+007   1.7645e+005   1.7892e+006    0.2247   -0.0000    0.0000   -0.0000    0.0298
                0.9367   1.0597e-003  -4.1323e-004   2.9824e-004   2.9737e+007   1.6221e+005   2.0877e+006    0.2065   -0.0000    0.0000   -0.0000    0.0348
                1.2030   9.5061e-004  -3.7068e-004   3.4073e-004   2.6675e+007   1.4558e+005   2.3851e+006    0.1852   -0.0000    0.0000   -0.0000    0.0398
                1.4896   8.2756e-004  -3.2269e-004   3.8121e-004   2.3222e+007   1.2681e+005   2.6685e+006    0.1613   -0.0000    0.0000   -0.0000    0.0445
                1.7939   6.9216e-004  -2.6989e-004   4.1798e-004   1.9423e+007   1.0617e+005   2.9259e+006    0.1349   -0.0000    0.0000   -0.0000    0.0488
                2.1106   5.4679e-004  -2.1319e-004   4.4925e-004   1.5344e+007   8.4035e+004   3.1448e+006    0.1066   -0.0000    0.0000   -0.0000    0.0524
                2.4394   3.9388e-004  -1.5356e-004   4.7399e-004   1.1053e+007   6.0739e+004   3.3179e+006    0.0768   -0.0000    0.0000   -0.0000    0.0553
                2.6508   2.9626e-004  -1.1549e-004   4.8572e-004   8.3138e+006   4.5877e+004   3.4000e+006    0.0577   -0.0000    0.0000   -0.0000    0.0567

               lamina:  2     
              matName:  (LEP-core)
                     s           e11           e22           e12           s11           s22           s12   s11_fcT   s11_fcC   s22_fcT   s22_fcC   s12_fcS
                   (m)         (m/m)         (m/m)         (rad)          (Pa)          (Pa)          (Pa)       (-)       (-)       (-)       (-)       (-)
                0.0000   1.3462e-003  -5.2497e-004   1.1666e-004   3.3964e+005  -3.4601e+004   2.3332e+003    0.0000   -0.0000    0.0000    0.0000    0.0000
                0.1338   1.3262e-003  -5.1714e-004   1.4496e-004   3.3458e+005  -3.4084e+004   2.8993e+003    0.0000   -0.0000    0.0000    0.0000    0.0000
                0.2965   1.2861e-003  -5.0149e-004   1.7864e-004   3.2446e+005  -3.3051e+004   3.5728e+003    0.0000   -0.0000    0.0000    0.0000    0.0000
                0.4802   1.2278e-003  -4.7878e-004   2.1528e-004   3.0977e+005  -3.1552e+004   4.3055e+003    0.0000   -0.0000    0.0000    0.0000    0.0000
                0.6938   1.1516e-003  -4.4907e-004   2.5560e-004   2.9055e+005  -2.9593e+004   5.1121e+003    0.0000   -0.0000    0.0000    0.0000    0.0000
                0.9367   1.0583e-003  -4.1266e-004   2.9824e-004   2.6700e+005  -2.7193e+004   5.9648e+003    0.0000   -0.0000    0.0000    0.0000    0.0000
                1.2030   9.4943e-004  -3.7021e-004   3.4073e-004   2.3953e+005  -2.4394e+004   6.8146e+003    0.0000   -0.0000    0.0000    0.0000    0.0000
                1.4896   8.2663e-004  -3.2232e-004   3.8121e-004   2.0855e+005  -2.1238e+004   7.6242e+003    0.0000   -0.0000    0.0000    0.0000    0.0000
                1.7939   6.9153e-004  -2.6964e-004   4.1798e-004   1.7447e+005  -1.7765e+004   8.3596e+003    0.0000   -0.0000    0.0000    0.0000    0.0000
                2.1106   5.4651e-004  -2.1308e-004   4.4925e-004   1.3788e+005  -1.4037e+004   8.9851e+003    0.0000   -0.0000    0.0000    0.0000    0.0000
                2.4394   3.9488e-004  -1.5396e-004   4.7399e-004   9.9627e+004  -1.0141e+004   9.4797e+003    0.0000   -0.0000    0.0000    0.0000    0.0000
                2.6508   3.0058e-004  -1.1720e-004   4.8572e-004   7.5834e+004  -7.7229e+003   9.7144e+003    0.0000   -0.0000    0.0000    0.0000    0.0000

               lamina:  3     
              matName:  (blade-shell)
                     s           e11           e22           e12           s11           s22           s12   s11_fcT   s11_fcC   s22_fcT   s22_fcC   s12_fcS
                   (m)         (m/m)         (m/m)         (rad)          (Pa)          (Pa)          (Pa)       (-)       (-)       (-)       (-)       (-)
                0.0000   1.3149e-003  -5.1253e-004   1.1666e-004   3.6898e+007   2.0426e+005   8.1661e+005    0.2562   -0.0000    0.0000   -0.0000    0.0136
                0.1338   1.2963e-003  -5.0529e-004   1.4496e-004   3.6377e+007   2.0132e+005   1.0147e+006    0.2526   -0.0000    0.0000   -0.0000    0.0169
                0.2965   1.2596e-003  -4.9100e-004   1.7864e-004   3.5347e+007   1.9548e+005   1.2505e+006    0.2455   -0.0000    0.0000   -0.0000    0.0208
                0.4802   1.2050e-003  -4.6971e-004   2.1528e-004   3.3814e+007   1.8688e+005   1.5069e+006    0.2348   -0.0000    0.0000   -0.0000    0.0251
                0.6938   1.1317e-003  -4.4117e-004   2.5560e-004   3.1759e+007   1.7543e+005   1.7892e+006    0.2205   -0.0000    0.0000   -0.0000    0.0298
                0.9367   1.0412e-003  -4.0588e-004   2.9824e-004   2.9218e+007   1.6133e+005   2.0877e+006    0.2029   -0.0000    0.0000   -0.0000    0.0348
                1.2030   9.3532e-004  -3.6461e-004   3.4073e-004   2.6247e+007   1.4486e+005   2.3851e+006    0.1823   -0.0000    0.0000   -0.0000    0.0398
                1.4896   8.1557e-004  -3.1793e-004   3.8121e-004   2.2887e+007   1.2625e+005   2.6685e+006    0.1589   -0.0000    0.0000   -0.0000    0.0445
                1.7939   6.8395e-004  -2.6663e-004   4.1798e-004   1.9193e+007   1.0578e+005   2.9259e+006    0.1333   -0.0000    0.0000   -0.0000    0.0488
                2.1106   5.4315e-004  -2.1175e-004   4.4925e-004   1.5242e+007   8.3864e+004   3.1448e+006    0.1058   -0.0000    0.0000   -0.0000    0.0524
                2.4394   3.9497e-004  -1.5399e-004   4.7399e-004   1.1083e+007   6.0791e+004   3.3179e+006    0.0770   -0.0000    0.0000   -0.0000    0.0553
                2.6508   3.0094e-004  -1.1735e-004   4.8572e-004   8.4448e+006   4.6097e+004   3.4000e+006    0.0586   -0.0000    0.0000   -0.0000    0.0567

            panel:  2     
           lam_num    nPlies        tPly      fibAng     matID  matName
               (-)       (-)         (m)       (deg)       (-)  (-)
                 1         1    0.005000      0.0000         2  (blade-shell)
                 2         1    0.064909      0.0000         3  (spar-uni)
                 3         1    0.000002      0.0000         4  (spar-core)
                 4         1    0.064909      0.0000         3  (spar-uni)
                 5         1    0.005000      0.0000         2  (blade-shell)

               lamina:  1     
              matName:  (blade-shell)
                     s           e11           e22           e12           s11           s22           s12   s11_fcT   s11_fcC   s22_fcT   s22_fcC   s12_fcS
                   (m)         (m/m)         (m/m)         (rad)          (Pa)          (Pa)          (Pa)       (-)       (-)       (-)       (-)       (-)
                0.0000   2.8834e-004  -8.3150e-005   9.5349e-005   8.2695e+006   4.8981e+005   6.6744e+005    0.0574   -0.0000    0.0000   -0.0000    0.0111
                0.1234   2.2120e-004  -6.3564e-005   1.1154e-004   6.3451e+006   3.7913e+005   7.8077e+005    0.0441   -0.0000    0.0000   -0.0000    0.0130
                0.4819   5.4981e-005  -1.5373e-005   1.4017e-004   1.5798e+006   1.0073e+005   9.8120e+005    0.0110   -0.0000    0.0000   -0.0000    0.0164
                0.8615  -1.1576e-004   3.4164e-005   1.4160e-004  -3.3152e+006  -1.8475e+005   9.9121e+005    0.0000    0.0156    0.0000    0.0000    0.0165
                1.2619  -2.8228e-004   8.2375e-005   1.1220e-004  -8.0897e+006  -4.6469e+005   7.8542e+005    0.0000    0.0380    0.0000    0.0000    0.0131
                1.4774  -3.6962e-004   1.0766e-004   8.3610e-005  -1.0594e+007  -6.1150e+005   5.8527e+005    0.0000    0.0497    0.0000    0.0000    0.0098

               lamina:  2     
              matName:  (spar-uni)
                     s           e11           e22           e12           s11           s22           s12   s11_fcT   s11_fcC   s22_fcT   s22_fcC   s12_fcS
                   (m)         (m/m)         (m/m)         (rad)          (Pa)          (Pa)          (Pa)       (-)       (-)       (-)       (-)       (-)
                0.0000   3.0051e-004  -8.6862e-005   9.5349e-005   1.2610e+007  -3.9084e+004   2.8605e+005    0.0130   -0.0000    0.0000    0.0000    0.0095
                0.1234   2.4444e-004  -7.0655e-005   1.1154e-004   1.0258e+007  -3.1792e+004   3.3462e+005    0.0106   -0.0000    0.0000    0.0000    0.0112
                0.4819   8.7421e-005  -2.5269e-005   1.4017e-004   3.6685e+006  -1.1370e+004   4.2052e+005    0.0038   -0.0000    0.0000    0.0000    0.0140
                0.8615  -1.1262e-004   3.3206e-005   1.4160e-004  -4.7233e+006   2.4035e+004   4.2480e+005    0.0000    0.0067    0.0000   -0.0000    0.0142
                1.2619  -2.7878e-004   8.1308e-005   1.1220e-004  -1.1696e+007   4.6706e+004   3.3661e+005    0.0000    0.0167    0.0000   -0.0000    0.0112
                1.4774  -3.6593e-004   1.0654e-004   8.3610e-005  -1.5353e+007   5.8620e+004   2.5083e+005    0.0000    0.0219    0.0000   -0.0000    0.0084

               lamina:  3     
              matName:  (spar-core)
                     s           e11           e22           e12           s11           s22           s12   s11_fcT   s11_fcC   s22_fcT   s22_fcC   s12_fcS
                   (m)         (m/m)         (m/m)         (rad)          (Pa)          (Pa)          (Pa)       (-)       (-)       (-)       (-)       (-)
                0.0000   3.0051e-004  -8.6862e-005   9.5349e-005   7.8415e+004   9.4040e+002   1.9070e+003    0.0000   -0.0000    0.0000   -0.0000    0.0000
                0.1234   2.4444e-004  -7.0655e-005   1.1154e-004   6.3784e+004   7.6495e+002   2.2308e+003    0.0000   -0.0000    0.0000   -0.0000    0.0000
                0.4819   8.7422e-005  -2.5269e-005   1.4017e-004   2.2812e+004   2.7357e+002   2.8034e+003    0.0000   -0.0000    0.0000   -0.0000    0.0000
                0.8615  -7.1838e-005   2.0765e-005   1.4160e-004  -1.8745e+004  -2.2481e+002   2.8320e+003    0.0000    0.0000    0.0000    0.0000    0.0000
                1.2619  -2.3340e-004   6.7462e-005   1.1220e-004  -6.0902e+004  -7.3038e+002   2.2441e+003    0.0000    0.0000    0.0000    0.0000    0.0000
                1.4774  -3.1803e-004   9.1925e-005   8.3610e-005  -8.2985e+004  -9.9522e+002   1.6722e+003    0.0000    0.0000    0.0000    0.0000    0.0000

               lamina:  4     
              matName:  (spar-uni)
                     s           e11           e22           e12           s11           s22           s12   s11_fcT   s11_fcC   s22_fcT   s22_fcC   s12_fcS
                   (m)         (m/m)         (m/m)         (rad)          (Pa)          (Pa)          (Pa)       (-)       (-)       (-)       (-)       (-)
                0.0000   3.1268e-004  -9.0573e-005   9.5349e-005   1.3120e+007  -4.3468e+004   2.8605e+005    0.0135   -0.0000    0.0000    0.0000    0.0095
                0.1234   2.6769e-004  -7.7746e-005   1.1154e-004   1.1232e+007  -4.0166e+004   3.3462e+005    0.0116   -0.0000    0.0000    0.0000    0.0112
                0.4819   1.1986e-004  -3.5165e-005   1.4017e-004   5.0278e+006  -2.3057e+004   4.2052e+005    0.0052   -0.0000    0.0000    0.0000    0.0140
                0.8615  -7.1837e-005   2.0764e-005   1.4160e-004  -3.0145e+006   9.3430e+003   4.2480e+005    0.0000    0.0043    0.0000   -0.0000    0.0142
                1.2619  -2.3339e-004   6.7462e-005   1.1220e-004  -9.7941e+006   3.0355e+004   3.3661e+005    0.0000    0.0140    0.0000   -0.0000    0.0112
                1.4774  -3.1802e-004   9.1924e-005   8.3610e-005  -1.3345e+007   4.1362e+004   2.5083e+005    0.0000    0.0190    0.0000   -0.0000    0.0084

               lamina:  5     
              matName:  (blade-shell)
                     s           e11           e22           e12           s11           s22           s12   s11_fcT   s11_fcC   s22_fcT   s22_fcC   s12_fcS
                   (m)         (m/m)         (m/m)         (rad)          (Pa)          (Pa)          (Pa)       (-)       (-)       (-)       (-)       (-)
                0.0000   3.1361e-004  -9.0859e-005   9.5349e-005   8.9917e+006   5.2632e+005   6.6744e+005    0.0624   -0.0000    0.0000   -0.0000    0.0111
                0.1234   2.6948e-004  -7.8292e-005   1.1154e-004   7.7249e+006   4.4889e+005   7.8077e+005    0.0536   -0.0000    0.0000   -0.0000    0.0130
                0.4819   1.2236e-004  -3.5928e-005   1.4017e-004   3.5053e+006   1.9808e+005   9.8120e+005    0.0243   -0.0000    0.0000   -0.0000    0.0164
                0.8615  -3.1055e-005   8.3234e-006   1.4160e-004  -8.9450e+005  -6.2371e+004   9.9121e+005    0.0000    0.0042    0.0000    0.0000    0.0165
                1.2619  -1.8801e-004   5.3616e-005   1.1220e-004  -5.3956e+006  -3.2849e+005   7.8542e+005    0.0000    0.0253    0.0000    0.0000    0.0131
                1.4774  -2.7012e-004   7.7311e-005   8.3610e-005  -7.7505e+006  -4.6775e+005   5.8527e+005    0.0000    0.0364    0.0000    0.0000    0.0098

            panel:  3     
           lam_num    nPlies        tPly      fibAng     matID  matName
               (-)       (-)         (m)       (deg)       (-)  (-)
                 1         1    0.005000      0.0000         2  (blade-shell)
                 2         1    0.049181      0.0000         6  (TEP-core)
                 3         1    0.005000      0.0000         2  (blade-shell)

               lamina:  1     
              matName:  (blade-shell)
                     s           e11           e22           e12           s11           s22           s12   s11_fcT   s11_fcC   s22_fcT   s22_fcC   s12_fcS
                   (m)         (m/m)         (m/m)         (rad)          (Pa)          (Pa)          (Pa)       (-)       (-)       (-)       (-)       (-)
                0.0000  -3.3608e-004   1.3164e-004   5.4118e-004  -9.4271e+006  -4.2452e+004   3.7882e+006    0.0000    0.0443    0.0000    0.0000    0.0631
                0.0069  -3.3878e-004   1.3270e-004   5.4082e-004  -9.5031e+006  -4.2801e+004   3.7857e+006    0.0000    0.0446    0.0000    0.0000    0.0631

               lamina:  2     
              matName:  (TEP-core)
                     s           e11           e22           e12           s11           s22           s12   s11_fcT   s11_fcC   s22_fcT   s22_fcC   s12_fcS
                   (m)         (m/m)         (m/m)         (rad)          (Pa)          (Pa)          (Pa)       (-)       (-)       (-)       (-)       (-)
                0.0000  -3.3463e-004   1.3107e-004   5.4118e-004  -8.4374e+004   8.7648e+003   1.0824e+004    0.0000    0.0000    0.0000   -0.0000    0.0000
                0.0069  -3.3734e-004   1.3213e-004   5.4082e-004  -8.5057e+004   8.8356e+003   1.0816e+004    0.0000    0.0000    0.0000   -0.0000    0.0000

               lamina:  3     
              matName:  (blade-shell)
                     s           e11           e22           e12           s11           s22           s12   s11_fcT   s11_fcC   s22_fcT   s22_fcC   s12_fcS
                   (m)         (m/m)         (m/m)         (rad)          (Pa)          (Pa)          (Pa)       (-)       (-)       (-)       (-)       (-)
                0.0000  -3.2040e-004   1.2541e-004   5.4118e-004  -8.9880e+006  -4.1864e+004   3.7882e+006    0.0000    0.0422    0.0000    0.0000    0.0631
                0.0069  -3.2311e-004   1.2647e-004   5.4082e-004  -9.0640e+006  -4.2213e+004   3.7857e+006    0.0000    0.0426    0.0000    0.0000    0.0631

            panel:  4     
           lam_num    nPlies        tPly      fibAng     matID  matName
               (-)       (-)         (m)       (deg)       (-)  (-)
                 1         1    0.005000      0.0000         2  (blade-shell)
                 2         1    0.049181      0.0000         6  (TEP-core)
                 3         1    0.005000      0.0000         2  (blade-shell)

               lamina:  1     
              matName:  (blade-shell)
                     s           e11           e22           e12           s11           s22           s12   s11_fcT   s11_fcC   s22_fcT   s22_fcC   s12_fcS
                   (m)         (m/m)         (m/m)         (rad)          (Pa)          (Pa)          (Pa)       (-)       (-)       (-)       (-)       (-)
                0.0000  -3.3878e-004   1.3270e-004   6.5252e-004  -9.5031e+006  -4.2801e+004   4.5676e+006    0.0000    0.0446    0.0000    0.0000    0.0761
                0.1907  -4.1390e-004   1.6211e-004   6.5216e-004  -1.1610e+007  -5.2444e+004   4.5651e+006    0.0000    0.0545    0.0000    0.0000    0.0761
                0.6096  -5.7643e-004   2.2575e-004   6.5216e-004  -1.6169e+007  -7.3336e+004   4.5651e+006    0.0000    0.0759    0.0000    0.0000    0.0761
                1.0261  -7.3676e-004   2.8853e-004   6.4100e-004  -2.0667e+007  -9.3958e+004   4.4870e+006    0.0000    0.0970    0.0000    0.0000    0.0748
                1.4328  -8.9375e-004   3.5000e-004   6.0858e-004  -2.5071e+007  -1.1416e+005   4.2601e+006    0.0000    0.1177    0.0000    0.0000    0.0710
                1.7855  -1.0308e-003   4.0367e-004   5.6566e-004  -2.8916e+007  -1.3180e+005   3.9596e+006    0.0000    0.1358    0.0000    0.0000    0.0660

               lamina:  2     
              matName:  (TEP-core)
                     s           e11           e22           e12           s11           s22           s12   s11_fcT   s11_fcC   s22_fcT   s22_fcC   s12_fcS
                   (m)         (m/m)         (m/m)         (rad)          (Pa)          (Pa)          (Pa)       (-)       (-)       (-)       (-)       (-)
                0.0000  -3.3734e-004   1.3213e-004   6.5252e-004  -8.5057e+004   8.8356e+003   1.3050e+004    0.0000    0.0000    0.0000   -0.0000    0.0000
                0.1907  -4.1241e-004   1.6152e-004   6.5216e-004  -1.0399e+005   1.0800e+004   1.3043e+004    0.0000    0.0000    0.0000   -0.0000    0.0000
                0.6096  -5.7492e-004   2.2515e-004   6.5216e-004  -1.4496e+005   1.5050e+004   1.3043e+004    0.0000    0.0000    0.0000   -0.0000    0.0000
                1.0261  -7.3525e-004   2.8793e-004   6.4100e-004  -1.8539e+005   1.9244e+004   1.2820e+004    0.0000    0.0000    0.0000   -0.0000    0.0000
                1.4328  -8.9225e-004   3.4940e-004   6.0858e-004  -2.2498e+005   2.3350e+004   1.2172e+004    0.0000    0.0000    0.0000   -0.0000    0.0000
                1.7855  -1.0293e-003   4.0308e-004   5.6566e-004  -2.5955e+005   2.6936e+004   1.1313e+004    0.0000    0.0000    0.0000   -0.0000    0.0000

               lamina:  3     
              matName:  (blade-shell)
                     s           e11           e22           e12           s11           s22           s12   s11_fcT   s11_fcC   s22_fcT   s22_fcC   s12_fcS
                   (m)         (m/m)         (m/m)         (rad)          (Pa)          (Pa)          (Pa)       (-)       (-)       (-)       (-)       (-)
                0.0000  -3.2311e-004   1.2647e-004   6.5252e-004  -9.0640e+006  -4.2213e+004   4.5676e+006    0.0000    0.0426    0.0000    0.0000    0.0761
                0.1907  -3.9783e-004   1.5573e-004   6.5216e-004  -1.1160e+007  -5.1841e+004   4.5651e+006    0.0000    0.0524    0.0000    0.0000    0.0761
                0.6096  -5.6005e-004   2.1924e-004   6.5216e-004  -1.5711e+007  -7.2721e+004   4.5651e+006    0.0000    0.0738    0.0000    0.0000    0.0761
                1.0261  -7.2032e-004   2.8199e-004   6.4100e-004  -2.0206e+007  -9.3341e+004   4.4870e+006    0.0000    0.0949    0.0000    0.0000    0.0748
                1.4328  -8.7751e-004   3.4354e-004   6.0858e-004  -2.4616e+007  -1.1355e+005   4.2601e+006    0.0000    0.1156    0.0000    0.0000    0.0710
                1.7855  -1.0147e-003   3.9727e-004   5.6566e-004  -2.8465e+007  -1.3120e+005   3.9596e+006    0.0000    0.1336    0.0000    0.0000    0.0660

            panel:  5     
           lam_num    nPlies        tPly      fibAng     matID  matName
               (-)       (-)         (m)       (deg)       (-)  (-)
                 1         1    0.005000      0.0000         2  (blade-shell)
                 2         1    0.049181      0.0000         6  (TEP-core)
                 3         1    0.005000      0.0000         2  (blade-shell)

               lamina:  1     
              matName:  (blade-shell)
                     s           e11           e22           e12           s11           s22           s12   s11_fcT   s11_fcC   s22_fcT   s22_fcC   s12_fcS
                   (m)         (m/m)         (m/m)         (rad)          (Pa)          (Pa)          (Pa)       (-)       (-)       (-)       (-)       (-)
                0.0000  -1.0308e-003   4.0367e-004   5.1349e-004  -2.8916e+007  -1.3180e+005   3.5944e+006    0.0000    0.1358    0.0000    0.0000    0.0599
                0.0391  -1.0458e-003   4.0952e-004   4.5998e-004  -2.9335e+007  -1.3375e+005   3.2199e+006    0.0000    0.1377    0.0000    0.0000    0.0537
                0.4099  -1.1916e-003   4.6660e-004   5.2250e-004  -3.3425e+007  -1.5253e+005   3.6575e+006    0.0000    0.1569    0.0000    0.0000    0.0610
                0.7556  -1.3296e-003   5.2066e-004   5.1609e-004  -3.7298e+007  -1.7033e+005   3.6126e+006    0.0000    0.1751    0.0000    0.0000    0.0602
                1.0724  -1.4586e-003   5.7115e-004   4.5059e-004  -4.0915e+007  -1.8700e+005   3.1541e+006    0.0000    0.1921    0.0000    0.0000    0.0526
                1.3562  -1.5774e-003   6.1768e-004   3.8168e-004  -4.4249e+007  -2.0237e+005   2.6717e+006    0.0000    0.2077    0.0000    0.0000    0.0445
                1.6062  -1.6844e-003   6.5955e-004   3.1177e-004  -4.7250e+007  -2.1623e+005   2.1824e+006    0.0000    0.2218    0.0000    0.0000    0.0364
                1.8211  -1.7783e-003   6.9630e-004   2.4351e-004  -4.9883e+007  -2.2842e+005   1.7046e+006    0.0000    0.2342    0.0000    0.0000    0.0284
                2.0001  -1.8576e-003   7.2734e-004   1.7885e-004  -5.2107e+007  -2.3875e+005   1.2519e+006    0.0000    0.2446    0.0000    0.0000    0.0209
                2.1427  -1.9211e-003   7.5221e-004   1.1981e-004  -5.3890e+007  -2.4706e+005   8.3866e+005    0.0000    0.2530    0.0000    0.0000    0.0140
                2.2476  -1.9679e-003   7.7050e-004   6.8106e-005  -5.5201e+007  -2.5319e+005   4.7674e+005    0.0000    0.2592    0.0000    0.0000    0.0079
                2.3042  -1.9971e-003   7.8197e-004   2.5255e-005  -5.6021e+007  -2.5664e+005   1.7679e+005    0.0000    0.2630    0.0000    0.0000    0.0029
                2.3141  -2.0068e-003   7.8582e-004   7.1804e-006  -5.6292e+007  -2.5702e+005   5.0263e+004    0.0000    0.2643    0.0000    0.0000    0.0008

               lamina:  2     
              matName:  (TEP-core)
                     s           e11           e22           e12           s11           s22           s12   s11_fcT   s11_fcC   s22_fcT   s22_fcC   s12_fcS
                   (m)         (m/m)         (m/m)         (rad)          (Pa)          (Pa)          (Pa)       (-)       (-)       (-)       (-)       (-)
                0.0000  -1.0293e-003   4.0308e-004   5.1349e-004  -2.5955e+005   2.6936e+004   1.0270e+004    0.0000    0.0000    0.0000   -0.0000    0.0000
                0.0391  -1.0443e-003   4.0895e-004   4.5998e-004  -2.6333e+005   2.7328e+004   9.1996e+003    0.0000    0.0000    0.0000   -0.0000    0.0000
                0.4099  -1.1902e-003   4.6605e-004   5.2250e-004  -3.0010e+005   3.1142e+004   1.0450e+004    0.0000    0.0000    0.0000   -0.0000    0.0000
                0.7556  -1.3283e-003   5.2014e-004   5.1609e-004  -3.3494e+005   3.4755e+004   1.0322e+004    0.0000    0.0000    0.0000   -0.0000    0.0000
                1.0724  -1.4574e-003   5.7068e-004   4.5059e-004  -3.6749e+005   3.8130e+004   9.0118e+003    0.0000    0.0000    0.0000   -0.0000    0.0000
                1.3562  -1.5764e-003   6.1727e-004   3.8168e-004  -3.9750e+005   4.1242e+004   7.6335e+003    0.0000    0.0000    0.0000   -0.0000    0.0000
                1.6062  -1.6836e-003   6.5922e-004   3.1177e-004  -4.2451e+005   4.4043e+004   6.2354e+003    0.0000    0.0000    0.0000   -0.0000    0.0000
                1.8211  -1.7777e-003   6.9605e-004   2.4351e-004  -4.4824e+005   4.6502e+004   4.8702e+003    0.0000    0.0000    0.0000   -0.0000    0.0000
                2.0001  -1.8572e-003   7.2719e-004   1.7885e-004  -4.6829e+005   4.8580e+004   3.5770e+003    0.0000    0.0000    0.0000   -0.0000    0.0000
                2.1427  -1.9210e-003   7.5216e-004   1.1981e-004  -4.8438e+005   5.0247e+004   2.3962e+003    0.0000    0.0000    0.0000   -0.0000    0.0000
                2.2476  -1.9689e-003   7.7091e-004   6.8106e-005  -4.9646e+005   5.1499e+004   1.3621e+003    0.0000    0.0000    0.0000   -0.0000    0.0000
                2.3042  -1.9966e-003   7.8178e-004   2.5255e-005  -5.0345e+005   5.2228e+004   5.0511e+002    0.0000    0.0000    0.0000   -0.0000    0.0000
                2.3141  -2.0047e-003   7.8498e-004   7.1804e-006  -5.0548e+005   5.2452e+004   1.4361e+002    0.0000    0.0000    0.0000   -0.0000    0.0000

               lamina:  3     
              matName:  (blade-shell)
                     s           e11           e22           e12           s11           s22           s12   s11_fcT   s11_fcC   s22_fcT   s22_fcC   s12_fcS
                   (m)         (m/m)         (m/m)         (rad)          (Pa)          (Pa)          (Pa)       (-)       (-)       (-)       (-)       (-)
                0.0000  -1.0147e-003   3.9727e-004   5.1349e-004  -2.8465e+007  -1.3120e+005   3.5944e+006    0.0000    0.1336    0.0000    0.0000    0.0599
                0.0391  -1.0302e-003   4.0332e-004   4.5998e-004  -2.8898e+007  -1.3317e+005   3.2199e+006    0.0000    0.1357    0.0000    0.0000    0.0537
                0.4099  -1.1764e-003   4.6058e-004   5.2250e-004  -3.3000e+007  -1.5196e+005   3.6575e+006    0.0000    0.1549    0.0000    0.0000    0.0610
                0.7556  -1.3154e-003   5.1501e-004   5.1609e-004  -3.6899e+007  -1.6980e+005   3.6126e+006    0.0000    0.1732    0.0000    0.0000    0.0602
                1.0724  -1.4458e-003   5.6607e-004   4.5059e-004  -4.0558e+007  -1.8652e+005   3.1541e+006    0.0000    0.1904    0.0000    0.0000    0.0526
                1.3562  -1.5664e-003   6.1330e-004   3.8168e-004  -4.3941e+007  -2.0196e+005   2.6717e+006    0.0000    0.2063    0.0000    0.0000    0.0445
                1.6062  -1.6754e-003   6.5597e-004   3.1177e-004  -4.6997e+007  -2.1589e+005   2.1824e+006    0.0000    0.2206    0.0000    0.0000    0.0364
                1.8211  -1.7716e-003   6.9364e-004   2.4351e-004  -4.9696e+007  -2.2817e+005   1.7046e+006    0.0000    0.2333    0.0000    0.0000    0.0284
                2.0001  -1.8534e-003   7.2568e-004   1.7885e-004  -5.1991e+007  -2.3859e+005   1.2519e+006    0.0000    0.2441    0.0000    0.0000    0.0209
                2.1427  -1.9198e-003   7.5167e-004   1.1981e-004  -5.3852e+007  -2.4701e+005   8.3866e+005    0.0000    0.2528    0.0000    0.0000    0.0140
                2.2476  -1.9690e-003   7.7096e-004   6.8106e-005  -5.5233e+007  -2.5323e+005   4.7674e+005    0.0000    0.2593    0.0000    0.0000    0.0079
                2.3042  -1.9918e-003   7.7985e-004   2.5255e-005  -5.5872e+007  -2.5644e+005   1.7679e+005    0.0000    0.2623    0.0000    0.0000    0.0029
                2.3141  -1.9841e-003   7.7679e-004   7.1804e-006  -5.5656e+007  -2.5617e+005   5.0263e+004    0.0000    0.2613    0.0000    0.0000    0.0008

     Web:  panel  nNode   nLam     xc_St    xc_End         b         t         E_eff         G_eff      nu_eff     density  buckleCrit
            (-)    (-)    (-)       (-)       (-)       (m)       (m)          (Pa)          (Pa)         (-)    (kg/m^3)         (-)
              1     10      3    0.2789    0.2789    2.4544    0.0830   7.6445e+008   4.5301e+008      0.4420    257.1084      0.0004
              2     10      3    0.4760    0.4760    2.0087    0.0830   7.6445e+008   4.5301e+008      0.4420    257.1084      0.0003
              3     10      3    0.6985    0.6985    0.9639    0.0830   7.6445e+008   4.5301e+008      0.4420    257.1084      0.0000

            panel:  1     
           lam_num    nPlies        tPly      fibAng     matID  matName
               (-)       (-)         (m)       (deg)       (-)  (-)
                 1         1    0.001500      0.0000         7  (web-shell)
                 2         1    0.080000      0.0000         8  (web-core)
                 3         1    0.001500      0.0000         7  (web-shell)

               lamina:  1     
              matName:  (web-shell)
                     s           e11           e22           e12           s11           s22           s12   s11_fcT   s11_fcC   s22_fcT   s22_fcC   s12_fcS
                   (m)         (m/m)         (m/m)         (rad)          (Pa)          (Pa)          (Pa)       (-)       (-)       (-)       (-)       (-)
                0.0000   4.7232e-004  -2.0793e-004   1.8169e-004   6.8759e+006   5.2686e+005   2.1803e+006    0.0477   -0.0000    0.0000   -0.0000    0.0242
                0.2727   4.5054e-004  -1.9831e-004   1.9031e-004   6.5591e+006   5.0328e+005   2.2837e+006    0.0455   -0.0000    0.0000   -0.0000    0.0254
                0.5454   4.2875e-004  -1.8868e-004   1.9854e-004   6.2424e+006   4.7971e+005   2.3825e+006    0.0433   -0.0000    0.0000   -0.0000    0.0265
                0.8181   4.0697e-004  -1.7905e-004   2.0639e-004   5.9256e+006   4.5614e+005   2.4767e+006    0.0412   -0.0000    0.0000   -0.0000    0.0275
                1.0908   3.8519e-004  -1.6942e-004   2.1385e-004   5.6089e+006   4.3257e+005   2.5662e+006    0.0390   -0.0000    0.0000   -0.0000    0.0285
                1.3635   3.6340e-004  -1.5979e-004   2.2092e-004   5.2921e+006   4.0899e+005   2.6511e+006    0.0368   -0.0000    0.0000   -0.0000    0.0295
                1.6362   3.4162e-004  -1.5016e-004   2.2761e-004   4.9754e+006   3.8542e+005   2.7313e+006    0.0346   -0.0000    0.0000   -0.0000    0.0303
                1.9089   3.1983e-004  -1.4053e-004   2.3391e-004   4.6586e+006   3.6185e+005   2.8069e+006    0.0324   -0.0000    0.0000   -0.0000    0.0312
                2.1817   2.9805e-004  -1.3090e-004   2.3982e-004   4.3419e+006   3.3828e+005   2.8778e+006    0.0302   -0.0000    0.0000   -0.0000    0.0320
                2.4544   2.7627e-004  -1.2127e-004   2.4535e-004   4.0251e+006   3.1470e+005   2.9442e+006    0.0280   -0.0000    0.0000   -0.0000    0.0327

               lamina:  2     
              matName:  (web-core)
                     s           e11           e22           e12           s11           s22           s12   s11_fcT   s11_fcC   s22_fcT   s22_fcC   s12_fcS
                   (m)         (m/m)         (m/m)         (rad)          (Pa)          (Pa)          (Pa)       (-)       (-)       (-)       (-)       (-)
                0.0000   5.2081e-004  -2.3106e-004   1.8169e-004   1.2900e+005  -2.1375e+004   3.6338e+003    0.0000   -0.0000    0.0000    0.0000    0.0000
                0.2727   4.9903e-004  -2.2143e-004   1.9031e-004   1.2360e+005  -2.0492e+004   3.8062e+003    0.0000   -0.0000    0.0000    0.0000    0.0000
                0.5454   4.7725e-004  -2.1180e-004   1.9854e-004   1.1820e+005  -1.9608e+004   3.9708e+003    0.0000   -0.0000    0.0000    0.0000    0.0000
                0.8181   4.5546e-004  -2.0217e-004   2.0639e-004   1.1280e+005  -1.8724e+004   4.1278e+003    0.0000   -0.0000    0.0000    0.0000    0.0000
                1.0908   4.3368e-004  -1.9254e-004   2.1385e-004   1.0740e+005  -1.7840e+004   4.2770e+003    0.0000   -0.0000    0.0000    0.0000    0.0000
                1.3635   4.1190e-004  -1.8291e-004   2.2092e-004   1.0201e+005  -1.6956e+004   4.4184e+003    0.0000   -0.0000    0.0000    0.0000    0.0000
                1.6362   3.9011e-004  -1.7328e-004   2.2761e-004   9.6608e+004  -1.6072e+004   4.5521e+003    0.0000   -0.0000    0.0000    0.0000    0.0000
                1.9089   3.6833e-004  -1.6366e-004   2.3391e-004   9.1209e+004  -1.5188e+004   4.6781e+003    0.0000   -0.0000    0.0000    0.0000    0.0000
                2.1817   3.4655e-004  -1.5403e-004   2.3982e-004   8.5811e+004  -1.4304e+004   4.7964e+003    0.0000   -0.0000    0.0000    0.0000    0.0000
                2.4544   3.2476e-004  -1.4440e-004   2.4535e-004   8.0412e+004  -1.3420e+004   4.9069e+003    0.0000   -0.0000    0.0000    0.0000    0.0000

               lamina:  3     
              matName:  (web-shell)
                     s           e11           e22           e12           s11           s22           s12   s11_fcT   s11_fcC   s22_fcT   s22_fcC   s12_fcS
                   (m)         (m/m)         (m/m)         (rad)          (Pa)          (Pa)          (Pa)       (-)       (-)       (-)       (-)       (-)
                0.0000   5.2172e-004  -2.3149e-004   1.8169e-004   7.5782e+006   5.4823e+005   2.1803e+006    0.0526   -0.0000    0.0000   -0.0000    0.0242
                0.2727   4.9994e-004  -2.2186e-004   1.9031e-004   7.2615e+006   5.2466e+005   2.2837e+006    0.0504   -0.0000    0.0000   -0.0000    0.0254
                0.5454   4.7816e-004  -2.1223e-004   1.9854e-004   6.9447e+006   5.0109e+005   2.3825e+006    0.0482   -0.0000    0.0000   -0.0000    0.0265
                0.8181   4.5637e-004  -2.0261e-004   2.0639e-004   6.6280e+006   4.7751e+005   2.4767e+006    0.0460   -0.0000    0.0000   -0.0000    0.0275
                1.0908   4.3459e-004  -1.9298e-004   2.1385e-004   6.3112e+006   4.5394e+005   2.5662e+006    0.0438   -0.0000    0.0000   -0.0000    0.0285
                1.3635   4.1281e-004  -1.8335e-004   2.2092e-004   5.9945e+006   4.3037e+005   2.6511e+006    0.0416   -0.0000    0.0000   -0.0000    0.0295
                1.6362   3.9102e-004  -1.7372e-004   2.2761e-004   5.6777e+006   4.0680e+005   2.7313e+006    0.0394   -0.0000    0.0000   -0.0000    0.0303
                1.9089   3.6924e-004  -1.6409e-004   2.3391e-004   5.3610e+006   3.8322e+005   2.8069e+006    0.0372   -0.0000    0.0000   -0.0000    0.0312
                2.1817   3.4746e-004  -1.5446e-004   2.3982e-004   5.0442e+006   3.5965e+005   2.8778e+006    0.0350   -0.0000    0.0000   -0.0000    0.0320
                2.4544   3.2567e-004  -1.4483e-004   2.4535e-004   4.7274e+006   3.3608e+005   2.9442e+006    0.0328   -0.0000    0.0000   -0.0000    0.0327

            panel:  2     
           lam_num    nPlies        tPly      fibAng     matID  matName
               (-)       (-)         (m)       (deg)       (-)  (-)
                 1         1    0.001500      0.0000         7  (web-shell)
                 2         1    0.080000      0.0000         8  (web-core)
                 3         1    0.001500      0.0000         7  (web-shell)

               lamina:  1     
              matName:  (web-shell)
                     s           e11           e22           e12           s11           s22           s12   s11_fcT   s11_fcC   s22_fcT   s22_fcC   s12_fcS
                   (m)         (m/m)         (m/m)         (rad)          (Pa)          (Pa)          (Pa)       (-)       (-)       (-)       (-)       (-)
                0.0000  -1.9346e-004   8.6389e-005   2.4300e-004  -2.8049e+006  -1.9299e+005   2.9160e+006    0.0000    0.0132    0.0000    0.0000    0.0324
                0.2232  -2.1068e-004   9.4001e-005   2.4043e-004  -3.0553e+006  -2.1162e+005   2.8851e+006    0.0000    0.0143    0.0000    0.0000    0.0321
                0.4464  -2.2790e-004   1.0161e-004   2.3761e-004  -3.3057e+006  -2.3026e+005   2.8513e+006    0.0000    0.0155    0.0000    0.0000    0.0317
                0.6696  -2.4512e-004   1.0923e-004   2.3454e-004  -3.5561e+006  -2.4889e+005   2.8145e+006    0.0000    0.0167    0.0000    0.0000    0.0313
                0.8927  -2.6234e-004   1.1684e-004   2.3122e-004  -3.8065e+006  -2.6753e+005   2.7747e+006    0.0000    0.0179    0.0000    0.0000    0.0308
                1.1159  -2.7956e-004   1.2445e-004   2.2765e-004  -4.0569e+006  -2.8616e+005   2.7318e+006    0.0000    0.0190    0.0000    0.0000    0.0304
                1.3391  -2.9678e-004   1.3206e-004   2.2383e-004  -4.3073e+006  -3.0480e+005   2.6860e+006    0.0000    0.0202    0.0000    0.0000    0.0298
                1.5623  -3.1400e-004   1.3967e-004   2.1977e-004  -4.5577e+006  -3.2343e+005   2.6372e+006    0.0000    0.0214    0.0000    0.0000    0.0293
                1.7855  -3.3122e-004   1.4729e-004   2.1545e-004  -4.8081e+006  -3.4207e+005   2.5854e+006    0.0000    0.0226    0.0000    0.0000    0.0287
                2.0087  -3.4844e-004   1.5490e-004   2.1088e-004  -5.0585e+006  -3.6070e+005   2.5305e+006    0.0000    0.0237    0.0000    0.0000    0.0281

               lamina:  2     
              matName:  (web-core)
                     s           e11           e22           e12           s11           s22           s12   s11_fcT   s11_fcC   s22_fcT   s22_fcC   s12_fcS
                   (m)         (m/m)         (m/m)         (rad)          (Pa)          (Pa)          (Pa)       (-)       (-)       (-)       (-)       (-)
                0.0000  -1.9255e-004   8.5955e-005   2.4300e-004  -4.7645e+004   8.0547e+003   4.8599e+003    0.0000    0.0000    0.0000   -0.0000    0.0000
                0.2232  -2.0977e-004   9.3567e-005   2.4043e-004  -5.1913e+004   8.7536e+003   4.8086e+003    0.0000    0.0000    0.0000   -0.0000    0.0000
                0.4464  -2.2699e-004   1.0118e-004   2.3761e-004  -5.6181e+004   9.4524e+003   4.7522e+003    0.0000    0.0000    0.0000   -0.0000    0.0000
                0.6696  -2.4421e-004   1.0879e-004   2.3454e-004  -6.0449e+004   1.0151e+004   4.6908e+003    0.0000    0.0000    0.0000   -0.0000    0.0000
                0.8927  -2.6143e-004   1.1640e-004   2.3122e-004  -6.4716e+004   1.0850e+004   4.6244e+003    0.0000    0.0000    0.0000   -0.0000    0.0000
                1.1159  -2.7865e-004   1.2402e-004   2.2765e-004  -6.8984e+004   1.1549e+004   4.5531e+003    0.0000    0.0000    0.0000   -0.0000    0.0000
                1.3391  -2.9587e-004   1.3163e-004   2.2383e-004  -7.3252e+004   1.2248e+004   4.4767e+003    0.0000    0.0000    0.0000   -0.0000    0.0000
                1.5623  -3.1309e-004   1.3924e-004   2.1977e-004  -7.7520e+004   1.2946e+004   4.3953e+003    0.0000    0.0000    0.0000   -0.0000    0.0000
                1.7855  -3.3031e-004   1.4685e-004   2.1545e-004  -8.1787e+004   1.3645e+004   4.3089e+003    0.0000    0.0000    0.0000   -0.0000    0.0000
                2.0087  -3.4753e-004   1.5446e-004   2.1088e-004  -8.6055e+004   1.4344e+004   4.2175e+003    0.0000    0.0000    0.0000   -0.0000    0.0000

               lamina:  3     
              matName:  (web-shell)
                     s           e11           e22           e12           s11           s22           s12   s11_fcT   s11_fcC   s22_fcT   s22_fcC   s12_fcS
                   (m)         (m/m)         (m/m)         (rad)          (Pa)          (Pa)          (Pa)       (-)       (-)       (-)       (-)       (-)
                0.0000  -1.4400e-004   6.2808e-005   2.4300e-004  -2.1018e+006  -1.7159e+005   2.9160e+006    0.0000    0.0099    0.0000    0.0000    0.0324
                0.2232  -1.6122e-004   7.0420e-005   2.4043e-004  -2.3522e+006  -1.9023e+005   2.8851e+006    0.0000    0.0110    0.0000    0.0000    0.0321
                0.4464  -1.7844e-004   7.8032e-005   2.3761e-004  -2.6026e+006  -2.0886e+005   2.8513e+006    0.0000    0.0122    0.0000    0.0000    0.0317
                0.6696  -1.9566e-004   8.5644e-005   2.3454e-004  -2.8530e+006  -2.2750e+005   2.8145e+006    0.0000    0.0134    0.0000    0.0000    0.0313
                0.8927  -2.1288e-004   9.3256e-005   2.3122e-004  -3.1034e+006  -2.4613e+005   2.7747e+006    0.0000    0.0146    0.0000    0.0000    0.0308
                1.1159  -2.3010e-004   1.0087e-004   2.2765e-004  -3.3538e+006  -2.6477e+005   2.7318e+006    0.0000    0.0157    0.0000    0.0000    0.0304
                1.3391  -2.4732e-004   1.0848e-004   2.2383e-004  -3.6042e+006  -2.8340e+005   2.6860e+006    0.0000    0.0169    0.0000    0.0000    0.0298
                1.5623  -2.6455e-004   1.1609e-004   2.1977e-004  -3.8547e+006  -3.0204e+005   2.6372e+006    0.0000    0.0181    0.0000    0.0000    0.0293
                1.7855  -2.8177e-004   1.2370e-004   2.1545e-004  -4.1051e+006  -3.2067e+005   2.5854e+006    0.0000    0.0193    0.0000    0.0000    0.0287
                2.0087  -2.9899e-004   1.3132e-004   2.1088e-004  -4.3555e+006  -3.3931e+005   2.5305e+006    0.0000    0.0204    0.0000    0.0000    0.0281

            panel:  3     
           lam_num    nPlies        tPly      fibAng     matID  matName
               (-)       (-)         (m)       (deg)       (-)  (-)
                 1         1    0.001500      0.0000         7  (web-shell)
                 2         1    0.080000      0.0000         8  (web-core)
                 3         1    0.001500      0.0000         7  (web-shell)

               lamina:  1     
              matName:  (web-shell)
                     s           e11           e22           e12           s11           s22           s12   s11_fcT   s11_fcC   s22_fcT   s22_fcC   s12_fcS
                   (m)         (m/m)         (m/m)         (rad)          (Pa)          (Pa)          (Pa)       (-)       (-)       (-)       (-)       (-)
                0.0000  -9.6659e-004   4.2814e-004   1.7939e-004  -1.4047e+007  -1.0296e+006   2.1527e+006    0.0000    0.0659    0.0000    0.0000    0.0239
                0.1071  -9.7475e-004   4.3175e-004   1.7280e-004  -1.4166e+007  -1.0384e+006   2.0736e+006    0.0000    0.0665    0.0000    0.0000    0.0230
                0.2142  -9.8292e-004   4.3535e-004   1.6615e-004  -1.4284e+007  -1.0473e+006   1.9938e+006    0.0000    0.0671    0.0000    0.0000    0.0222
                0.3213  -9.9108e-004   4.3896e-004   1.5945e-004  -1.4403e+007  -1.0561e+006   1.9134e+006    0.0000    0.0676    0.0000    0.0000    0.0213
                0.4284  -9.9925e-004   4.4257e-004   1.5269e-004  -1.4522e+007  -1.0649e+006   1.8323e+006    0.0000    0.0682    0.0000    0.0000    0.0204
                0.5355  -1.0074e-003   4.4618e-004   1.4587e-004  -1.4641e+007  -1.0738e+006   1.7505e+006    0.0000    0.0687    0.0000    0.0000    0.0194
                0.6426  -1.0156e-003   4.4979e-004   1.3900e-004  -1.4759e+007  -1.0826e+006   1.6680e+006    0.0000    0.0693    0.0000    0.0000    0.0185
                0.7497  -1.0237e-003   4.5340e-004   1.3207e-004  -1.4878e+007  -1.0915e+006   1.5848e+006    0.0000    0.0699    0.0000    0.0000    0.0176
                0.8568  -1.0319e-003   4.5701e-004   1.2508e-004  -1.4997e+007  -1.1003e+006   1.5009e+006    0.0000    0.0704    0.0000    0.0000    0.0167
                0.9639  -1.0401e-003   4.6062e-004   1.1803e-004  -1.5116e+007  -1.1091e+006   1.4164e+006    0.0000    0.0710    0.0000    0.0000    0.0157

               lamina:  2     
              matName:  (web-core)
                     s           e11           e22           e12           s11           s22           s12   s11_fcT   s11_fcC   s22_fcT   s22_fcC   s12_fcS
                   (m)         (m/m)         (m/m)         (rad)          (Pa)          (Pa)          (Pa)       (-)       (-)       (-)       (-)       (-)
                0.0000  -9.6568e-004   4.2770e-004   1.7939e-004  -2.3925e+005   3.9428e+004   3.5878e+003    0.0000    0.0000    0.0000   -0.0000    0.0000
                0.1071  -9.7384e-004   4.3131e-004   1.7280e-004  -2.4127e+005   3.9760e+004   3.4560e+003    0.0000    0.0000    0.0000   -0.0000    0.0000
                0.2142  -9.8201e-004   4.3492e-004   1.6615e-004  -2.4329e+005   4.0091e+004   3.3230e+003    0.0000    0.0000    0.0000   -0.0000    0.0000
                0.3213  -9.9017e-004   4.3853e-004   1.5945e-004  -2.4532e+005   4.0422e+004   3.1890e+003    0.0000    0.0000    0.0000   -0.0000    0.0000
                0.4284  -9.9834e-004   4.4214e-004   1.5269e-004  -2.4734e+005   4.0754e+004   3.0538e+003    0.0000    0.0000    0.0000   -0.0000    0.0000
                0.5355  -1.0065e-003   4.4575e-004   1.4587e-004  -2.4937e+005   4.1085e+004   2.9174e+003    0.0000    0.0000    0.0000   -0.0000    0.0000
                0.6426  -1.0147e-003   4.4936e-004   1.3900e-004  -2.5139e+005   4.1416e+004   2.7800e+003    0.0000    0.0000    0.0000   -0.0000    0.0000
                0.7497  -1.0228e-003   4.5297e-004   1.3207e-004  -2.5341e+005   4.1748e+004   2.6413e+003    0.0000    0.0000    0.0000   -0.0000    0.0000
                0.8568  -1.0310e-003   4.5658e-004   1.2508e-004  -2.5544e+005   4.2079e+004   2.5016e+003    0.0000    0.0000    0.0000   -0.0000    0.0000
                0.9639  -1.0392e-003   4.6018e-004   1.1803e-004  -2.5746e+005   4.2410e+004   2.3607e+003    0.0000    0.0000    0.0000   -0.0000    0.0000

               lamina:  3     
              matName:  (web-shell)
                     s           e11           e22           e12           s11           s22           s12   s11_fcT   s11_fcC   s22_fcT   s22_fcC   s12_fcS
                   (m)         (m/m)         (m/m)         (rad)          (Pa)          (Pa)          (Pa)       (-)       (-)       (-)       (-)       (-)
                0.0000  -9.1711e-004   4.0455e-004   1.7939e-004  -1.3344e+007  -1.0082e+006   2.1527e+006    0.0000    0.0626    0.0000    0.0000    0.0239
                0.1071  -9.2528e-004   4.0816e-004   1.7280e-004  -1.3462e+007  -1.0170e+006   2.0736e+006    0.0000    0.0632    0.0000    0.0000    0.0230
                0.2142  -9.3344e-004   4.1176e-004   1.6615e-004  -1.3581e+007  -1.0259e+006   1.9938e+006    0.0000    0.0638    0.0000    0.0000    0.0222
                0.3213  -9.4161e-004   4.1537e-004   1.5945e-004  -1.3700e+007  -1.0347e+006   1.9134e+006    0.0000    0.0643    0.0000    0.0000    0.0213
                0.4284  -9.4977e-004   4.1898e-004   1.5269e-004  -1.3819e+007  -1.0435e+006   1.8323e+006    0.0000    0.0649    0.0000    0.0000    0.0204
                0.5355  -9.5794e-004   4.2259e-004   1.4587e-004  -1.3937e+007  -1.0524e+006   1.7505e+006    0.0000    0.0654    0.0000    0.0000    0.0194
                0.6426  -9.6610e-004   4.2620e-004   1.3900e-004  -1.4056e+007  -1.0612e+006   1.6680e+006    0.0000    0.0660    0.0000    0.0000    0.0185
                0.7497  -9.7427e-004   4.2981e-004   1.3207e-004  -1.4175e+007  -1.0701e+006   1.5848e+006    0.0000    0.0665    0.0000    0.0000    0.0176
                0.8568  -9.8244e-004   4.3342e-004   1.2508e-004  -1.4294e+007  -1.0789e+006   1.5009e+006    0.0000    0.0671    0.0000    0.0000    0.0167
                0.9639  -9.9060e-004   4.3703e-004   1.1803e-004  -1.4412e+007  -1.0877e+006   1.4164e+006    0.0000    0.0677    0.0000    0.0000    0.0157

================================================================================
sec        =  19     
zSec       =  29.0000  (m)
nPanelsTop =  5      
nPanelsBot =  5      
nWebs      =  3      

    Top:  panel  nNode   nLam     xc_St    xc_End         b         t         E_eff         G_eff      nu_eff     density  buckleCrit
            (-)    (-)    (-)       (-)       (-)       (m)       (m)          (Pa)          (Pa)         (-)    (kg/m^3)         (-)
              1     12      3    0.0000    0.2752    2.3792    0.0700   4.2251e+009   1.0171e+009      0.3899    435.7143      0.0002
              2      6      5    0.2752    0.4748    1.4467    0.1370   4.0992e+010   3.2920e+009      0.2892   1914.8641      0.0000
              3      2      3    0.4748    0.4756    0.0062    0.0542   5.3814e+009   1.3081e+009      0.3923    504.4978      0.0000
              4      6      3    0.4756    0.6942    1.6244    0.0542   5.3814e+009   1.3081e+009      0.3923    504.4978      0.1056
              5     13      3    0.6942    1.0000    2.2975    0.0542   5.3814e+009   1.3081e+009      0.3923    504.4978      0.5834

            panel:  1     
           lam_num    nPlies        tPly      fibAng     matID  matName
               (-)       (-)         (m)       (deg)       (-)  (-)
                 1         1    0.005000      0.0000         2  (blade-shell)
                 2         1    0.060000      0.0000         5  (LEP-core)
                 3         1    0.005000      0.0000         2  (blade-shell)

               lamina:  1     
              matName:  (blade-shell)
                     s           e11           e22           e12           s11           s22           s12   s11_fcT   s11_fcC   s22_fcT   s22_fcC   s12_fcS
                   (m)         (m/m)         (m/m)         (rad)          (Pa)          (Pa)          (Pa)       (-)       (-)       (-)       (-)       (-)
                0.0000   1.2572e-003  -4.9027e-004   1.1452e-004   3.5277e+007   1.9172e+005   8.0165e+005    0.2450   -0.0000    0.0000   -0.0000    0.0134
                0.1169   1.2580e-003  -4.9061e-004   9.0364e-005   3.5302e+007   1.9187e+005   6.3255e+005    0.2452   -0.0000    0.0000   -0.0000    0.0105
                0.2552   1.2428e-003  -4.8466e-004   6.1921e-005   3.4874e+007   1.8963e+005   4.3344e+005    0.2422   -0.0000    0.0000   -0.0000    0.0072
                0.4123   1.2104e-003  -4.7203e-004   3.0223e-005   3.3966e+007   1.8482e+005   2.1156e+005    0.2359   -0.0000    0.0000   -0.0000    0.0035
                0.5964   1.1618e-003  -4.5305e-004   5.7363e-006   3.2601e+007   1.7748e+005   4.0154e+004    0.2264   -0.0000    0.0000   -0.0000    0.0007
                0.8064   1.0971e-003  -4.2782e-004   4.4821e-005   3.0786e+007   1.6769e+005   3.1375e+005    0.2138   -0.0000    0.0000   -0.0000    0.0052
                1.0407   1.0168e-003  -3.9650e-004   8.5667e-005   2.8532e+007   1.5548e+005   5.9967e+005    0.1981   -0.0000    0.0000   -0.0000    0.0100
                1.2984   9.2154e-004  -3.5935e-004   1.2687e-004   2.5859e+007   1.4097e+005   8.8812e+005    0.1796   -0.0000    0.0000   -0.0000    0.0148
                1.5785   8.1233e-004  -3.1676e-004   1.6697e-004   2.2795e+007   1.2431e+005   1.1688e+006    0.1583   -0.0000    0.0000   -0.0000    0.0195
                1.8783   6.8980e-004  -2.6898e-004   2.0417e-004   1.9357e+007   1.0560e+005   1.4292e+006    0.1344   -0.0000    0.0000   -0.0000    0.0238
                2.1976   5.5524e-004  -2.1651e-004   2.3702e-004   1.5581e+007   8.5014e+004   1.6591e+006    0.1082   -0.0000    0.0000   -0.0000    0.0277
                2.3792   4.7667e-004  -1.8587e-004   2.5251e-004   1.3376e+007   7.3016e+004   1.7676e+006    0.0929   -0.0000    0.0000   -0.0000    0.0295

               lamina:  2     
              matName:  (LEP-core)
                     s           e11           e22           e12           s11           s22           s12   s11_fcT   s11_fcC   s22_fcT   s22_fcC   s12_fcS
                   (m)         (m/m)         (m/m)         (rad)          (Pa)          (Pa)          (Pa)       (-)       (-)       (-)       (-)       (-)
                0.0000   1.2545e-003  -4.8922e-004   1.1452e-004   3.1650e+005  -3.2246e+004   2.2904e+003    0.0000   -0.0000    0.0000    0.0000    0.0000
                0.1169   1.2554e-003  -4.8957e-004   9.0364e-005   3.1673e+005  -3.2269e+004   1.8073e+003    0.0000   -0.0000    0.0000    0.0000    0.0000
                0.2552   1.2403e-003  -4.8368e-004   6.1921e-005   3.1292e+005  -3.1880e+004   1.2384e+003    0.0000   -0.0000    0.0000    0.0000    0.0000
                0.4123   1.2082e-003  -4.7114e-004   3.0223e-005   3.0482e+005  -3.1052e+004   6.0445e+002    0.0000   -0.0000    0.0000    0.0000    0.0000
                0.5964   1.1598e-003  -4.5225e-004   5.7363e-006   2.9260e+005  -2.9805e+004   1.1473e+002    0.0000   -0.0000    0.0000    0.0000    0.0000
                0.8064   1.0953e-003  -4.2710e-004   4.4821e-005   2.7633e+005  -2.8147e+004   8.9642e+002    0.0000   -0.0000    0.0000    0.0000    0.0000
                1.0407   1.0152e-003  -3.9588e-004   8.5667e-005   2.5613e+005  -2.6088e+004   1.7133e+003    0.0000   -0.0000    0.0000    0.0000    0.0000
                1.2984   9.2018e-004  -3.5881e-004   1.2687e-004   2.3215e+005  -2.3645e+004   2.5375e+003    0.0000   -0.0000    0.0000    0.0000    0.0000
                1.5785   8.1119e-004  -3.1631e-004   1.6697e-004   2.0466e+005  -2.0844e+004   3.3394e+003    0.0000   -0.0000    0.0000    0.0000    0.0000
                1.8783   6.8890e-004  -2.6862e-004   2.0417e-004   1.7380e+005  -1.7701e+004   4.0833e+003    0.0000   -0.0000    0.0000    0.0000    0.0000
                2.1976   5.5453e-004  -2.1623e-004   2.3702e-004   1.3990e+005  -1.4248e+004   4.7404e+003    0.0000   -0.0000    0.0000    0.0000    0.0000
                2.3792   4.7610e-004  -1.8564e-004   2.5251e-004   1.2012e+005  -1.2233e+004   5.0502e+003    0.0000   -0.0000    0.0000    0.0000    0.0000

               lamina:  3     
              matName:  (blade-shell)
                     s           e11           e22           e12           s11           s22           s12   s11_fcT   s11_fcC   s22_fcT   s22_fcC   s12_fcS
                   (m)         (m/m)         (m/m)         (rad)          (Pa)          (Pa)          (Pa)       (-)       (-)       (-)       (-)       (-)
                0.0000   1.2229e-003  -4.7669e-004   1.1452e-004   3.4319e+007   1.9011e+005   8.0165e+005    0.2383   -0.0000    0.0000   -0.0000    0.0134
                0.1169   1.2241e-003  -4.7713e-004   9.0364e-005   3.4350e+007   1.9027e+005   6.3255e+005    0.2385   -0.0000    0.0000   -0.0000    0.0105
                0.2552   1.2107e-003  -4.7194e-004   6.1921e-005   3.3976e+007   1.8813e+005   4.3344e+005    0.2359   -0.0000    0.0000   -0.0000    0.0072
                0.4123   1.1813e-003  -4.6046e-004   3.0223e-005   3.3149e+007   1.8344e+005   2.1156e+005    0.2302   -0.0000    0.0000   -0.0000    0.0035
                0.5964   1.1355e-003  -4.4262e-004   5.7363e-006   3.1865e+007   1.7625e+005   4.0154e+004    0.2213   -0.0000    0.0000   -0.0000    0.0007
                0.8064   1.0737e-003  -4.1855e-004   4.4821e-005   3.0131e+007   1.6659e+005   3.1375e+005    0.2092   -0.0000    0.0000   -0.0000    0.0052
                1.0407   9.9638e-004  -3.8840e-004   8.5667e-005   2.7960e+007   1.5452e+005   5.9967e+005    0.1942   -0.0000    0.0000   -0.0000    0.0100
                1.2984   9.0391e-004  -3.5236e-004   1.2687e-004   2.5366e+007   1.4014e+005   8.8812e+005    0.1762   -0.0000    0.0000   -0.0000    0.0148
                1.5785   7.9757e-004  -3.1090e-004   1.6697e-004   2.2381e+007   1.2361e+005   1.1688e+006    0.1554   -0.0000    0.0000   -0.0000    0.0195
                1.8783   6.7807e-004  -2.6432e-004   2.0417e-004   1.9028e+007   1.0505e+005   1.4292e+006    0.1321   -0.0000    0.0000   -0.0000    0.0238
                2.1976   5.4600e-004  -2.1284e-004   2.3702e-004   1.5322e+007   8.4579e+004   1.6591e+006    0.1064   -0.0000    0.0000   -0.0000    0.0277
                2.3792   4.6928e-004  -1.8294e-004   2.5251e-004   1.3169e+007   7.2668e+004   1.7676e+006    0.0915   -0.0000    0.0000   -0.0000    0.0295

            panel:  2     
           lam_num    nPlies        tPly      fibAng     matID  matName
               (-)       (-)         (m)       (deg)       (-)  (-)
                 1         1    0.005000      0.0000         2  (blade-shell)
                 2         1    0.063482      0.0000         3  (spar-uni)
                 3         1    0.000002      0.0000         4  (spar-core)
                 4         1    0.063482      0.0000         3  (spar-uni)
                 5         1    0.005000      0.0000         2  (blade-shell)

               lamina:  1     
              matName:  (blade-shell)
                     s           e11           e22           e12           s11           s22           s12   s11_fcT   s11_fcC   s22_fcT   s22_fcC   s12_fcS
                   (m)         (m/m)         (m/m)         (rad)          (Pa)          (Pa)          (Pa)       (-)       (-)       (-)       (-)       (-)
                0.0000   4.8984e-004  -1.4201e-004   2.5082e-005   1.4044e+007   8.2061e+005   1.7557e+005    0.0975   -0.0000    0.0000   -0.0000    0.0029
                0.1528   4.2008e-004  -1.2176e-004   5.8459e-005   1.2044e+007   7.0415e+005   4.0921e+005    0.0836   -0.0000    0.0000   -0.0000    0.0068
                0.5056   2.6320e-004  -7.6315e-005   1.1630e-004   7.5459e+006   4.4077e+005   8.1413e+005    0.0524   -0.0000    0.0000   -0.0000    0.0136
                0.8718   9.9649e-005  -2.8943e-005   1.4779e-004   2.8566e+006   1.6613e+005   1.0345e+006    0.0198   -0.0000    0.0000   -0.0000    0.0172
                1.2487  -6.8351e-005   1.9704e-005   1.4967e-004  -1.9603e+006  -1.1620e+005   1.0477e+006    0.0000    0.0092    0.0000    0.0000    0.0175
                1.4467  -1.5695e-004   4.5364e-005   1.3823e-004  -4.5007e+006  -2.6504e+005   9.6759e+005    0.0000    0.0211    0.0000    0.0000    0.0161

               lamina:  2     
              matName:  (spar-uni)
                     s           e11           e22           e12           s11           s22           s12   s11_fcT   s11_fcC   s22_fcT   s22_fcC   s12_fcS
                   (m)         (m/m)         (m/m)         (rad)          (Pa)          (Pa)          (Pa)       (-)       (-)       (-)       (-)       (-)
                0.0000   4.8835e-004  -1.4156e-004   2.5082e-005   2.0492e+007  -6.9246e+004   7.5246e+004    0.0211   -0.0000    0.0000    0.0000    0.0025
                0.1528   4.1893e-004  -1.2141e-004   5.8459e-005   1.7579e+007  -5.9051e+004   1.7538e+005    0.0181   -0.0000    0.0000    0.0000    0.0058
                0.5056   2.6236e-004  -7.6057e-005   1.1630e-004   1.1009e+007  -3.7342e+004   3.4891e+005    0.0113   -0.0000    0.0000    0.0000    0.0116
                0.8718   9.9109e-005  -2.8778e-005   1.4779e-004   4.1584e+006  -1.4765e+004   4.4337e+005    0.0043   -0.0000    0.0000    0.0000    0.0148
                1.2487  -7.2355e-005   2.0928e-005   1.4967e-004  -3.0362e+006   9.6058e+003   4.4901e+005    0.0000    0.0043    0.0000   -0.0000    0.0150
                1.4467  -1.5893e-004   4.5967e-005   1.3823e-004  -6.6690e+006   2.1099e+004   4.1468e+005    0.0000    0.0095    0.0000   -0.0000    0.0138

               lamina:  3     
              matName:  (spar-core)
                     s           e11           e22           e12           s11           s22           s12   s11_fcT   s11_fcC   s22_fcT   s22_fcC   s12_fcS
                   (m)         (m/m)         (m/m)         (rad)          (Pa)          (Pa)          (Pa)       (-)       (-)       (-)       (-)       (-)
                0.0000   4.6953e-004  -1.3580e-004   2.5082e-005   1.2251e+005   1.4441e+003   5.0164e+002    0.0000   -0.0000    0.0000   -0.0000    0.0000
                0.1528   4.0427e-004  -1.1693e-004   5.8459e-005   1.0548e+005   1.2434e+003   1.1692e+003    0.0000   -0.0000    0.0000   -0.0000    0.0000
                0.5056   2.5164e-004  -7.2783e-005   1.1630e-004   6.5659e+004   7.7398e+002   2.3261e+003    0.0000   -0.0000    0.0000   -0.0000    0.0000
                0.8718   9.2251e-005  -2.6682e-005   1.4779e-004   2.4070e+004   2.8374e+002   2.9558e+003    0.0000   -0.0000    0.0000   -0.0000    0.0000
                1.2487  -7.2355e-005   2.0928e-005   1.4967e-004  -1.8879e+004  -2.2255e+002   2.9934e+003    0.0000    0.0000    0.0000    0.0000    0.0000
                1.4467  -1.5893e-004   4.5967e-005   1.3823e-004  -4.1468e+004  -4.8882e+002   2.7645e+003    0.0000    0.0000    0.0000    0.0000    0.0000

               lamina:  4     
              matName:  (spar-uni)
                     s           e11           e22           e12           s11           s22           s12   s11_fcT   s11_fcC   s22_fcT   s22_fcC   s12_fcS
                   (m)         (m/m)         (m/m)         (rad)          (Pa)          (Pa)          (Pa)       (-)       (-)       (-)       (-)       (-)
                0.0000   4.6953e-004  -1.3580e-004   2.5082e-005   1.9703e+007  -6.2333e+004   7.5246e+004    0.0203   -0.0000    0.0000    0.0000    0.0025
                0.1528   4.0427e-004  -1.1693e-004   5.8459e-005   1.6964e+007  -5.3671e+004   1.7538e+005    0.0175   -0.0000    0.0000    0.0000    0.0058
                0.5056   2.5164e-004  -7.2783e-005   1.1630e-004   1.0560e+007  -3.3407e+004   3.4891e+005    0.0109   -0.0000    0.0000    0.0000    0.0116
                0.8718   9.2251e-005  -2.6682e-005   1.4779e-004   3.8711e+006  -1.2247e+004   4.4337e+005    0.0040   -0.0000    0.0000    0.0000    0.0148
                1.2487  -7.6359e-005   2.2151e-005   1.4967e-004  -3.2040e+006   1.1076e+004   4.4901e+005    0.0000    0.0046    0.0000   -0.0000    0.0150
                1.4467  -1.6090e-004   4.6570e-005   1.3823e-004  -6.7517e+006   2.1823e+004   4.1468e+005    0.0000    0.0096    0.0000   -0.0000    0.0138

               lamina:  5     
              matName:  (blade-shell)
                     s           e11           e22           e12           s11           s22           s12   s11_fcT   s11_fcC   s22_fcT   s22_fcC   s12_fcS
                   (m)         (m/m)         (m/m)         (rad)          (Pa)          (Pa)          (Pa)       (-)       (-)       (-)       (-)       (-)
                0.0000   4.5070e-004  -1.3005e-004   2.5082e-005   1.2925e+007   7.6435e+005   1.7557e+005    0.0898   -0.0000    0.0000   -0.0000    0.0029
                0.1528   3.8962e-004  -1.1245e-004   5.8459e-005   1.1173e+007   6.6036e+005   4.0921e+005    0.0776   -0.0000    0.0000   -0.0000    0.0068
                0.5056   2.4092e-004  -6.9509e-005   1.1630e-004   6.9093e+006   4.0875e+005   8.1413e+005    0.0480   -0.0000    0.0000   -0.0000    0.0136
                0.8718   8.5393e-005  -2.4587e-005   1.4779e-004   2.4493e+006   1.4564e+005   1.0345e+006    0.0170   -0.0000    0.0000   -0.0000    0.0172
                1.2487  -7.6675e-005   2.2247e-005   1.4967e-004  -2.1982e+006  -1.2817e+005   1.0477e+006    0.0000    0.0103    0.0000    0.0000    0.0175
                1.4467  -1.6105e-004   4.6617e-005   1.3823e-004  -4.6179e+006  -2.7094e+005   9.6759e+005    0.0000    0.0217    0.0000    0.0000    0.0161

            panel:  3     
           lam_num    nPlies        tPly      fibAng     matID  matName
               (-)       (-)         (m)       (deg)       (-)  (-)
                 1         1    0.005000      0.0000         2  (blade-shell)
                 2         1    0.044188      0.0000         6  (TEP-core)
                 3         1    0.005000      0.0000         2  (blade-shell)

               lamina:  1     
              matName:  (blade-shell)
                     s           e11           e22           e12           s11           s22           s12   s11_fcT   s11_fcC   s22_fcT   s22_fcC   s12_fcS
                   (m)         (m/m)         (m/m)         (rad)          (Pa)          (Pa)          (Pa)       (-)       (-)       (-)       (-)       (-)
                0.0000  -1.5824e-004   6.2084e-005   8.7926e-004  -4.4382e+006  -1.8471e+004   6.1549e+006    0.0000    0.0208    0.0000    0.0000    0.1026
                0.0062  -1.6097e-004   6.3155e-005   8.7910e-004  -4.5148e+006  -1.8789e+004   6.1537e+006    0.0000    0.0212    0.0000    0.0000    0.1026

               lamina:  2     
              matName:  (TEP-core)
                     s           e11           e22           e12           s11           s22           s12   s11_fcT   s11_fcC   s22_fcT   s22_fcC   s12_fcS
                   (m)         (m/m)         (m/m)         (rad)          (Pa)          (Pa)          (Pa)       (-)       (-)       (-)       (-)       (-)
                0.0000  -1.5879e-004   6.2301e-005   8.7926e-004  -4.0028e+004   4.1897e+003   1.7585e+004    0.0000    0.0000    0.0000   -0.0000    0.0000
                0.0062  -1.6152e-004   6.3372e-005   8.7910e-004  -4.0716e+004   4.2617e+003   1.7582e+004    0.0000    0.0000    0.0000   -0.0000    0.0000

               lamina:  3     
              matName:  (blade-shell)
                     s           e11           e22           e12           s11           s22           s12   s11_fcT   s11_fcC   s22_fcT   s22_fcC   s12_fcS
                   (m)         (m/m)         (m/m)         (rad)          (Pa)          (Pa)          (Pa)       (-)       (-)       (-)       (-)       (-)
                0.0000  -1.5885e-004   6.2325e-005   8.7926e-004  -4.4552e+006  -1.8491e+004   6.1549e+006    0.0000    0.0209    0.0000    0.0000    0.1026
                0.0062  -1.6158e-004   6.3396e-005   8.7910e-004  -4.5318e+006  -1.8809e+004   6.1537e+006    0.0000    0.0213    0.0000    0.0000    0.1026

            panel:  4     
           lam_num    nPlies        tPly      fibAng     matID  matName
               (-)       (-)         (m)       (deg)       (-)  (-)
                 1         1    0.005000      0.0000         2  (blade-shell)
                 2         1    0.044188      0.0000         6  (TEP-core)
                 3         1    0.005000      0.0000         2  (blade-shell)

               lamina:  1     
              matName:  (blade-shell)
                     s           e11           e22           e12           s11           s22           s12   s11_fcT   s11_fcC   s22_fcT   s22_fcC   s12_fcS
                   (m)         (m/m)         (m/m)         (rad)          (Pa)          (Pa)          (Pa)       (-)       (-)       (-)       (-)       (-)
                0.0000  -1.6097e-004   6.3155e-005   7.6219e-004  -4.5148e+006  -1.8789e+004   5.3353e+006    0.0000    0.0212    0.0000    0.0000    0.0889
                0.1790  -2.3949e-004   9.3962e-005   7.6202e-004  -6.7169e+006  -2.7923e+004   5.3341e+006    0.0000    0.0315    0.0000    0.0000    0.0889
                0.5657  -4.0891e-004   1.6043e-004   7.6202e-004  -1.1469e+007  -4.7651e+004   5.3341e+006    0.0000    0.0538    0.0000    0.0000    0.0889
                0.9498  -5.7715e-004   2.2644e-004   7.5610e-004  -1.6187e+007  -6.7239e+004   5.2927e+006    0.0000    0.0760    0.0000    0.0000    0.0882
                1.3271  -7.4226e-004   2.9122e-004   7.3540e-004  -2.0818e+007  -8.6469e+004   5.1478e+006    0.0000    0.0977    0.0000    0.0000    0.0858
                1.6244  -8.7215e-004   3.4218e-004   7.0415e-004  -2.4461e+007  -1.0160e+005   4.9290e+006    0.0000    0.1148    0.0000    0.0000    0.0822

               lamina:  2     
              matName:  (TEP-core)
                     s           e11           e22           e12           s11           s22           s12   s11_fcT   s11_fcC   s22_fcT   s22_fcC   s12_fcS
                   (m)         (m/m)         (m/m)         (rad)          (Pa)          (Pa)          (Pa)       (-)       (-)       (-)       (-)       (-)
                0.0000  -1.6152e-004   6.3372e-005   7.6219e-004  -4.0716e+004   4.2617e+003   1.5244e+004    0.0000    0.0000    0.0000   -0.0000    0.0000
                0.1790  -2.3958e-004   9.3997e-005   7.6202e-004  -6.0395e+004   6.3208e+003   1.5240e+004    0.0000    0.0000    0.0000   -0.0000    0.0000
                0.5657  -4.0887e-004   1.6042e-004   7.6202e-004  -1.0307e+005   1.0787e+004   1.5240e+004    0.0000    0.0000    0.0000   -0.0000    0.0000
                0.9498  -5.7705e-004   2.2640e-004   7.5610e-004  -1.4547e+005   1.5225e+004   1.5122e+004    0.0000    0.0000    0.0000   -0.0000    0.0000
                1.3271  -7.4212e-004   2.9117e-004   7.3540e-004  -1.8708e+005   1.9580e+004   1.4708e+004    0.0000    0.0000    0.0000   -0.0000    0.0000
                1.6244  -8.7200e-004   3.4212e-004   7.0415e-004  -2.1982e+005   2.3007e+004   1.4083e+004    0.0000    0.0000    0.0000   -0.0000    0.0000

               lamina:  3     
              matName:  (blade-shell)
                     s           e11           e22           e12           s11           s22           s12   s11_fcT   s11_fcC   s22_fcT   s22_fcC   s12_fcS
                   (m)         (m/m)         (m/m)         (rad)          (Pa)          (Pa)          (Pa)       (-)       (-)       (-)       (-)       (-)
                0.0000  -1.6158e-004   6.3396e-005   7.6219e-004  -4.5318e+006  -1.8809e+004   5.3353e+006    0.0000    0.0213    0.0000    0.0000    0.0889
                0.1790  -2.3959e-004   9.4001e-005   7.6202e-004  -6.7197e+006  -2.7926e+004   5.3341e+006    0.0000    0.0315    0.0000    0.0000    0.0889
                0.5657  -4.0849e-004   1.6026e-004   7.6202e-004  -1.1457e+007  -4.7637e+004   5.3341e+006    0.0000    0.0538    0.0000    0.0000    0.0889
                0.9498  -5.7618e-004   2.2606e-004   7.5610e-004  -1.6160e+007  -6.7207e+004   5.2927e+006    0.0000    0.0759    0.0000    0.0000    0.0882
                1.3271  -7.4090e-004   2.9068e-004   7.3540e-004  -2.0780e+007  -8.6424e+004   5.1478e+006    0.0000    0.0976    0.0000    0.0000    0.0858
                1.6244  -8.7064e-004   3.4158e-004   7.0415e-004  -2.4418e+007  -1.0155e+005   4.9290e+006    0.0000    0.1146    0.0000    0.0000    0.0822

            panel:  5     
           lam_num    nPlies        tPly      fibAng     matID  matName
               (-)       (-)         (m)       (deg)       (-)  (-)
                 1         1    0.005000      0.0000         2  (blade-shell)
                 2         1    0.044188      0.0000         6  (TEP-core)
                 3         1    0.005000      0.0000         2  (blade-shell)

               lamina:  1     
              matName:  (blade-shell)
                     s           e11           e22           e12           s11           s22           s12   s11_fcT   s11_fcC   s22_fcT   s22_fcC   s12_fcS
                   (m)         (m/m)         (m/m)         (rad)          (Pa)          (Pa)          (Pa)       (-)       (-)       (-)       (-)       (-)
                0.0000  -8.7215e-004   3.4218e-004   6.6307e-004  -2.4461e+007  -1.0160e+005   4.6415e+006    0.0000    0.1148    0.0000    0.0000    0.0774
                0.0683  -9.0216e-004   3.5396e-004   6.2349e-004  -2.5302e+007  -1.0509e+005   4.3644e+006    0.0000    0.1188    0.0000    0.0000    0.0727
                0.4187  -1.0551e-003   4.1397e-004   5.4057e-004  -2.9592e+007  -1.2291e+005   3.7840e+006    0.0000    0.1389    0.0000    0.0000    0.0631
                0.7488  -1.1992e-003   4.7049e-004   5.3057e-004  -3.3633e+007  -1.3971e+005   3.7140e+006    0.0000    0.1579    0.0000    0.0000    0.0619
                1.0551  -1.3328e-003   5.2291e-004   4.7399e-004  -3.7380e+007  -1.5528e+005   3.3179e+006    0.0000    0.1755    0.0000    0.0000    0.0553
                1.3339  -1.4544e-003   5.7061e-004   4.1260e-004  -4.0790e+007  -1.6945e+005   2.8882e+006    0.0000    0.1915    0.0000    0.0000    0.0481
                1.5821  -1.5626e-003   6.1307e-004   3.4861e-004  -4.3825e+007  -1.8207e+005   2.4403e+006    0.0000    0.2058    0.0000    0.0000    0.0407
                1.7967  -1.6562e-003   6.4981e-004   2.8449e-004  -4.6451e+007  -1.9298e+005   1.9915e+006    0.0000    0.2181    0.0000    0.0000    0.0332
                1.9759  -1.7344e-003   6.8048e-004   2.2271e-004  -4.8644e+007  -2.0209e+005   1.5590e+006    0.0000    0.2284    0.0000    0.0000    0.0260
                2.1175  -1.7961e-003   7.0470e-004   1.6570e-004  -5.0376e+007  -2.0928e+005   1.1599e+006    0.0000    0.2365    0.0000    0.0000    0.0193
                2.2200  -1.8408e-003   7.2221e-004   1.1557e-004  -5.1627e+007  -2.1448e+005   8.0899e+005    0.0000    0.2424    0.0000    0.0000    0.0135
                2.2760  -1.8683e-003   7.3303e-004   7.4318e-005  -5.2400e+007  -2.1743e+005   5.2023e+005    0.0000    0.2460    0.0000    0.0000    0.0087
                2.2975  -1.8800e-003   7.3765e-004   4.3562e-005  -5.2727e+007  -2.1834e+005   3.0493e+005    0.0000    0.2475    0.0000    0.0000    0.0051

               lamina:  2     
              matName:  (TEP-core)
                     s           e11           e22           e12           s11           s22           s12   s11_fcT   s11_fcC   s22_fcT   s22_fcC   s12_fcS
                   (m)         (m/m)         (m/m)         (rad)          (Pa)          (Pa)          (Pa)       (-)       (-)       (-)       (-)       (-)
                0.0000  -8.7200e-004   3.4212e-004   6.6307e-004  -2.1982e+005   2.3007e+004   1.3261e+004    0.0000    0.0000    0.0000   -0.0000    0.0000
                0.0683  -9.0197e-004   3.5388e-004   6.2349e-004  -2.2737e+005   2.3798e+004   1.2470e+004    0.0000    0.0000    0.0000   -0.0000    0.0000
                0.4187  -1.0549e-003   4.1389e-004   5.4057e-004  -2.6593e+005   2.7833e+004   1.0811e+004    0.0000    0.0000    0.0000   -0.0000    0.0000
                0.7488  -1.1990e-003   4.7041e-004   5.3057e-004  -3.0224e+005   3.1633e+004   1.0611e+004    0.0000    0.0000    0.0000   -0.0000    0.0000
                1.0551  -1.3326e-003   5.2283e-004   4.7399e-004  -3.3592e+005   3.5158e+004   9.4798e+003    0.0000    0.0000    0.0000   -0.0000    0.0000
                1.3339  -1.4542e-003   5.7053e-004   4.1260e-004  -3.6657e+005   3.8366e+004   8.2519e+003    0.0000    0.0000    0.0000   -0.0000    0.0000
                1.5821  -1.5624e-003   6.1298e-004   3.4861e-004  -3.9385e+005   4.1221e+004   6.9723e+003    0.0000    0.0000    0.0000   -0.0000    0.0000
                1.7967  -1.6560e-003   6.4972e-004   2.8449e-004  -4.1745e+005   4.3691e+004   5.6899e+003    0.0000    0.0000    0.0000   -0.0000    0.0000
                1.9759  -1.7342e-003   6.8038e-004   2.2271e-004  -4.3715e+005   4.5753e+004   4.4542e+003    0.0000    0.0000    0.0000   -0.0000    0.0000
                2.1175  -1.7959e-003   7.0460e-004   1.6570e-004  -4.5272e+005   4.7382e+004   3.3140e+003    0.0000    0.0000    0.0000   -0.0000    0.0000
                2.2200  -1.8405e-003   7.2211e-004   1.1557e-004  -4.6397e+005   4.8559e+004   2.3114e+003    0.0000    0.0000    0.0000   -0.0000    0.0000
                2.2760  -1.8675e-003   7.3271e-004   7.4318e-005  -4.7077e+005   4.9275e+004   1.4864e+003    0.0000    0.0000    0.0000   -0.0000    0.0000
                2.2975  -1.8782e-003   7.3692e-004   4.3562e-005  -4.7346e+005   4.9564e+004   8.7124e+002    0.0000    0.0000    0.0000   -0.0000    0.0000

               lamina:  3     
              matName:  (blade-shell)
                     s           e11           e22           e12           s11           s22           s12   s11_fcT   s11_fcC   s22_fcT   s22_fcC   s12_fcS
                   (m)         (m/m)         (m/m)         (rad)          (Pa)          (Pa)          (Pa)       (-)       (-)       (-)       (-)       (-)
                0.0000  -8.7064e-004   3.4158e-004   6.6307e-004  -2.4418e+007  -1.0155e+005   4.6415e+006    0.0000    0.1146    0.0000    0.0000    0.0774
                0.0683  -9.0035e-004   3.5324e-004   6.2349e-004  -2.5252e+007  -1.0503e+005   4.3644e+006    0.0000    0.1186    0.0000    0.0000    0.0727
                0.4187  -1.0532e-003   4.1320e-004   5.4057e-004  -2.9539e+007  -1.2285e+005   3.7840e+006    0.0000    0.1387    0.0000    0.0000    0.0631
                0.7488  -1.1972e-003   4.6969e-004   5.3057e-004  -3.3576e+007  -1.3964e+005   3.7140e+006    0.0000    0.1576    0.0000    0.0000    0.0619
                1.0551  -1.3307e-003   5.2207e-004   4.7399e-004  -3.7321e+007  -1.5521e+005   3.3179e+006    0.0000    0.1752    0.0000    0.0000    0.0553
                1.3339  -1.4523e-003   5.6977e-004   4.1260e-004  -4.0731e+007  -1.6938e+005   2.8882e+006    0.0000    0.1912    0.0000    0.0000    0.0481
                1.5821  -1.5605e-003   6.1223e-004   3.4861e-004  -4.3766e+007  -1.8200e+005   2.4403e+006    0.0000    0.2055    0.0000    0.0000    0.0407
                1.7967  -1.6540e-003   6.4894e-004   2.8449e-004  -4.6390e+007  -1.9291e+005   1.9915e+006    0.0000    0.2178    0.0000    0.0000    0.0332
                1.9759  -1.7321e-003   6.7955e-004   2.2271e-004  -4.8579e+007  -2.0201e+005   1.5590e+006    0.0000    0.2281    0.0000    0.0000    0.0260
                2.1175  -1.7937e-003   7.0373e-004   1.6570e-004  -5.0307e+007  -2.0920e+005   1.1599e+006    0.0000    0.2362    0.0000    0.0000    0.0193
                2.2200  -1.8383e-003   7.2125e-004   1.1557e-004  -5.1559e+007  -2.1440e+005   8.0899e+005    0.0000    0.2421    0.0000    0.0000    0.0135
                2.2760  -1.8603e-003   7.2983e-004   7.4318e-005  -5.2174e+007  -2.1717e+005   5.2023e+005    0.0000    0.2449    0.0000    0.0000    0.0087
                2.2975  -1.8621e-003   7.3053e-004   4.3562e-005  -5.2226e+007  -2.1775e+005   3.0493e+005    0.0000    0.2452    0.0000    0.0000    0.0051

  Bottom:  panel  nNode   nLam     xc_St    xc_End         b         t         E_eff         G_eff      nu_eff     density  buckleCrit
            (-)    (-)    (-)       (-)       (-)       (m)       (m)          (Pa)          (Pa)         (-)    (kg/m^3)         (-)
              1     12      3    0.0000    0.2752    2.5076    0.0700   4.2251e+009   1.0171e+009      0.3899    435.7143      0.0010
              2      6      5    0.2752    0.4748    1.4695    0.1370   4.0992e+010   3.2920e+009      0.2892   1914.8641      0.0000
              3      2      3    0.4748    0.4756    0.0066    0.0542   5.3814e+009   1.3081e+009      0.3923    504.4978      0.0000
              4      6      3    0.4756    0.6942    1.7079    0.0542   5.3814e+009   1.3081e+009      0.3923    504.4978      0.1525
              5     13      3    0.6942    1.0000    2.2915    0.0542   5.3814e+009   1.3081e+009      0.3923    504.4978      0.1545

            panel:  1     
           lam_num    nPlies        tPly      fibAng     matID  matName
               (-)       (-)         (m)       (deg)       (-)  (-)
                 1         1    0.005000      0.0000         2  (blade-shell)
                 2         1    0.060000      0.0000         5  (LEP-core)
                 3         1    0.005000      0.0000         2  (blade-shell)

               lamina:  1     
              matName:  (blade-shell)
                     s           e11           e22           e12           s11           s22           s12   s11_fcT   s11_fcC   s22_fcT   s22_fcC   s12_fcS
                   (m)         (m/m)         (m/m)         (rad)          (Pa)          (Pa)          (Pa)       (-)       (-)       (-)       (-)       (-)
                0.0000   1.2570e-003  -4.9019e-004   1.1452e-004   3.5272e+007   1.9181e+005   8.0165e+005    0.2449   -0.0000    0.0000   -0.0000    0.0134
                0.1193   1.2386e-003  -4.8301e-004   1.3901e-004   3.4756e+007   1.8908e+005   9.7307e+005    0.2414   -0.0000    0.0000   -0.0000    0.0162
                0.2651   1.2014e-003  -4.6851e-004   1.6831e-004   3.3714e+007   1.8358e+005   1.1782e+006    0.2341   -0.0000    0.0000   -0.0000    0.0196
                0.4360   1.1471e-003  -4.4731e-004   2.0141e-004   3.2189e+007   1.7543e+005   1.4098e+006    0.2235   -0.0000    0.0000   -0.0000    0.0235
                0.6371   1.0760e-003  -4.1957e-004   2.3830e-004   3.0193e+007   1.6465e+005   1.6681e+006    0.2097   -0.0000    0.0000   -0.0000    0.0278
                0.8684   9.8875e-004  -3.8555e-004   2.7775e-004   2.7745e+007   1.5138e+005   1.9443e+006    0.1927   -0.0000    0.0000   -0.0000    0.0324
                1.1240   8.8695e-004  -3.4585e-004   3.1738e-004   2.4889e+007   1.3587e+005   2.2217e+006    0.1728   -0.0000    0.0000   -0.0000    0.0370
                1.4012   7.7202e-004  -3.0103e-004   3.5542e-004   2.1664e+007   1.1834e+005   2.4880e+006    0.1504   -0.0000    0.0000   -0.0000    0.0415
                1.6968   6.4550e-004  -2.5169e-004   3.9012e-004   1.8114e+007   9.9044e+004   2.7309e+006    0.1258   -0.0000    0.0000   -0.0000    0.0455
                2.0058   5.0962e-004  -1.9870e-004   4.1975e-004   1.4301e+007   7.8351e+004   2.9383e+006    0.0993   -0.0000    0.0000   -0.0000    0.0490
                2.3276   3.6671e-004  -1.4297e-004   4.4325e-004   1.0290e+007   5.6563e+004   3.1027e+006    0.0715   -0.0000    0.0000   -0.0000    0.0517
                2.5076   2.8714e-004  -1.1193e-004   4.5311e-004   8.0577e+006   4.4477e+004   3.1717e+006    0.0560   -0.0000    0.0000   -0.0000    0.0529

               lamina:  2     
              matName:  (LEP-core)
                     s           e11           e22           e12           s11           s22           s12   s11_fcT   s11_fcC   s22_fcT   s22_fcC   s12_fcS
                   (m)         (m/m)         (m/m)         (rad)          (Pa)          (Pa)          (Pa)       (-)       (-)       (-)       (-)       (-)
                0.0000   1.2545e-003  -4.8920e-004   1.1452e-004   3.1650e+005  -3.2244e+004   2.2904e+003    0.0000   -0.0000    0.0000    0.0000    0.0000
                0.1193   1.2362e-003  -4.8208e-004   1.3901e-004   3.1189e+005  -3.1773e+004   2.7802e+003    0.0000   -0.0000    0.0000    0.0000    0.0000
                0.2651   1.1994e-003  -4.6770e-004   1.6831e-004   3.0260e+005  -3.0823e+004   3.3663e+003    0.0000   -0.0000    0.0000    0.0000    0.0000
                0.4360   1.1453e-003  -4.4662e-004   2.0141e-004   2.8896e+005  -2.9432e+004   4.0281e+003    0.0000   -0.0000    0.0000    0.0000    0.0000
                0.6371   1.0745e-003  -4.1897e-004   2.3830e-004   2.7108e+005  -2.7609e+004   4.7660e+003    0.0000   -0.0000    0.0000    0.0000    0.0000
                0.8684   9.8747e-004  -3.8504e-004   2.7775e-004   2.4913e+005  -2.5372e+004   5.5550e+003    0.0000   -0.0000    0.0000    0.0000    0.0000
                1.1240   8.8590e-004  -3.4543e-004   3.1738e-004   2.2351e+005  -2.2761e+004   6.3477e+003    0.0000   -0.0000    0.0000    0.0000    0.0000
                1.4012   7.7120e-004  -3.0071e-004   3.5542e-004   1.9457e+005  -1.9813e+004   7.1084e+003    0.0000   -0.0000    0.0000    0.0000    0.0000
                1.6968   6.4496e-004  -2.5148e-004   3.9012e-004   1.6272e+005  -1.6568e+004   7.8025e+003    0.0000   -0.0000    0.0000    0.0000    0.0000
                2.0058   5.0940e-004  -1.9861e-004   4.1975e-004   1.2852e+005  -1.3083e+004   8.3951e+003    0.0000   -0.0000    0.0000    0.0000    0.0000
                2.3276   3.6790e-004  -1.4344e-004   4.4325e-004   9.2820e+004  -9.4484e+003   8.8650e+003    0.0000   -0.0000    0.0000    0.0000    0.0000
                2.5076   2.9156e-004  -1.1369e-004   4.5311e-004   7.3559e+004  -7.4914e+003   9.0621e+003    0.0000   -0.0000    0.0000    0.0000    0.0000

               lamina:  3     
              matName:  (blade-shell)
                     s           e11           e22           e12           s11           s22           s12   s11_fcT   s11_fcC   s22_fcT   s22_fcC   s12_fcS
                   (m)         (m/m)         (m/m)         (rad)          (Pa)          (Pa)          (Pa)       (-)       (-)       (-)       (-)       (-)
                0.0000   1.2248e-003  -4.7740e-004   1.1452e-004   3.4369e+007   1.9029e+005   8.0165e+005    0.2387   -0.0000    0.0000   -0.0000    0.0134
                0.1193   1.2082e-003  -4.7093e-004   1.3901e-004   3.3903e+007   1.8764e+005   9.7307e+005    0.2354   -0.0000    0.0000   -0.0000    0.0162
                0.2651   1.1749e-003  -4.5799e-004   1.6831e-004   3.2971e+007   1.8233e+005   1.1782e+006    0.2290   -0.0000    0.0000   -0.0000    0.0196
                0.4360   1.1244e-003  -4.3831e-004   2.0141e-004   3.1554e+007   1.7436e+005   1.4098e+006    0.2191   -0.0000    0.0000   -0.0000    0.0235
                0.6371   1.0564e-003  -4.1181e-004   2.3830e-004   2.9646e+007   1.6373e+005   1.6681e+006    0.2059   -0.0000    0.0000   -0.0000    0.0278
                0.8684   9.7210e-004  -3.7894e-004   2.7775e-004   2.7279e+007   1.5060e+005   1.9443e+006    0.1894   -0.0000    0.0000   -0.0000    0.0324
                1.1240   8.7331e-004  -3.4044e-004   3.1738e-004   2.4507e+007   1.3523e+005   2.2217e+006    0.1702   -0.0000    0.0000   -0.0000    0.0370
                1.4012   7.6142e-004  -2.9683e-004   3.5542e-004   2.1367e+007   1.1784e+005   2.4880e+006    0.1484   -0.0000    0.0000   -0.0000    0.0415
                1.6968   6.3840e-004  -2.4887e-004   3.9012e-004   1.7915e+007   9.8710e+004   2.7309e+006    0.1244   -0.0000    0.0000   -0.0000    0.0455
                2.0058   5.0672e-004  -1.9755e-004   4.1975e-004   1.4219e+007   7.8215e+004   2.9383e+006    0.0987   -0.0000    0.0000   -0.0000    0.0490
                2.3276   3.6800e-004  -1.4348e-004   4.4325e-004   1.0327e+007   5.6624e+004   3.1027e+006    0.0717   -0.0000    0.0000   -0.0000    0.0517
                2.5076   2.9193e-004  -1.1384e-004   4.5311e-004   8.1920e+006   4.4703e+004   3.1717e+006    0.0569   -0.0000    0.0000   -0.0000    0.0529

            panel:  2     
           lam_num    nPlies        tPly      fibAng     matID  matName
               (-)       (-)         (m)       (deg)       (-)  (-)
                 1         1    0.005000      0.0000         2  (blade-shell)
                 2         1    0.063482      0.0000         3  (spar-uni)
                 3         1    0.000002      0.0000         4  (spar-core)
                 4         1    0.063482      0.0000         3  (spar-uni)
                 5         1    0.005000      0.0000         2  (blade-shell)

               lamina:  1     
              matName:  (blade-shell)
                     s           e11           e22           e12           s11           s22           s12   s11_fcT   s11_fcC   s22_fcT   s22_fcC   s12_fcS
                   (m)         (m/m)         (m/m)         (rad)          (Pa)          (Pa)          (Pa)       (-)       (-)       (-)       (-)       (-)
                0.0000   2.7920e-004  -8.0555e-005   9.1178e-005   8.0070e+006   4.7363e+005   6.3825e+005    0.0556   -0.0000    0.0000   -0.0000    0.0106
                0.1488   2.0549e-004  -5.9084e-005   1.1046e-004   5.8943e+006   3.5168e+005   7.7320e+005    0.0409   -0.0000    0.0000   -0.0000    0.0129
                0.4996   4.9910e-005  -1.3942e-005   1.3739e-004   1.4341e+006   9.1631e+004   9.6175e+005    0.0100   -0.0000    0.0000   -0.0000    0.0160
                0.8710  -1.0960e-004   3.2364e-005   1.3845e-004  -3.1385e+006  -1.7461e+005   9.6916e+005    0.0000    0.0147    0.0000    0.0000    0.0162
                1.2618  -2.6519e-004   7.7441e-005   1.1025e-004  -7.5997e+006  -4.3578e+005   7.7173e+005    0.0000    0.0357    0.0000    0.0000    0.0129
                1.4695  -3.4597e-004   1.0084e-004   8.3341e-005  -9.9155e+006  -5.7131e+005   5.8338e+005    0.0000    0.0466    0.0000    0.0000    0.0097

               lamina:  2     
              matName:  (spar-uni)
                     s           e11           e22           e12           s11           s22           s12   s11_fcT   s11_fcC   s22_fcT   s22_fcC   s12_fcS
                   (m)         (m/m)         (m/m)         (rad)          (Pa)          (Pa)          (Pa)       (-)       (-)       (-)       (-)       (-)
                0.0000   2.9140e-004  -8.4284e-005   9.1178e-005   1.2228e+007  -3.8686e+004   2.7354e+005    0.0126   -0.0000    0.0000    0.0000    0.0091
                0.1488   2.2695e-004  -6.5641e-005   1.1046e-004   9.5233e+006  -3.0129e+004   3.3137e+005    0.0098   -0.0000    0.0000    0.0000    0.0110
                0.4996   8.0164e-005  -2.3186e-005   1.3739e-004   3.3639e+006  -1.0642e+004   4.1218e+005    0.0035   -0.0000    0.0000    0.0000    0.0137
                0.8710  -1.0662e-004   3.1454e-005   1.3845e-004  -4.4715e+006   2.3013e+004   4.1535e+005    0.0000    0.0064    0.0000   -0.0000    0.0138
                1.2618  -2.6189e-004   7.6432e-005   1.1025e-004  -1.0987e+007   4.4591e+004   3.3074e+005    0.0000    0.0157    0.0000   -0.0000    0.0110
                1.4695  -3.4248e-004   9.9779e-005   8.3341e-005  -1.4369e+007   5.5828e+004   2.5002e+005    0.0000    0.0205    0.0000   -0.0000    0.0083

               lamina:  3     
              matName:  (spar-core)
                     s           e11           e22           e12           s11           s22           s12   s11_fcT   s11_fcC   s22_fcT   s22_fcC   s12_fcS
                   (m)         (m/m)         (m/m)         (rad)          (Pa)          (Pa)          (Pa)       (-)       (-)       (-)       (-)       (-)
                0.0000   2.9140e-004  -8.4284e-005   9.1178e-005   7.6034e+004   8.9628e+002   1.8236e+003    0.0000   -0.0000    0.0000   -0.0000    0.0000
                0.1488   2.2695e-004  -6.5641e-005   1.1046e-004   5.9215e+004   6.9803e+002   2.2091e+003    0.0000   -0.0000    0.0000   -0.0000    0.0000
                0.4996   8.0165e-005  -2.3186e-005   1.3739e-004   2.0917e+004   2.4656e+002   2.7479e+003    0.0000   -0.0000    0.0000   -0.0000    0.0000
                0.8710  -6.8818e-005   1.9904e-005   1.3845e-004  -1.7956e+004  -2.1166e+002   2.7690e+003    0.0000    0.0000    0.0000    0.0000    0.0000
                1.2618  -2.1998e-004   6.3625e-005   1.1025e-004  -5.7397e+004  -6.7659e+002   2.2050e+003    0.0000    0.0000    0.0000    0.0000    0.0000
                1.4695  -2.9827e-004   8.6271e-005   8.3341e-005  -7.7826e+004  -9.1741e+002   1.6668e+003    0.0000    0.0000    0.0000    0.0000    0.0000

               lamina:  4     
              matName:  (spar-uni)
                     s           e11           e22           e12           s11           s22           s12   s11_fcT   s11_fcC   s22_fcT   s22_fcC   s12_fcS
                   (m)         (m/m)         (m/m)         (rad)          (Pa)          (Pa)          (Pa)       (-)       (-)       (-)       (-)       (-)
                0.0000   3.0361e-004  -8.8014e-005   9.1178e-005   1.2740e+007  -4.3167e+004   2.7354e+005    0.0131   -0.0000    0.0000    0.0000    0.0091
                0.1488   2.4841e-004  -7.2198e-005   1.1046e-004   1.0422e+007  -3.8007e+004   3.3137e+005    0.0107   -0.0000    0.0000    0.0000    0.0110
                0.4996   1.1042e-004  -3.2430e-005   1.3739e-004   4.6315e+006  -2.1749e+004   4.1218e+005    0.0048   -0.0000    0.0000    0.0000    0.0137
                0.8710  -6.8817e-005   1.9904e-005   1.3845e-004  -2.8877e+006   9.1358e+003   4.1535e+005    0.0000    0.0041    0.0000   -0.0000    0.0138
                1.2618  -2.1998e-004   6.3625e-005   1.1025e-004  -9.2308e+006   2.9204e+004   3.3074e+005    0.0000    0.0131    0.0000   -0.0000    0.0110
                1.4695  -2.9827e-004   8.6271e-005   8.3341e-005  -1.2516e+007   3.9598e+004   2.5002e+005    0.0000    0.0178    0.0000   -0.0000    0.0083

               lamina:  5     
              matName:  (blade-shell)
                     s           e11           e22           e12           s11           s22           s12   s11_fcT   s11_fcC   s22_fcT   s22_fcC   s12_fcS
                   (m)         (m/m)         (m/m)         (rad)          (Pa)          (Pa)          (Pa)       (-)       (-)       (-)       (-)       (-)
                0.0000   3.0457e-004  -8.8308e-005   9.1178e-005   8.7321e+006   5.1011e+005   6.3825e+005    0.0606   -0.0000    0.0000   -0.0000    0.0106
                0.1488   2.5010e-004  -7.2714e-005   1.1046e-004   7.1690e+006   4.1581e+005   7.7320e+005    0.0498   -0.0000    0.0000   -0.0000    0.0129
                0.4996   1.1280e-004  -3.3158e-005   1.3739e-004   3.2313e+006   1.8204e+005   9.6175e+005    0.0224   -0.0000    0.0000   -0.0000    0.0160
                0.8710  -3.1016e-005   8.3546e-006   1.3845e-004  -8.9311e+005  -6.1656e+004   9.6916e+005    0.0000    0.0042    0.0000    0.0000    0.0162
                1.2618  -1.7806e-004   5.0818e-005   1.1025e-004  -5.1099e+006  -3.1053e+005   7.7173e+005    0.0000    0.0240    0.0000    0.0000    0.0129
                1.4695  -2.5406e-004   7.2763e-005   8.3341e-005  -7.2895e+006  -4.3921e+005   5.8338e+005    0.0000    0.0342    0.0000    0.0000    0.0097

            panel:  3     
           lam_num    nPlies        tPly      fibAng     matID  matName
               (-)       (-)         (m)       (deg)       (-)  (-)
                 1         1    0.005000      0.0000         2  (blade-shell)
                 2         1    0.044188      0.0000         6  (TEP-core)
                 3         1    0.005000      0.0000         2  (blade-shell)

               lamina:  1     
              matName:  (blade-shell)
                     s           e11           e22           e12           s11           s22           s12   s11_fcT   s11_fcC   s22_fcT   s22_fcC   s12_fcS
                   (m)         (m/m)         (m/m)         (rad)          (Pa)          (Pa)          (Pa)       (-)       (-)       (-)       (-)       (-)
                0.0000  -3.1495e-004   1.2361e-004   5.3013e-004  -8.8330e+006  -3.6091e+004   3.7109e+006    0.0000    0.0415    0.0000    0.0000    0.0618
                0.0066  -3.1742e-004   1.2458e-004   5.2980e-004  -8.9024e+006  -3.6379e+004   3.7086e+006    0.0000    0.0418    0.0000    0.0000    0.0618

               lamina:  2     
              matName:  (TEP-core)
                     s           e11           e22           e12           s11           s22           s12   s11_fcT   s11_fcC   s22_fcT   s22_fcC   s12_fcS
                   (m)         (m/m)         (m/m)         (rad)          (Pa)          (Pa)          (Pa)       (-)       (-)       (-)       (-)       (-)
                0.0000  -3.1357e-004   1.2306e-004   5.3013e-004  -7.9042e+004   8.2823e+003   1.0603e+004    0.0000    0.0000    0.0000   -0.0000    0.0000
                0.0066  -3.1604e-004   1.2403e-004   5.2980e-004  -7.9666e+004   8.3475e+003   1.0596e+004    0.0000    0.0000    0.0000   -0.0000    0.0000

               lamina:  3     
              matName:  (blade-shell)
                     s           e11           e22           e12           s11           s22           s12   s11_fcT   s11_fcC   s22_fcT   s22_fcC   s12_fcS
                   (m)         (m/m)         (m/m)         (rad)          (Pa)          (Pa)          (Pa)       (-)       (-)       (-)       (-)       (-)
                0.0000  -3.0135e-004   1.1820e-004   5.3013e-004  -8.4521e+006  -3.5641e+004   3.7109e+006    0.0000    0.0397    0.0000    0.0000    0.0618
                0.0066  -3.0382e-004   1.1917e-004   5.2980e-004  -8.5214e+006  -3.5929e+004   3.7086e+006    0.0000    0.0400    0.0000    0.0000    0.0618

            panel:  4     
           lam_num    nPlies        tPly      fibAng     matID  matName
               (-)       (-)         (m)       (deg)       (-)  (-)
                 1         1    0.005000      0.0000         2  (blade-shell)
                 2         1    0.044188      0.0000         6  (TEP-core)
                 3         1    0.005000      0.0000         2  (blade-shell)

               lamina:  1     
              matName:  (blade-shell)
                     s           e11           e22           e12           s11           s22           s12   s11_fcT   s11_fcC   s22_fcT   s22_fcC   s12_fcS
                   (m)         (m/m)         (m/m)         (rad)          (Pa)          (Pa)          (Pa)       (-)       (-)       (-)       (-)       (-)
                0.0000  -3.1742e-004   1.2458e-004   6.3118e-004  -8.9024e+006  -3.6379e+004   4.4182e+006    0.0000    0.0418    0.0000    0.0000    0.0736
                0.1884  -3.8861e-004   1.5251e-004   6.3084e-004  -1.0899e+007  -4.4663e+004   4.4159e+006    0.0000    0.0512    0.0000    0.0000    0.0736
                0.5965  -5.4060e-004   2.1214e-004   6.3084e-004  -1.5162e+007  -6.2370e+004   4.4159e+006    0.0000    0.0712    0.0000    0.0000    0.0736
                1.0019  -6.9059e-004   2.7099e-004   6.2010e-004  -1.9368e+007  -7.9852e+004   4.3407e+006    0.0000    0.0909    0.0000    0.0000    0.0723
                1.3979  -8.3739e-004   3.2858e-004   5.8930e-004  -2.3486e+007  -9.6972e+004   4.1251e+006    0.0000    0.1103    0.0000    0.0000    0.0688
                1.7079  -9.5290e-004   3.7390e-004   5.4861e-004  -2.6725e+007  -1.1044e+005   3.8403e+006    0.0000    0.1255    0.0000    0.0000    0.0640

               lamina:  2     
              matName:  (TEP-core)
                     s           e11           e22           e12           s11           s22           s12   s11_fcT   s11_fcC   s22_fcT   s22_fcC   s12_fcS
                   (m)         (m/m)         (m/m)         (rad)          (Pa)          (Pa)          (Pa)       (-)       (-)       (-)       (-)       (-)
                0.0000  -3.1604e-004   1.2403e-004   6.3118e-004  -7.9666e+004   8.3475e+003   1.2624e+004    0.0000    0.0000    0.0000   -0.0000    0.0000
                0.1884  -3.8719e-004   1.5195e-004   6.3084e-004  -9.7603e+004   1.0225e+004   1.2617e+004    0.0000    0.0000    0.0000   -0.0000    0.0000
                0.5965  -5.3916e-004   2.1157e-004   6.3084e-004  -1.3591e+005   1.4234e+004   1.2617e+004    0.0000    0.0000    0.0000   -0.0000    0.0000
                1.0019  -6.8914e-004   2.7041e-004   6.2010e-004  -1.7372e+005   1.8191e+004   1.2402e+004    0.0000    0.0000    0.0000   -0.0000    0.0000
                1.3979  -8.3595e-004   3.2801e-004   5.8930e-004  -2.1073e+005   2.2065e+004   1.1786e+004    0.0000    0.0000    0.0000   -0.0000    0.0000
                1.7079  -9.5147e-004   3.7333e-004   5.4861e-004  -2.3985e+005   2.5112e+004   1.0972e+004    0.0000    0.0000    0.0000   -0.0000    0.0000

               lamina:  3     
              matName:  (blade-shell)
                     s           e11           e22           e12           s11           s22           s12   s11_fcT   s11_fcC   s22_fcT   s22_fcC   s12_fcS
                   (m)         (m/m)         (m/m)         (rad)          (Pa)          (Pa)          (Pa)       (-)       (-)       (-)       (-)       (-)
                0.0000  -3.0382e-004   1.1917e-004   6.3118e-004  -8.5214e+006  -3.5929e+004   4.4182e+006    0.0000    0.0400    0.0000    0.0000    0.0736
                0.1884  -3.7467e-004   1.4696e-004   6.3084e-004  -1.0508e+007  -4.4201e+004   4.4159e+006    0.0000    0.0493    0.0000    0.0000    0.0736
                0.5965  -5.2640e-004   2.0649e-004   6.3084e-004  -1.4764e+007  -6.1900e+004   4.4159e+006    0.0000    0.0693    0.0000    0.0000    0.0736
                1.0019  -6.7633e-004   2.6531e-004   6.2010e-004  -1.8969e+007  -7.9380e+004   4.3407e+006    0.0000    0.0891    0.0000    0.0000    0.0723
                1.3979  -8.2326e-004   3.2296e-004   5.8930e-004  -2.3090e+007  -9.6504e+004   4.1251e+006    0.0000    0.1084    0.0000    0.0000    0.0688
                1.7079  -9.3888e-004   3.6833e-004   5.4861e-004  -2.6333e+007  -1.0998e+005   3.8403e+006    0.0000    0.1236    0.0000    0.0000    0.0640

            panel:  5     
           lam_num    nPlies        tPly      fibAng     matID  matName
               (-)       (-)         (m)       (deg)       (-)  (-)
                 1         1    0.005000      0.0000         2  (blade-shell)
                 2         1    0.044188      0.0000         6  (TEP-core)
                 3         1    0.005000      0.0000         2  (blade-shell)

               lamina:  1     
              matName:  (blade-shell)
                     s           e11           e22           e12           s11           s22           s12   s11_fcT   s11_fcC   s22_fcT   s22_fcC   s12_fcS
                   (m)         (m/m)         (m/m)         (rad)          (Pa)          (Pa)          (Pa)       (-)       (-)       (-)       (-)       (-)
                0.0000  -9.5290e-004   3.7390e-004   4.9915e-004  -2.6725e+007  -1.1044e+005   3.4940e+006    0.0000    0.1255    0.0000    0.0000    0.0582
                0.0721  -9.7950e-004   3.8434e-004   4.5372e-004  -2.7472e+007  -1.1357e+005   3.1761e+006    0.0000    0.1290    0.0000    0.0000    0.0529
                0.4331  -1.1159e-003   4.3786e-004   5.0731e-004  -3.1298e+007  -1.2949e+005   3.5512e+006    0.0000    0.1469    0.0000    0.0000    0.0592
                0.7699  -1.2452e-003   4.8857e-004   4.9590e-004  -3.4923e+007  -1.4460e+005   3.4713e+006    0.0000    0.1640    0.0000    0.0000    0.0579
                1.0781  -1.3661e-003   5.3600e-004   4.3387e-004  -3.8314e+007  -1.5876e+005   3.0371e+006    0.0000    0.1799    0.0000    0.0000    0.0506
                1.3549  -1.4775e-003   5.7970e-004   3.6859e-004  -4.1438e+007  -1.7182e+005   2.5801e+006    0.0000    0.1945    0.0000    0.0000    0.0430
                1.5986  -1.5779e-003   6.1910e-004   3.0244e-004  -4.4255e+007  -1.8361e+005   2.1171e+006    0.0000    0.2078    0.0000    0.0000    0.0353
                1.8086  -1.6660e-003   6.5364e-004   2.3770e-004  -4.6725e+007  -1.9396e+005   1.6639e+006    0.0000    0.2194    0.0000    0.0000    0.0277
                1.9837  -1.7404e-003   6.8285e-004   1.7638e-004  -4.8813e+007  -2.0274e+005   1.2347e+006    0.0000    0.2292    0.0000    0.0000    0.0206
                2.1232  -1.8000e-003   7.0622e-004   1.2026e-004  -5.0484e+007  -2.0979e+005   8.4185e+005    0.0000    0.2370    0.0000    0.0000    0.0140
                2.2254  -1.8438e-003   7.2338e-004   7.1056e-005  -5.1712e+007  -2.1497e+005   4.9739e+005    0.0000    0.2428    0.0000    0.0000    0.0083
                2.2815  -1.8711e-003   7.3412e-004   3.0322e-005  -5.2478e+007  -2.1792e+005   2.1225e+005    0.0000    0.2464    0.0000    0.0000    0.0035
                2.2915  -1.8801e-003   7.3771e-004   4.5103e-007  -5.2731e+007  -2.1830e+005   3.1572e+003    0.0000    0.2476    0.0000    0.0000    0.0001

               lamina:  2     
              matName:  (TEP-core)
                     s           e11           e22           e12           s11           s22           s12   s11_fcT   s11_fcC   s22_fcT   s22_fcC   s12_fcS
                   (m)         (m/m)         (m/m)         (rad)          (Pa)          (Pa)          (Pa)       (-)       (-)       (-)       (-)       (-)
                0.0000  -9.5147e-004   3.7333e-004   4.9915e-004  -2.3985e+005   2.5112e+004   9.9830e+003    0.0000    0.0000    0.0000   -0.0000    0.0000
                0.0721  -9.7813e-004   3.8379e-004   4.5372e-004  -2.4657e+005   2.5815e+004   9.0744e+003    0.0000    0.0000    0.0000   -0.0000    0.0000
                0.4331  -1.1146e-003   4.3734e-004   5.0731e-004  -2.8097e+005   2.9415e+004   1.0146e+004    0.0000    0.0000    0.0000   -0.0000    0.0000
                0.7699  -1.2439e-003   4.8808e-004   4.9590e-004  -3.1358e+005   3.2827e+004   9.9180e+003    0.0000    0.0000    0.0000   -0.0000    0.0000
                1.0781  -1.3650e-003   5.3556e-004   4.3387e-004  -3.4409e+005   3.6019e+004   8.6774e+003    0.0000    0.0000    0.0000   -0.0000    0.0000
                1.3549  -1.4765e-003   5.7933e-004   3.6859e-004  -3.7221e+005   3.8961e+004   7.3718e+003    0.0000    0.0000    0.0000   -0.0000    0.0000
                1.5986  -1.5772e-003   6.1880e-004   3.0244e-004  -3.9758e+005   4.1615e+004   6.0487e+003    0.0000    0.0000    0.0000   -0.0000    0.0000
                1.8086  -1.6654e-003   6.5342e-004   2.3770e-004  -4.1982e+005   4.3942e+004   4.7541e+003    0.0000    0.0000    0.0000   -0.0000    0.0000
                1.9837  -1.7401e-003   6.8271e-004   1.7638e-004  -4.3865e+005   4.5910e+004   3.5276e+003    0.0000    0.0000    0.0000   -0.0000    0.0000
                2.1232  -1.7999e-003   7.0617e-004   1.2026e-004  -4.5373e+005   4.7487e+004   2.4053e+003    0.0000    0.0000    0.0000   -0.0000    0.0000
                2.2254  -1.8444e-003   7.2363e-004   7.1056e-005  -4.6495e+005   4.8661e+004   1.4211e+003    0.0000    0.0000    0.0000   -0.0000    0.0000
                2.2815  -1.8706e-003   7.3393e-004   3.0322e-005  -4.7156e+005   4.9355e+004   6.0644e+002    0.0000    0.0000    0.0000   -0.0000    0.0000
                2.2915  -1.8782e-003   7.3693e-004   4.5103e-007  -4.7346e+005   4.9565e+004   9.0206e+000    0.0000    0.0000    0.0000   -0.0000    0.0000

               lamina:  3     
              matName:  (blade-shell)
                     s           e11           e22           e12           s11           s22           s12   s11_fcT   s11_fcC   s22_fcT   s22_fcC   s12_fcS
                   (m)         (m/m)         (m/m)         (rad)          (Pa)          (Pa)          (Pa)       (-)       (-)       (-)       (-)       (-)
                0.0000  -9.3888e-004   3.6833e-004   4.9915e-004  -2.6333e+007  -1.0998e+005   3.4940e+006    0.0000    0.1236    0.0000    0.0000    0.0582
                0.0721  -9.6598e-004   3.7896e-004   4.5372e-004  -2.7093e+007  -1.1312e+005   3.1761e+006    0.0000    0.1272    0.0000    0.0000    0.0529
                0.4331  -1.1029e-003   4.3266e-004   5.0731e-004  -3.0932e+007  -1.2906e+005   3.5512e+006    0.0000    0.1452    0.0000    0.0000    0.0592
                0.7699  -1.2330e-003   4.8373e-004   4.9590e-004  -3.4582e+007  -1.4420e+005   3.4713e+006    0.0000    0.1624    0.0000    0.0000    0.0579
                1.0781  -1.3552e-003   5.3169e-004   4.3387e-004  -3.8010e+007  -1.5840e+005   3.0371e+006    0.0000    0.1785    0.0000    0.0000    0.0506
                1.3549  -1.4683e-003   5.7604e-004   3.6859e-004  -4.1180e+007  -1.7151e+005   2.5801e+006    0.0000    0.1933    0.0000    0.0000    0.0430
                1.5986  -1.5705e-003   6.1614e-004   3.0244e-004  -4.4047e+007  -1.8336e+005   2.1171e+006    0.0000    0.2068    0.0000    0.0000    0.0353
                1.8086  -1.6605e-003   6.5145e-004   2.3770e-004  -4.6571e+007  -1.9378e+005   1.6639e+006    0.0000    0.2186    0.0000    0.0000    0.0277
                1.9837  -1.7371e-003   6.8151e-004   1.7638e-004  -4.8719e+007  -2.0263e+005   1.2347e+006    0.0000    0.2287    0.0000    0.0000    0.0206
                2.1232  -1.7988e-003   7.0574e-004   1.2026e-004  -5.0450e+007  -2.0975e+005   8.4185e+005    0.0000    0.2369    0.0000    0.0000    0.0140
                2.2254  -1.8445e-003   7.2366e-004   7.1056e-005  -5.1731e+007  -2.1499e+005   4.9739e+005    0.0000    0.2429    0.0000    0.0000    0.0083
                2.2815  -1.8665e-003   7.3227e-004   3.0322e-005  -5.2348e+007  -2.1776e+005   2.1225e+005    0.0000    0.2458    0.0000    0.0000    0.0035
                2.2915  -1.8609e-003   7.3006e-004   4.5103e-007  -5.2192e+007  -2.1766e+005   3.1572e+003    0.0000    0.2450    0.0000    0.0000    0.0001

     Web:  panel  nNode   nLam     xc_St    xc_End         b         t         E_eff         G_eff      nu_eff     density  buckleCrit
            (-)    (-)    (-)       (-)       (-)       (m)       (m)          (Pa)          (Pa)         (-)    (kg/m^3)         (-)
              1     10      3    0.2752    0.2752    2.2503    0.0830   7.6445e+008   4.5301e+008      0.4420    257.1084      0.0003
              2     10      3    0.4756    0.4756    1.8576    0.0830   7.6445e+008   4.5301e+008      0.4420    257.1084      0.0002
              3     10      3    0.6942    0.6942    0.9019    0.0830   7.6445e+008   4.5301e+008      0.4420    257.1084      0.0000

            panel:  1     
           lam_num    nPlies        tPly      fibAng     matID  matName
               (-)       (-)         (m)       (deg)       (-)  (-)
                 1         1    0.001500      0.0000         7  (web-shell)
                 2         1    0.080000      0.0000         8  (web-core)
                 3         1    0.001500      0.0000         7  (web-shell)

               lamina:  1     
              matName:  (web-shell)
                     s           e11           e22           e12           s11           s22           s12   s11_fcT   s11_fcC   s22_fcT   s22_fcC   s12_fcS
                   (m)         (m/m)         (m/m)         (rad)          (Pa)          (Pa)          (Pa)       (-)       (-)       (-)       (-)       (-)
                0.0000   4.4625e-004  -1.9645e-004   1.7738e-004   6.4964e+006   4.9792e+005   2.1286e+006    0.0451   -0.0000    0.0000   -0.0000    0.0237
                0.2500   4.2648e-004  -1.8771e-004   1.8516e-004   6.2090e+006   4.7653e+005   2.2220e+006    0.0431   -0.0000    0.0000   -0.0000    0.0247
                0.5001   4.0672e-004  -1.7897e-004   1.9261e-004   5.9216e+006   4.5514e+005   2.3114e+006    0.0411   -0.0000    0.0000   -0.0000    0.0257
                0.7501   3.8695e-004  -1.7024e-004   1.9973e-004   5.6342e+006   4.3376e+005   2.3968e+006    0.0391   -0.0000    0.0000   -0.0000    0.0266
                1.0002   3.6719e-004  -1.6150e-004   2.0651e-004   5.3468e+006   4.1237e+005   2.4781e+006    0.0371   -0.0000    0.0000   -0.0000    0.0275
                1.2502   3.4742e-004  -1.5276e-004   2.1295e-004   5.0594e+006   3.9098e+005   2.5555e+006    0.0351   -0.0000    0.0000   -0.0000    0.0284
                1.5002   3.2766e-004  -1.4403e-004   2.1907e-004   4.7720e+006   3.6959e+005   2.6288e+006    0.0331   -0.0000    0.0000   -0.0000    0.0292
                1.7503   3.0789e-004  -1.3529e-004   2.2484e-004   4.4846e+006   3.4820e+005   2.6981e+006    0.0311   -0.0000    0.0000   -0.0000    0.0300
                2.0003   2.8812e-004  -1.2655e-004   2.3028e-004   4.1972e+006   3.2681e+005   2.7634e+006    0.0291   -0.0000    0.0000   -0.0000    0.0307
                2.2503   2.6836e-004  -1.1782e-004   2.3539e-004   3.9098e+006   3.0543e+005   2.8247e+006    0.0272   -0.0000    0.0000   -0.0000    0.0314

               lamina:  2     
              matName:  (web-core)
                     s           e11           e22           e12           s11           s22           s12   s11_fcT   s11_fcC   s22_fcT   s22_fcC   s12_fcS
                   (m)         (m/m)         (m/m)         (rad)          (Pa)          (Pa)          (Pa)       (-)       (-)       (-)       (-)       (-)
                0.0000   4.9252e-004  -2.1851e-004   1.7738e-004   1.2199e+005  -2.0216e+004   3.5476e+003    0.0000   -0.0000    0.0000    0.0000    0.0000
                0.2500   4.7275e-004  -2.0978e-004   1.8516e-004   1.1709e+005  -1.9414e+004   3.7033e+003    0.0000   -0.0000    0.0000    0.0000    0.0000
                0.5001   4.5299e-004  -2.0104e-004   1.9261e-004   1.1219e+005  -1.8612e+004   3.8523e+003    0.0000   -0.0000    0.0000    0.0000    0.0000
                0.7501   4.3322e-004  -1.9230e-004   1.9973e-004   1.0730e+005  -1.7810e+004   3.9946e+003    0.0000   -0.0000    0.0000    0.0000    0.0000
                1.0002   4.1346e-004  -1.8357e-004   2.0651e-004   1.0240e+005  -1.7008e+004   4.1302e+003    0.0000   -0.0000    0.0000    0.0000    0.0000
                1.2502   3.9369e-004  -1.7483e-004   2.1295e-004   9.7499e+004  -1.6206e+004   4.2591e+003    0.0000   -0.0000    0.0000    0.0000    0.0000
                1.5002   3.7393e-004  -1.6609e-004   2.1907e-004   9.2601e+004  -1.5404e+004   4.3813e+003    0.0000   -0.0000    0.0000    0.0000    0.0000
                1.7503   3.5416e-004  -1.5736e-004   2.2484e-004   8.7702e+004  -1.4602e+004   4.4968e+003    0.0000   -0.0000    0.0000    0.0000    0.0000
                2.0003   3.3440e-004  -1.4862e-004   2.3028e-004   8.2804e+004  -1.3800e+004   4.6056e+003    0.0000   -0.0000    0.0000    0.0000    0.0000
                2.2503   3.1463e-004  -1.3988e-004   2.3539e-004   7.7906e+004  -1.2998e+004   4.7078e+003    0.0000   -0.0000    0.0000    0.0000    0.0000

               lamina:  3     
              matName:  (web-shell)
                     s           e11           e22           e12           s11           s22           s12   s11_fcT   s11_fcC   s22_fcT   s22_fcC   s12_fcS
                   (m)         (m/m)         (m/m)         (rad)          (Pa)          (Pa)          (Pa)       (-)       (-)       (-)       (-)       (-)
                0.0000   4.9339e-004  -2.1893e-004   1.7738e-004   7.1666e+006   5.1832e+005   2.1286e+006    0.0498   -0.0000    0.0000   -0.0000    0.0237
                0.2500   4.7362e-004  -2.1019e-004   1.8516e-004   6.8792e+006   4.9693e+005   2.2220e+006    0.0478   -0.0000    0.0000   -0.0000    0.0247
                0.5001   4.5386e-004  -2.0145e-004   1.9261e-004   6.5918e+006   4.7554e+005   2.3114e+006    0.0458   -0.0000    0.0000   -0.0000    0.0257
                0.7501   4.3409e-004  -1.9272e-004   1.9973e-004   6.3044e+006   4.5415e+005   2.3968e+006    0.0438   -0.0000    0.0000   -0.0000    0.0266
                1.0002   4.1433e-004  -1.8398e-004   2.0651e-004   6.0170e+006   4.3276e+005   2.4781e+006    0.0418   -0.0000    0.0000   -0.0000    0.0275
                1.2502   3.9456e-004  -1.7524e-004   2.1295e-004   5.7296e+006   4.1138e+005   2.5555e+006    0.0398   -0.0000    0.0000   -0.0000    0.0284
                1.5002   3.7480e-004  -1.6651e-004   2.1907e-004   5.4422e+006   3.8999e+005   2.6288e+006    0.0378   -0.0000    0.0000   -0.0000    0.0292
                1.7503   3.5503e-004  -1.5777e-004   2.2484e-004   5.1547e+006   3.6860e+005   2.6981e+006    0.0358   -0.0000    0.0000   -0.0000    0.0300
                2.0003   3.3527e-004  -1.4903e-004   2.3028e-004   4.8673e+006   3.4721e+005   2.7634e+006    0.0338   -0.0000    0.0000   -0.0000    0.0307
                2.2503   3.1550e-004  -1.4030e-004   2.3539e-004   4.5799e+006   3.2582e+005   2.8247e+006    0.0318   -0.0000    0.0000   -0.0000    0.0314

            panel:  2     
           lam_num    nPlies        tPly      fibAng     matID  matName
               (-)       (-)         (m)       (deg)       (-)  (-)
                 1         1    0.001500      0.0000         7  (web-shell)
                 2         1    0.080000      0.0000         8  (web-core)
                 3         1    0.001500      0.0000         7  (web-shell)

               lamina:  1     
              matName:  (web-shell)
                     s           e11           e22           e12           s11           s22           s12   s11_fcT   s11_fcC   s22_fcT   s22_fcC   s12_fcS
                   (m)         (m/m)         (m/m)         (rad)          (Pa)          (Pa)          (Pa)       (-)       (-)       (-)       (-)       (-)
                0.0000  -1.8554e-004   8.2852e-005   2.2041e-004  -2.6902e+006  -1.8517e+005   2.6449e+006    0.0000    0.0126    0.0000    0.0000    0.0294
                0.2064  -2.0137e-004   8.9846e-005   2.1804e-004  -2.9203e+006  -2.0230e+005   2.6165e+006    0.0000    0.0137    0.0000    0.0000    0.0291
                0.4128  -2.1719e-004   9.6840e-005   2.1545e-004  -3.1504e+006  -2.1942e+005   2.5854e+006    0.0000    0.0148    0.0000    0.0000    0.0287
                0.6192  -2.3301e-004   1.0383e-004   2.1264e-004  -3.3804e+006  -2.3654e+005   2.5516e+006    0.0000    0.0159    0.0000    0.0000    0.0284
                0.8256  -2.4883e-004   1.1083e-004   2.0960e-004  -3.6105e+006  -2.5366e+005   2.5153e+006    0.0000    0.0170    0.0000    0.0000    0.0279
                1.0320  -2.6466e-004   1.1782e-004   2.0635e-004  -3.8406e+006  -2.7079e+005   2.4762e+006    0.0000    0.0180    0.0000    0.0000    0.0275
                1.2384  -2.8048e-004   1.2482e-004   2.0288e-004  -4.0707e+006  -2.8791e+005   2.4345e+006    0.0000    0.0191    0.0000    0.0000    0.0271
                1.4448  -2.9630e-004   1.3181e-004   1.9918e-004  -4.3008e+006  -3.0503e+005   2.3902e+006    0.0000    0.0202    0.0000    0.0000    0.0266
                1.6512  -3.1213e-004   1.3880e-004   1.9526e-004  -4.5308e+006  -3.2215e+005   2.3431e+006    0.0000    0.0213    0.0000    0.0000    0.0260
                1.8576  -3.2795e-004   1.4580e-004   1.9112e-004  -4.7609e+006  -3.3927e+005   2.2935e+006    0.0000    0.0224    0.0000    0.0000    0.0255

               lamina:  2     
              matName:  (web-core)
                     s           e11           e22           e12           s11           s22           s12   s11_fcT   s11_fcC   s22_fcT   s22_fcC   s12_fcS
                   (m)         (m/m)         (m/m)         (rad)          (Pa)          (Pa)          (Pa)       (-)       (-)       (-)       (-)       (-)
                0.0000  -1.8467e-004   8.2437e-005   2.2041e-004  -4.5698e+004   7.7243e+003   4.4082e+003    0.0000    0.0000    0.0000   -0.0000    0.0000
                0.2064  -2.0050e-004   8.9432e-005   2.1804e-004  -4.9619e+004   8.3664e+003   4.3608e+003    0.0000    0.0000    0.0000   -0.0000    0.0000
                0.4128  -2.1632e-004   9.6426e-005   2.1545e-004  -5.3541e+004   9.0085e+003   4.3090e+003    0.0000    0.0000    0.0000   -0.0000    0.0000
                0.6192  -2.3214e-004   1.0342e-004   2.1264e-004  -5.7462e+004   9.6505e+003   4.2527e+003    0.0000    0.0000    0.0000   -0.0000    0.0000
                0.8256  -2.4797e-004   1.1041e-004   2.0960e-004  -6.1383e+004   1.0293e+004   4.1921e+003    0.0000    0.0000    0.0000   -0.0000    0.0000
                1.0320  -2.6379e-004   1.1741e-004   2.0635e-004  -6.5305e+004   1.0935e+004   4.1270e+003    0.0000    0.0000    0.0000   -0.0000    0.0000
                1.2384  -2.7961e-004   1.2440e-004   2.0288e-004  -6.9226e+004   1.1577e+004   4.0575e+003    0.0000    0.0000    0.0000   -0.0000    0.0000
                1.4448  -2.9543e-004   1.3140e-004   1.9918e-004  -7.3147e+004   1.2219e+004   3.9836e+003    0.0000    0.0000    0.0000   -0.0000    0.0000
                1.6512  -3.1126e-004   1.3839e-004   1.9526e-004  -7.7069e+004   1.2861e+004   3.9052e+003    0.0000    0.0000    0.0000   -0.0000    0.0000
                1.8576  -3.2708e-004   1.4538e-004   1.9112e-004  -8.0990e+004   1.3503e+004   3.8225e+003    0.0000    0.0000    0.0000   -0.0000    0.0000

               lamina:  3     
              matName:  (web-shell)
                     s           e11           e22           e12           s11           s22           s12   s11_fcT   s11_fcC   s22_fcT   s22_fcC   s12_fcS
                   (m)         (m/m)         (m/m)         (rad)          (Pa)          (Pa)          (Pa)       (-)       (-)       (-)       (-)       (-)
                0.0000  -1.3835e-004   6.0351e-005   2.2041e-004  -2.0193e+006  -1.6476e+005   2.6449e+006    0.0000    0.0095    0.0000    0.0000    0.0294
                0.2064  -1.5418e-004   6.7345e-005   2.1804e-004  -2.2494e+006  -1.8188e+005   2.6165e+006    0.0000    0.0106    0.0000    0.0000    0.0291
                0.4128  -1.7000e-004   7.4339e-005   2.1545e-004  -2.4795e+006  -1.9900e+005   2.5854e+006    0.0000    0.0116    0.0000    0.0000    0.0287
                0.6192  -1.8582e-004   8.1333e-005   2.1264e-004  -2.7096e+006  -2.1613e+005   2.5516e+006    0.0000    0.0127    0.0000    0.0000    0.0284
                0.8256  -2.0164e-004   8.8327e-005   2.0960e-004  -2.9397e+006  -2.3325e+005   2.5153e+006    0.0000    0.0138    0.0000    0.0000    0.0279
                1.0320  -2.1747e-004   9.5321e-005   2.0635e-004  -3.1697e+006  -2.5037e+005   2.4762e+006    0.0000    0.0149    0.0000    0.0000    0.0275
                1.2384  -2.3329e-004   1.0232e-004   2.0288e-004  -3.3998e+006  -2.6749e+005   2.4345e+006    0.0000    0.0160    0.0000    0.0000    0.0271
                1.4448  -2.4911e-004   1.0931e-004   1.9918e-004  -3.6299e+006  -2.8461e+005   2.3902e+006    0.0000    0.0170    0.0000    0.0000    0.0266
                1.6512  -2.6494e-004   1.1630e-004   1.9526e-004  -3.8600e+006  -3.0174e+005   2.3431e+006    0.0000    0.0181    0.0000    0.0000    0.0260
                1.8576  -2.8076e-004   1.2330e-004   1.9112e-004  -4.0901e+006  -3.1886e+005   2.2935e+006    0.0000    0.0192    0.0000    0.0000    0.0255

            panel:  3     
           lam_num    nPlies        tPly      fibAng     matID  matName
               (-)       (-)         (m)       (deg)       (-)  (-)
                 1         1    0.001500      0.0000         7  (web-shell)
                 2         1    0.080000      0.0000         8  (web-core)
                 3         1    0.001500      0.0000         7  (web-shell)

               lamina:  1     
              matName:  (web-shell)
                     s           e11           e22           e12           s11           s22           s12   s11_fcT   s11_fcC   s22_fcT   s22_fcC   s12_fcS
                   (m)         (m/m)         (m/m)         (rad)          (Pa)          (Pa)          (Pa)       (-)       (-)       (-)       (-)       (-)
                0.0000  -8.9469e-004   3.9631e-004   1.5631e-004  -1.3002e+007  -9.5255e+005   1.8758e+006    0.0000    0.0610    0.0000    0.0000    0.0208
                0.1002  -9.0228e-004   3.9967e-004   1.5038e-004  -1.3112e+007  -9.6077e+005   1.8045e+006    0.0000    0.0616    0.0000    0.0000    0.0201
                0.2004  -9.0987e-004   4.0303e-004   1.4439e-004  -1.3223e+007  -9.6898e+005   1.7327e+006    0.0000    0.0621    0.0000    0.0000    0.0193
                0.3006  -9.1746e-004   4.0638e-004   1.3835e-004  -1.3333e+007  -9.7720e+005   1.6602e+006    0.0000    0.0626    0.0000    0.0000    0.0184
                0.4008  -9.2506e-004   4.0974e-004   1.3226e-004  -1.3443e+007  -9.8541e+005   1.5871e+006    0.0000    0.0631    0.0000    0.0000    0.0176
                0.5011  -9.3265e-004   4.1309e-004   1.2611e-004  -1.3554e+007  -9.9363e+005   1.5134e+006    0.0000    0.0636    0.0000    0.0000    0.0168
                0.6013  -9.4024e-004   4.1645e-004   1.1992e-004  -1.3664e+007  -1.0018e+006   1.4390e+006    0.0000    0.0642    0.0000    0.0000    0.0160
                0.7015  -9.4783e-004   4.1981e-004   1.1367e-004  -1.3775e+007  -1.0101e+006   1.3641e+006    0.0000    0.0647    0.0000    0.0000    0.0152
                0.8017  -9.5543e-004   4.2316e-004   1.0738e-004  -1.3885e+007  -1.0183e+006   1.2885e+006    0.0000    0.0652    0.0000    0.0000    0.0143
                0.9019  -9.6302e-004   4.2652e-004   1.0103e-004  -1.3996e+007  -1.0265e+006   1.2123e+006    0.0000    0.0657    0.0000    0.0000    0.0135

               lamina:  2     
              matName:  (web-core)
                     s           e11           e22           e12           s11           s22           s12   s11_fcT   s11_fcC   s22_fcT   s22_fcC   s12_fcS
                   (m)         (m/m)         (m/m)         (rad)          (Pa)          (Pa)          (Pa)       (-)       (-)       (-)       (-)       (-)
                0.0000  -8.9382e-004   3.9590e-004   1.5631e-004  -2.2144e+005   3.6501e+004   3.1263e+003    0.0000    0.0000    0.0000   -0.0000    0.0000
                0.1002  -9.0141e-004   3.9926e-004   1.5038e-004  -2.2332e+005   3.6809e+004   3.0076e+003    0.0000    0.0000    0.0000   -0.0000    0.0000
                0.2004  -9.0900e-004   4.0261e-004   1.4439e-004  -2.2521e+005   3.7117e+004   2.8878e+003    0.0000    0.0000    0.0000   -0.0000    0.0000
                0.3006  -9.1659e-004   4.0597e-004   1.3835e-004  -2.2709e+005   3.7425e+004   2.7670e+003    0.0000    0.0000    0.0000   -0.0000    0.0000
                0.4008  -9.2419e-004   4.0932e-004   1.3226e-004  -2.2897e+005   3.7734e+004   2.6452e+003    0.0000    0.0000    0.0000   -0.0000    0.0000
                0.5011  -9.3178e-004   4.1268e-004   1.2611e-004  -2.3085e+005   3.8042e+004   2.5223e+003    0.0000    0.0000    0.0000   -0.0000    0.0000
                0.6013  -9.3937e-004   4.1604e-004   1.1992e-004  -2.3273e+005   3.8350e+004   2.3984e+003    0.0000    0.0000    0.0000   -0.0000    0.0000
                0.7015  -9.4696e-004   4.1939e-004   1.1367e-004  -2.3461e+005   3.8658e+004   2.2735e+003    0.0000    0.0000    0.0000   -0.0000    0.0000
                0.8017  -9.5456e-004   4.2275e-004   1.0738e-004  -2.3649e+005   3.8966e+004   2.1475e+003    0.0000    0.0000    0.0000   -0.0000    0.0000
                0.9019  -9.6215e-004   4.2610e-004   1.0103e-004  -2.3838e+005   3.9274e+004   2.0206e+003    0.0000    0.0000    0.0000   -0.0000    0.0000

               lamina:  3     
              matName:  (web-shell)
                     s           e11           e22           e12           s11           s22           s12   s11_fcT   s11_fcC   s22_fcT   s22_fcC   s12_fcS
                   (m)         (m/m)         (m/m)         (rad)          (Pa)          (Pa)          (Pa)       (-)       (-)       (-)       (-)       (-)
                0.0000  -8.4748e-004   3.7380e-004   1.5631e-004  -1.2331e+007  -9.3213e+005   1.8758e+006    0.0000    0.0579    0.0000    0.0000    0.0208
                0.1002  -8.5507e-004   3.7716e-004   1.5038e-004  -1.2441e+007  -9.4034e+005   1.8045e+006    0.0000    0.0584    0.0000    0.0000    0.0201
                0.2004  -8.6266e-004   3.8052e-004   1.4439e-004  -1.2552e+007  -9.4856e+005   1.7327e+006    0.0000    0.0589    0.0000    0.0000    0.0193
                0.3006  -8.7026e-004   3.8387e-004   1.3835e-004  -1.2662e+007  -9.5677e+005   1.6602e+006    0.0000    0.0594    0.0000    0.0000    0.0184
                0.4008  -8.7785e-004   3.8723e-004   1.3226e-004  -1.2772e+007  -9.6499e+005   1.5871e+006    0.0000    0.0600    0.0000    0.0000    0.0176
                0.5011  -8.8544e-004   3.9058e-004   1.2611e-004  -1.2883e+007  -9.7321e+005   1.5134e+006    0.0000    0.0605    0.0000    0.0000    0.0168
                0.6013  -8.9303e-004   3.9394e-004   1.1992e-004  -1.2993e+007  -9.8142e+005   1.4390e+006    0.0000    0.0610    0.0000    0.0000    0.0160
                0.7015  -9.0063e-004   3.9730e-004   1.1367e-004  -1.3104e+007  -9.8964e+005   1.3641e+006    0.0000    0.0615    0.0000    0.0000    0.0152
                0.8017  -9.0822e-004   4.0065e-004   1.0738e-004  -1.3214e+007  -9.9785e+005   1.2885e+006    0.0000    0.0620    0.0000    0.0000    0.0143
                0.9019  -9.1581e-004   4.0401e-004   1.0103e-004  -1.3324e+007  -1.0061e+006   1.2123e+006    0.0000    0.0626    0.0000    0.0000    0.0135

================================================================================
sec        =  20     
zSec       =  34.0000  (m)
nPanelsTop =  5      
nPanelsBot =  5      
nWebs      =  3      

    Top:  panel  nNode   nLam     xc_St    xc_End         b         t         E_eff         G_eff      nu_eff     density  buckleCrit
            (-)    (-)    (-)       (-)       (-)       (m)       (m)          (Pa)          (Pa)         (-)    (kg/m^3)         (-)
              1     12      3    0.0000    0.2721    2.1971    0.0700   4.2251e+009   1.0171e+009      0.3899    435.7143      0.0002
              2      6      5    0.2721    0.4779    1.4377    0.1322   4.0956e+010   3.3025e+009      0.2896   1914.6794      0.0000
              3      2      3    0.4779    0.4788    0.0058    0.0459   6.3102e+009   1.5418e+009      0.3937    559.7494      0.0000
              4      6      3    0.4788    0.6905    1.5120    0.0459   6.3102e+009   1.5418e+009      0.3937    559.7494      0.1119
              5     13      3    0.6905    1.0000    2.2345    0.0459   6.3102e+009   1.5418e+009      0.3937    559.7494      0.6458

            panel:  1     
           lam_num    nPlies        tPly      fibAng     matID  matName
               (-)       (-)         (m)       (deg)       (-)  (-)
                 1         1    0.005000      0.0000         2  (blade-shell)
                 2         1    0.060000      0.0000         5  (LEP-core)
                 3         1    0.005000      0.0000         2  (blade-shell)

               lamina:  1     
              matName:  (blade-shell)
                     s           e11           e22           e12           s11           s22           s12   s11_fcT   s11_fcC   s22_fcT   s22_fcC   s12_fcS
                   (m)         (m/m)         (m/m)         (rad)          (Pa)          (Pa)          (Pa)       (-)       (-)       (-)       (-)       (-)
                0.0000   1.1184e-003  -4.3615e-004   1.1485e-004   3.1383e+007   1.7049e+005   8.0393e+005    0.2179   -0.0000    0.0000   -0.0000    0.0134
                0.0934   1.1185e-003  -4.3621e-004   9.6411e-005   3.1387e+007   1.7054e+005   6.7488e+005    0.2180   -0.0000    0.0000   -0.0000    0.0112
                0.2033   1.1039e-003  -4.3048e-004   7.4859e-005   3.0975e+007   1.6841e+005   5.2401e+005    0.2151   -0.0000    0.0000   -0.0000    0.0087
                0.3416   1.0746e-003  -4.1906e-004   4.8239e-005   3.0155e+007   1.6406e+005   3.3767e+005    0.2094   -0.0000    0.0000   -0.0000    0.0056
                0.5095   1.0311e-003  -4.0208e-004   1.6987e-005   2.8933e+007   1.5750e+005   1.1891e+005    0.2009   -0.0000    0.0000   -0.0000    0.0020
                0.7061   9.7361e-004  -3.7967e-004   1.7888e-005   2.7321e+007   1.4879e+005   1.2522e+005    0.1897   -0.0000    0.0000   -0.0000    0.0021
                0.9286   9.0243e-004  -3.5191e-004   5.4841e-005   2.5323e+007   1.3796e+005   3.8388e+005    0.1759   -0.0000    0.0000   -0.0000    0.0064
                1.1757   8.1817e-004  -3.1905e-004   9.2502e-005   2.2959e+007   1.2511e+005   6.4751e+005    0.1594   -0.0000    0.0000   -0.0000    0.0108
                1.4456   7.2162e-004  -2.8140e-004   1.2933e-004   2.0249e+007   1.1037e+005   9.0528e+005    0.1406   -0.0000    0.0000   -0.0000    0.0151
                1.7353   6.1332e-004  -2.3916e-004   1.6360e-004   1.7210e+007   9.3823e+004   1.1452e+006    0.1195   -0.0000    0.0000   -0.0000    0.0191
                2.0440   4.9436e-004  -1.9277e-004   1.9390e-004   1.3872e+007   7.5613e+004   1.3573e+006    0.0963   -0.0000    0.0000   -0.0000    0.0226
                2.1971   4.3347e-004  -1.6903e-004   2.0649e-004   1.2164e+007   6.6329e+004   1.4455e+006    0.0845   -0.0000    0.0000   -0.0000    0.0241

               lamina:  2     
              matName:  (LEP-core)
                     s           e11           e22           e12           s11           s22           s12   s11_fcT   s11_fcC   s22_fcT   s22_fcC   s12_fcS
                   (m)         (m/m)         (m/m)         (rad)          (Pa)          (Pa)          (Pa)       (-)       (-)       (-)       (-)       (-)
                0.0000   1.1160e-003  -4.3519e-004   1.1485e-004   2.8154e+005  -2.8686e+004   2.2969e+003    0.0000   -0.0000    0.0000    0.0000    0.0000
                0.0934   1.1161e-003  -4.3525e-004   9.6411e-005   2.8159e+005  -2.8690e+004   1.9282e+003    0.0000   -0.0000    0.0000    0.0000    0.0000
                0.2033   1.1016e-003  -4.2959e-004   7.4859e-005   2.7793e+005  -2.8315e+004   1.4972e+003    0.0000   -0.0000    0.0000    0.0000    0.0000
                0.3416   1.0726e-003  -4.1827e-004   4.8239e-005   2.7061e+005  -2.7567e+004   9.6478e+002    0.0000   -0.0000    0.0000    0.0000    0.0000
                0.5095   1.0293e-003  -4.0136e-004   1.6987e-005   2.5967e+005  -2.6452e+004   3.3974e+002    0.0000   -0.0000    0.0000    0.0000    0.0000
                0.7061   9.7198e-004  -3.7902e-004   1.7888e-005   2.4522e+005  -2.4979e+004   3.5776e+002    0.0000   -0.0000    0.0000    0.0000    0.0000
                0.9286   9.0099e-004  -3.5133e-004   5.4841e-005   2.2731e+005  -2.3154e+004   1.0968e+003    0.0000   -0.0000    0.0000    0.0000    0.0000
                1.1757   8.1690e-004  -3.1854e-004   9.2502e-005   2.0610e+005  -2.0992e+004   1.8500e+003    0.0000   -0.0000    0.0000    0.0000    0.0000
                1.4456   7.2053e-004  -2.8096e-004   1.2933e-004   1.8178e+005  -1.8515e+004   2.5865e+003    0.0000   -0.0000    0.0000    0.0000    0.0000
                1.7353   6.1242e-004  -2.3881e-004   1.6360e-004   1.5451e+005  -1.5737e+004   3.2719e+003    0.0000   -0.0000    0.0000    0.0000    0.0000
                2.0440   4.9362e-004  -1.9248e-004   1.9390e-004   1.2454e+005  -1.2684e+004   3.8780e+003    0.0000   -0.0000    0.0000    0.0000    0.0000
                2.1971   4.3286e-004  -1.6879e-004   2.0649e-004   1.0921e+005  -1.1123e+004   4.1299e+003    0.0000   -0.0000    0.0000    0.0000    0.0000

               lamina:  3     
              matName:  (blade-shell)
                     s           e11           e22           e12           s11           s22           s12   s11_fcT   s11_fcC   s22_fcT   s22_fcC   s12_fcS
                   (m)         (m/m)         (m/m)         (rad)          (Pa)          (Pa)          (Pa)       (-)       (-)       (-)       (-)       (-)
                0.0000   1.0867e-003  -4.2359e-004   1.1485e-004   3.0497e+007   1.6900e+005   8.0393e+005    0.2118   -0.0000    0.0000   -0.0000    0.0134
                0.0934   1.0873e-003  -4.2382e-004   9.6411e-005   3.0512e+007   1.6907e+005   6.7488e+005    0.2119   -0.0000    0.0000   -0.0000    0.0112
                0.2033   1.0750e-003  -4.1902e-004   7.4859e-005   3.0167e+007   1.6705e+005   5.2401e+005    0.2095   -0.0000    0.0000   -0.0000    0.0087
                0.3416   1.0485e-003  -4.0870e-004   4.8239e-005   2.9423e+007   1.6283e+005   3.3767e+005    0.2043   -0.0000    0.0000   -0.0000    0.0056
                0.5095   1.0075e-003  -3.9273e-004   1.6987e-005   2.8273e+007   1.5639e+005   1.1891e+005    0.1963   -0.0000    0.0000   -0.0000    0.0020
                0.7061   9.5248e-004  -3.7128e-004   1.7888e-005   2.6729e+007   1.4779e+005   1.2522e+005    0.1856   -0.0000    0.0000   -0.0000    0.0021
                0.9286   8.8369e-004  -3.4447e-004   5.4841e-005   2.4798e+007   1.3708e+005   3.8388e+005    0.1722   -0.0000    0.0000   -0.0000    0.0064
                1.1757   8.0167e-004  -3.1250e-004   9.2502e-005   2.2496e+007   1.2433e+005   6.4751e+005    0.1562   -0.0000    0.0000   -0.0000    0.0108
                1.4456   7.0746e-004  -2.7577e-004   1.2933e-004   1.9853e+007   1.0970e+005   9.0528e+005    0.1379   -0.0000    0.0000   -0.0000    0.0151
                1.7353   6.0165e-004  -2.3453e-004   1.6360e-004   1.6884e+007   9.3274e+004   1.1452e+006    0.1172   -0.0000    0.0000   -0.0000    0.0191
                2.0440   4.8474e-004  -1.8896e-004   1.9390e-004   1.3603e+007   7.5159e+004   1.3573e+006    0.0945   -0.0000    0.0000   -0.0000    0.0226
                2.1971   4.2555e-004  -1.6588e-004   2.0649e-004   1.1942e+007   6.5956e+004   1.4455e+006    0.0829   -0.0000    0.0000   -0.0000    0.0241

            panel:  2     
           lam_num    nPlies        tPly      fibAng     matID  matName
               (-)       (-)         (m)       (deg)       (-)  (-)
                 1         1    0.005000      0.0000         2  (blade-shell)
                 2         1    0.061104      0.0000         3  (spar-uni)
                 3         1    0.000002      0.0000         4  (spar-core)
                 4         1    0.061104      0.0000         3  (spar-uni)
                 5         1    0.005000      0.0000         2  (blade-shell)

               lamina:  1     
              matName:  (blade-shell)
                     s           e11           e22           e12           s11           s22           s12   s11_fcT   s11_fcC   s22_fcT   s22_fcC   s12_fcS
                   (m)         (m/m)         (m/m)         (rad)          (Pa)          (Pa)          (Pa)       (-)       (-)       (-)       (-)       (-)
                0.0000   4.4709e-004  -1.2981e-004   1.8368e-005   1.2817e+007   7.4596e+005   1.2857e+005    0.0890   -0.0000    0.0000   -0.0000    0.0021
                0.1697   3.7683e-004  -1.0941e-004   5.4016e-005   1.0803e+007   6.2886e+005   3.7811e+005    0.0750   -0.0000    0.0000   -0.0000    0.0063
                0.5095   2.3765e-004  -6.9038e-005   1.0709e-004   6.8126e+006   3.9599e+005   7.4961e+005    0.0473   -0.0000    0.0000   -0.0000    0.0125
                0.8622   9.2481e-005  -2.6938e-005   1.3608e-004   2.6507e+006   1.5300e+005   9.5253e+005    0.0184   -0.0000    0.0000   -0.0000    0.0159
                1.2249  -5.7009e-005   1.6405e-005   1.3801e-004  -1.6352e+006  -9.7363e+004   9.6609e+005    0.0000    0.0077    0.0000    0.0000    0.0161
                1.4377  -1.4466e-004   4.1815e-005   1.2595e-004  -4.1482e+006  -2.4423e+005   8.8163e+005    0.0000    0.0195    0.0000    0.0000    0.0147

               lamina:  2     
              matName:  (spar-uni)
                     s           e11           e22           e12           s11           s22           s12   s11_fcT   s11_fcC   s22_fcT   s22_fcC   s12_fcS
                   (m)         (m/m)         (m/m)         (rad)          (Pa)          (Pa)          (Pa)       (-)       (-)       (-)       (-)       (-)
                0.0000   4.4550e-004  -1.2933e-004   1.8368e-005   1.8692e+007  -6.5959e+004   5.5103e+004    0.0192   -0.0000    0.0000    0.0000    0.0018
                0.1697   3.7552e-004  -1.0901e-004   5.4016e-005   1.5756e+007  -5.5489e+004   1.6205e+005    0.0162   -0.0000    0.0000    0.0000    0.0054
                0.5095   2.3665e-004  -6.8731e-005   1.0709e-004   9.9293e+006  -3.5502e+004   3.2126e+005    0.0102   -0.0000    0.0000    0.0000    0.0107
                0.8622   9.1767e-005  -2.6719e-005   1.3608e-004   3.8501e+006  -1.4729e+004   4.0823e+005    0.0040   -0.0000    0.0000    0.0000    0.0136
                1.2249  -6.3104e-005   1.8273e-005   1.3801e-004  -2.6479e+006   8.6775e+003   4.1404e+005    0.0000    0.0038    0.0000   -0.0000    0.0138
                1.4377  -1.4905e-004   4.3159e-005   1.2595e-004  -6.2543e+006   2.0496e+004   3.7784e+005    0.0000    0.0089    0.0000   -0.0000    0.0126

               lamina:  3     
              matName:  (spar-core)
                     s           e11           e22           e12           s11           s22           s12   s11_fcT   s11_fcC   s22_fcT   s22_fcC   s12_fcS
                   (m)         (m/m)         (m/m)         (rad)          (Pa)          (Pa)          (Pa)       (-)       (-)       (-)       (-)       (-)
                0.0000   4.2605e-004  -1.2337e-004   1.8368e-005   1.1115e+005   1.2702e+003   3.6735e+002    0.0000   -0.0000    0.0000   -0.0000    0.0000
                0.1697   3.5959e-004  -1.0413e-004   5.4016e-005   9.3816e+004   1.0720e+003   1.0803e+003    0.0000   -0.0000    0.0000   -0.0000    0.0000
                0.5095   2.2440e-004  -6.4978e-005   1.0709e-004   5.8544e+004   6.6899e+002   2.1417e+003    0.0000   -0.0000    0.0000   -0.0000    0.0000
                0.8622   8.3033e-005  -2.4044e-005   1.3608e-004   2.1663e+004   2.4754e+002   2.7215e+003    0.0000   -0.0000    0.0000   -0.0000    0.0000
                1.2249  -6.3104e-005   1.8273e-005   1.3801e-004  -1.6463e+004  -1.8813e+002   2.7603e+003    0.0000    0.0000    0.0000    0.0000    0.0000
                1.4377  -1.4905e-004   4.3159e-005   1.2595e-004  -3.8886e+004  -4.4435e+002   2.5189e+003    0.0000    0.0000    0.0000    0.0000    0.0000

               lamina:  4     
              matName:  (spar-uni)
                     s           e11           e22           e12           s11           s22           s12   s11_fcT   s11_fcC   s22_fcT   s22_fcC   s12_fcS
                   (m)         (m/m)         (m/m)         (rad)          (Pa)          (Pa)          (Pa)       (-)       (-)       (-)       (-)       (-)
                0.0000   4.2605e-004  -1.2337e-004   1.8368e-005   1.7878e+007  -5.8588e+004   5.5103e+004    0.0184   -0.0000    0.0000    0.0000    0.0018
                0.1697   3.5959e-004  -1.0413e-004   5.4016e-005   1.5089e+007  -4.9448e+004   1.6205e+005    0.0155   -0.0000    0.0000    0.0000    0.0054
                0.5095   2.2440e-004  -6.4978e-005   1.0709e-004   9.4161e+006  -3.0858e+004   3.2126e+005    0.0097   -0.0000    0.0000    0.0000    0.0107
                0.8622   8.3033e-005  -2.4043e-005   1.3608e-004   3.4842e+006  -1.1418e+004   4.0823e+005    0.0036   -0.0000    0.0000    0.0000    0.0136
                1.2249  -6.9199e-005   2.0140e-005   1.3801e-004  -2.9033e+006   1.0989e+004   4.1404e+005    0.0000    0.0041    0.0000   -0.0000    0.0138
                1.4377  -1.5344e-004   4.4503e-005   1.2595e-004  -6.4381e+006   2.2159e+004   3.7784e+005    0.0000    0.0092    0.0000   -0.0000    0.0126

               lamina:  5     
              matName:  (blade-shell)
                     s           e11           e22           e12           s11           s22           s12   s11_fcT   s11_fcC   s22_fcT   s22_fcC   s12_fcS
                   (m)         (m/m)         (m/m)         (rad)          (Pa)          (Pa)          (Pa)       (-)       (-)       (-)       (-)       (-)
                0.0000   4.0661e-004  -1.1741e-004   1.8368e-005   1.1660e+007   6.8829e+005   1.2857e+005    0.0810   -0.0000    0.0000   -0.0000    0.0021
                0.1697   3.4366e-004  -9.9244e-005   5.4016e-005   9.8551e+006   5.8160e+005   3.7811e+005    0.0684   -0.0000    0.0000   -0.0000    0.0063
                0.5095   2.1215e-004  -6.1225e-005   1.0709e-004   6.0840e+006   3.5965e+005   7.4961e+005    0.0423   -0.0000    0.0000   -0.0000    0.0125
                0.8622   7.4300e-005  -2.1368e-005   1.3608e-004   2.1312e+006   1.2710e+005   9.5253e+005    0.0148   -0.0000    0.0000   -0.0000    0.0159
                1.2249  -6.9698e-005   2.0293e-005   1.3801e-004  -1.9977e+006  -1.1544e+005   9.6609e+005    0.0000    0.0094    0.0000    0.0000    0.0161
                1.4377  -1.5379e-004   4.4613e-005   1.2595e-004  -4.4091e+006  -2.5724e+005   8.8163e+005    0.0000    0.0207    0.0000    0.0000    0.0147

            panel:  3     
           lam_num    nPlies        tPly      fibAng     matID  matName
               (-)       (-)         (m)       (deg)       (-)  (-)
                 1         1    0.005000      0.0000         2  (blade-shell)
                 2         1    0.035865      0.0000         6  (TEP-core)
                 3         1    0.005000      0.0000         2  (blade-shell)

               lamina:  1     
              matName:  (blade-shell)
                     s           e11           e22           e12           s11           s22           s12   s11_fcT   s11_fcC   s22_fcT   s22_fcC   s12_fcS
                   (m)         (m/m)         (m/m)         (rad)          (Pa)          (Pa)          (Pa)       (-)       (-)       (-)       (-)       (-)
                0.0000  -1.4754e-004   5.8081e-005   7.7763e-004  -4.1367e+006  -1.4201e+004   5.4434e+006    0.0000    0.0194    0.0000    0.0000    0.0907
                0.0058  -1.4986e-004   5.8996e-005   7.7748e-004  -4.2019e+006  -1.4425e+004   5.4423e+006    0.0000    0.0197    0.0000    0.0000    0.0907

               lamina:  2     
              matName:  (TEP-core)
                     s           e11           e22           e12           s11           s22           s12   s11_fcT   s11_fcC   s22_fcT   s22_fcC   s12_fcS
                   (m)         (m/m)         (m/m)         (rad)          (Pa)          (Pa)          (Pa)       (-)       (-)       (-)       (-)       (-)
                0.0000  -1.4859e-004   5.8500e-005   7.7763e-004  -3.7439e+004   3.9782e+003   1.5553e+004    0.0000    0.0000    0.0000   -0.0000    0.0000
                0.0058  -1.5091e-004   5.9415e-005   7.7748e-004  -3.8025e+004   4.0405e+003   1.5550e+004    0.0000    0.0000    0.0000   -0.0000    0.0000

               lamina:  3     
              matName:  (blade-shell)
                     s           e11           e22           e12           s11           s22           s12   s11_fcT   s11_fcC   s22_fcT   s22_fcC   s12_fcS
                   (m)         (m/m)         (m/m)         (rad)          (Pa)          (Pa)          (Pa)       (-)       (-)       (-)       (-)       (-)
                0.0000  -1.4873e-004   5.8559e-005   7.7763e-004  -4.1703e+006  -1.4232e+004   5.4434e+006    0.0000    0.0196    0.0000    0.0000    0.0907
                0.0058  -1.5106e-004   5.9474e-005   7.7748e-004  -4.2355e+006  -1.4456e+004   5.4423e+006    0.0000    0.0199    0.0000    0.0000    0.0907

            panel:  4     
           lam_num    nPlies        tPly      fibAng     matID  matName
               (-)       (-)         (m)       (deg)       (-)  (-)
                 1         1    0.005000      0.0000         2  (blade-shell)
                 2         1    0.035865      0.0000         6  (TEP-core)
                 3         1    0.005000      0.0000         2  (blade-shell)

               lamina:  1     
              matName:  (blade-shell)
                     s           e11           e22           e12           s11           s22           s12   s11_fcT   s11_fcC   s22_fcT   s22_fcC   s12_fcS
                   (m)         (m/m)         (m/m)         (rad)          (Pa)          (Pa)          (Pa)       (-)       (-)       (-)       (-)       (-)
                0.0000  -1.4986e-004   5.8996e-005   6.7605e-004  -4.2019e+006  -1.4425e+004   4.7323e+006    0.0000    0.0197    0.0000    0.0000    0.0789
                0.1503  -2.1072e-004   8.2958e-005   6.7590e-004  -5.9083e+006  -2.0257e+004   4.7313e+006    0.0000    0.0277    0.0000    0.0000    0.0789
                0.5219  -3.6116e-004   1.4218e-004   6.7590e-004  -1.0126e+007  -3.4688e+004   4.7313e+006    0.0000    0.0475    0.0000    0.0000    0.0789
                0.8909  -5.1061e-004   2.0102e-004   6.7110e-004  -1.4317e+007  -4.9023e+004   4.6977e+006    0.0000    0.0672    0.0000    0.0000    0.0783
                1.2532  -6.5733e-004   2.5878e-004   6.5233e-004  -1.8430e+007  -6.3098e+004   4.5663e+006    0.0000    0.0865    0.0000    0.0000    0.0761
                1.5120  -7.6213e-004   3.0004e-004   6.2395e-004  -2.1369e+007  -7.3153e+004   4.3676e+006    0.0000    0.1003    0.0000    0.0000    0.0728

               lamina:  2     
              matName:  (TEP-core)
                     s           e11           e22           e12           s11           s22           s12   s11_fcT   s11_fcC   s22_fcT   s22_fcC   s12_fcS
                   (m)         (m/m)         (m/m)         (rad)          (Pa)          (Pa)          (Pa)       (-)       (-)       (-)       (-)       (-)
                0.0000  -1.5091e-004   5.9415e-005   6.7605e-004  -3.8025e+004   4.0405e+003   1.3521e+004    0.0000    0.0000    0.0000   -0.0000    0.0000
                0.1503  -2.1146e-004   8.3250e-005   6.7590e-004  -5.3281e+004   5.6609e+003   1.3518e+004    0.0000    0.0000    0.0000   -0.0000    0.0000
                0.5219  -3.6156e-004   1.4235e-004   6.7590e-004  -9.1103e+004   9.6789e+003   1.3518e+004    0.0000    0.0000    0.0000   -0.0000    0.0000
                0.8909  -5.1064e-004   2.0103e-004   6.7110e-004  -1.2867e+005   1.3669e+004   1.3422e+004    0.0000    0.0000    0.0000   -0.0000    0.0000
                1.2532  -6.5730e-004   2.5877e-004   6.5233e-004  -1.6562e+005   1.7595e+004   1.3047e+004    0.0000    0.0000    0.0000   -0.0000    0.0000
                1.5120  -7.6208e-004   3.0002e-004   6.2395e-004  -1.9202e+005   2.0400e+004   1.2479e+004    0.0000    0.0000    0.0000   -0.0000    0.0000

               lamina:  3     
              matName:  (blade-shell)
                     s           e11           e22           e12           s11           s22           s12   s11_fcT   s11_fcC   s22_fcT   s22_fcC   s12_fcS
                   (m)         (m/m)         (m/m)         (rad)          (Pa)          (Pa)          (Pa)       (-)       (-)       (-)       (-)       (-)
                0.0000  -1.5106e-004   5.9474e-005   6.7605e-004  -4.2355e+006  -1.4456e+004   4.7323e+006    0.0000    0.0199    0.0000    0.0000    0.0789
                0.1503  -2.1156e-004   8.3291e-005   6.7590e-004  -5.9318e+006  -2.0278e+004   4.7313e+006    0.0000    0.0278    0.0000    0.0000    0.0789
                0.5219  -3.6162e-004   1.4237e-004   6.7590e-004  -1.0139e+007  -3.4700e+004   4.7313e+006    0.0000    0.0476    0.0000    0.0000    0.0789
                0.8909  -5.1064e-004   2.0104e-004   6.7110e-004  -1.4318e+007  -4.9024e+004   4.6977e+006    0.0000    0.0672    0.0000    0.0000    0.0783
                1.2532  -6.5706e-004   2.5868e-004   6.5233e-004  -1.8423e+007  -6.3091e+004   4.5663e+006    0.0000    0.0865    0.0000    0.0000    0.0761
                1.5120  -7.6171e-004   2.9988e-004   6.2395e-004  -2.1357e+007  -7.3143e+004   4.3676e+006    0.0000    0.1003    0.0000    0.0000    0.0728

            panel:  5     
           lam_num    nPlies        tPly      fibAng     matID  matName
               (-)       (-)         (m)       (deg)       (-)  (-)
                 1         1    0.005000      0.0000         2  (blade-shell)
                 2         1    0.035865      0.0000         6  (TEP-core)
                 3         1    0.005000      0.0000         2  (blade-shell)

               lamina:  1     
              matName:  (blade-shell)
                     s           e11           e22           e12           s11           s22           s12   s11_fcT   s11_fcC   s22_fcT   s22_fcC   s12_fcS
                   (m)         (m/m)         (m/m)         (rad)          (Pa)          (Pa)          (Pa)       (-)       (-)       (-)       (-)       (-)
                0.0000  -7.6213e-004   3.0004e-004   5.8662e-004  -2.1369e+007  -7.3153e+004   4.1063e+006    0.0000    0.1003    0.0000    0.0000    0.0684
                0.0921  -7.9950e-004   3.1476e-004   5.5420e-004  -2.2417e+007  -7.6734e+004   3.8794e+006    0.0000    0.1052    0.0000    0.0000    0.0647
                0.4282  -9.3546e-004   3.6828e-004   4.8872e-004  -2.6229e+007  -8.9782e+004   3.4210e+006    0.0000    0.1231    0.0000    0.0000    0.0570
                0.7450  -1.0636e-003   4.1874e-004   4.7603e-004  -2.9822e+007  -1.0208e+005   3.3322e+006    0.0000    0.1400    0.0000    0.0000    0.0555
                1.0389  -1.1825e-003   4.6553e-004   4.2461e-004  -3.3154e+007  -1.1349e+005   2.9723e+006    0.0000    0.1557    0.0000    0.0000    0.0495
                1.3067  -1.2907e-003   5.0815e-004   3.6874e-004  -3.6190e+007  -1.2388e+005   2.5812e+006    0.0000    0.1699    0.0000    0.0000    0.0430
                1.5452  -1.3871e-003   5.4610e-004   3.1053e-004  -3.8892e+007  -1.3313e+005   2.1737e+006    0.0000    0.1826    0.0000    0.0000    0.0362
                1.7515  -1.4705e-003   5.7893e-004   2.5211e-004  -4.1231e+007  -1.4114e+005   1.7648e+006    0.0000    0.1936    0.0000    0.0000    0.0294
                1.9238  -1.5402e-003   6.0635e-004   1.9578e-004  -4.3184e+007  -1.4782e+005   1.3705e+006    0.0000    0.2027    0.0000    0.0000    0.0228
                2.0597  -1.5952e-003   6.2801e-004   1.4380e-004  -4.4726e+007  -1.5309e+005   1.0066e+006    0.0000    0.2100    0.0000    0.0000    0.0168
                2.1585  -1.6350e-003   6.4371e-004   9.8054e-005  -4.5844e+007  -1.5692e+005   6.8638e+005    0.0000    0.2152    0.0000    0.0000    0.0114
                2.2134  -1.6596e-003   6.5337e-004   6.0453e-005  -4.6531e+007  -1.5911e+005   4.2317e+005    0.0000    0.2185    0.0000    0.0000    0.0071
                2.2345  -1.6700e-003   6.5751e-004   3.2321e-005  -4.6825e+007  -1.5981e+005   2.2625e+005    0.0000    0.2198    0.0000    0.0000    0.0038

               lamina:  2     
              matName:  (TEP-core)
                     s           e11           e22           e12           s11           s22           s12   s11_fcT   s11_fcC   s22_fcT   s22_fcC   s12_fcS
                   (m)         (m/m)         (m/m)         (rad)          (Pa)          (Pa)          (Pa)       (-)       (-)       (-)       (-)       (-)
                0.0000  -7.6208e-004   3.0002e-004   5.8662e-004  -1.9202e+005   2.0400e+004   1.1732e+004    0.0000    0.0000    0.0000   -0.0000    0.0000
                0.0921  -7.9943e-004   3.1473e-004   5.5420e-004  -2.0143e+005   2.1400e+004   1.1084e+004    0.0000    0.0000    0.0000   -0.0000    0.0000
                0.4282  -9.3537e-004   3.6825e-004   4.8872e-004  -2.3568e+005   2.5039e+004   9.7744e+003    0.0000    0.0000    0.0000   -0.0000    0.0000
                0.7450  -1.0635e-003   4.1870e-004   4.7603e-004  -2.6797e+005   2.8470e+004   9.5206e+003    0.0000    0.0000    0.0000   -0.0000    0.0000
                1.0389  -1.1824e-003   4.6548e-004   4.2461e-004  -2.9792e+005   3.1651e+004   8.4921e+003    0.0000    0.0000    0.0000   -0.0000    0.0000
                1.3067  -1.2906e-003   5.0810e-004   3.6874e-004  -3.2519e+005   3.4549e+004   7.3749e+003    0.0000    0.0000    0.0000   -0.0000    0.0000
                1.5452  -1.3870e-003   5.4605e-004   3.1053e-004  -3.4948e+005   3.7129e+004   6.2105e+003    0.0000    0.0000    0.0000   -0.0000    0.0000
                1.7515  -1.4704e-003   5.7887e-004   2.5211e-004  -3.7049e+005   3.9361e+004   5.0423e+003    0.0000    0.0000    0.0000   -0.0000    0.0000
                1.9238  -1.5400e-003   6.0629e-004   1.9578e-004  -3.8803e+005   4.1225e+004   3.9156e+003    0.0000    0.0000    0.0000   -0.0000    0.0000
                2.0597  -1.5950e-003   6.2794e-004   1.4380e-004  -4.0189e+005   4.2697e+004   2.8759e+003    0.0000    0.0000    0.0000   -0.0000    0.0000
                2.1585  -1.6349e-003   6.4363e-004   9.8054e-005  -4.1194e+005   4.3764e+004   1.9611e+003    0.0000    0.0000    0.0000   -0.0000    0.0000
                2.2134  -1.6589e-003   6.5309e-004   6.0453e-005  -4.1798e+005   4.4409e+004   1.2091e+003    0.0000    0.0000    0.0000   -0.0000    0.0000
                2.2345  -1.6684e-003   6.5686e-004   3.2321e-005  -4.2038e+005   4.4669e+004   6.4642e+002    0.0000    0.0000    0.0000   -0.0000    0.0000

               lamina:  3     
              matName:  (blade-shell)
                     s           e11           e22           e12           s11           s22           s12   s11_fcT   s11_fcC   s22_fcT   s22_fcC   s12_fcS
                   (m)         (m/m)         (m/m)         (rad)          (Pa)          (Pa)          (Pa)       (-)       (-)       (-)       (-)       (-)
                0.0000  -7.6171e-004   2.9988e-004   5.8662e-004  -2.1357e+007  -7.3143e+004   4.1063e+006    0.0000    0.1003    0.0000    0.0000    0.0684
                0.0921  -7.9890e-004   3.1452e-004   5.5420e-004  -2.2400e+007  -7.6719e+004   3.8794e+006    0.0000    0.1052    0.0000    0.0000    0.0647
                0.4282  -9.3474e-004   3.6800e-004   4.8872e-004  -2.6209e+007  -8.9764e+004   3.4210e+006    0.0000    0.1230    0.0000    0.0000    0.0570
                0.7450  -1.0628e-003   4.1840e-004   4.7603e-004  -2.9799e+007  -1.0206e+005   3.3322e+006    0.0000    0.1399    0.0000    0.0000    0.0555
                1.0389  -1.1815e-003   4.6516e-004   4.2461e-004  -3.3128e+007  -1.1346e+005   2.9723e+006    0.0000    0.1555    0.0000    0.0000    0.0495
                1.3067  -1.2897e-003   5.0775e-004   3.6874e-004  -3.6161e+007  -1.2385e+005   2.5812e+006    0.0000    0.1698    0.0000    0.0000    0.0430
                1.5452  -1.3861e-003   5.4569e-004   3.1053e-004  -3.8864e+007  -1.3311e+005   2.1737e+006    0.0000    0.1825    0.0000    0.0000    0.0362
                1.7515  -1.4694e-003   5.7849e-004   2.5211e-004  -4.1200e+007  -1.4111e+005   1.7648e+006    0.0000    0.1934    0.0000    0.0000    0.0294
                1.9238  -1.5389e-003   6.0586e-004   1.9578e-004  -4.3149e+007  -1.4779e+005   1.3705e+006    0.0000    0.2026    0.0000    0.0000    0.0228
                2.0597  -1.5938e-003   6.2745e-004   1.4380e-004  -4.4687e+007  -1.5306e+005   1.0066e+006    0.0000    0.2098    0.0000    0.0000    0.0168
                2.1585  -1.6336e-003   6.4312e-004   9.8054e-005  -4.5803e+007  -1.5688e+005   6.8638e+005    0.0000    0.2150    0.0000    0.0000    0.0114
                2.2134  -1.6540e-003   6.5114e-004   6.0453e-005  -4.6375e+007  -1.5897e+005   4.2317e+005    0.0000    0.2177    0.0000    0.0000    0.0071
                2.2345  -1.6566e-003   6.5216e-004   3.2321e-005  -4.6449e+007  -1.5946e+005   2.2625e+005    0.0000    0.2181    0.0000    0.0000    0.0038

  Bottom:  panel  nNode   nLam     xc_St    xc_End         b         t         E_eff         G_eff      nu_eff     density  buckleCrit
            (-)    (-)    (-)       (-)       (-)       (m)       (m)          (Pa)          (Pa)         (-)    (kg/m^3)         (-)
              1     12      3    0.0000    0.2721    2.3081    0.0700   4.2251e+009   1.0171e+009      0.3899    435.7143      0.0008
              2      6      5    0.2721    0.4779    1.4588    0.1322   4.0956e+010   3.3025e+009      0.2896   1914.6794      0.0000
              3      2      3    0.4779    0.4788    0.0060    0.0459   6.3102e+009   1.5418e+009      0.3937    559.7494      0.0000
              4      6      3    0.4788    0.6905    1.5824    0.0459   6.3102e+009   1.5418e+009      0.3937    559.7494      0.1630
              5     13      3    0.6905    1.0000    2.2252    0.0459   6.3102e+009   1.5418e+009      0.3937    559.7494      0.1620

            panel:  1     
           lam_num    nPlies        tPly      fibAng     matID  matName
               (-)       (-)         (m)       (deg)       (-)  (-)
                 1         1    0.005000      0.0000         2  (blade-shell)
                 2         1    0.060000      0.0000         5  (LEP-core)
                 3         1    0.005000      0.0000         2  (blade-shell)

               lamina:  1     
              matName:  (blade-shell)
                     s           e11           e22           e12           s11           s22           s12   s11_fcT   s11_fcC   s22_fcT   s22_fcC   s12_fcS
                   (m)         (m/m)         (m/m)         (rad)          (Pa)          (Pa)          (Pa)       (-)       (-)       (-)       (-)       (-)
                0.0000   1.1182e-003  -4.3606e-004   1.1485e-004   3.1377e+007   1.7059e+005   8.0393e+005    0.2179   -0.0000    0.0000   -0.0000    0.0134
                0.0982   1.1022e-003  -4.2983e-004   1.3411e-004   3.0929e+007   1.6826e+005   9.3874e+005    0.2148   -0.0000    0.0000   -0.0000    0.0156
                0.2196   1.0698e-003  -4.1716e-004   1.5744e-004   3.0019e+007   1.6350e+005   1.1021e+006    0.2085   -0.0000    0.0000   -0.0000    0.0184
                0.3709   1.0217e-003  -3.9842e-004   1.8547e-004   2.8671e+007   1.5632e+005   1.2983e+006    0.1991   -0.0000    0.0000   -0.0000    0.0216
                0.5543   9.5860e-004  -3.7380e-004   2.1768e-004   2.6899e+007   1.4676e+005   1.5237e+006    0.1868   -0.0000    0.0000   -0.0000    0.0254
                0.7678   8.8112e-004  -3.4358e-004   2.5255e-004   2.4725e+007   1.3497e+005   1.7679e+006    0.1717   -0.0000    0.0000   -0.0000    0.0295
                1.0071   7.9057e-004  -3.0827e-004   2.8809e-004   2.2184e+007   1.2117e+005   2.0166e+006    0.1541   -0.0000    0.0000   -0.0000    0.0336
                1.2690   6.8828e-004  -2.6837e-004   3.2253e-004   1.9314e+007   1.0556e+005   2.2577e+006    0.1341   -0.0000    0.0000   -0.0000    0.0376
                1.5506   5.7560e-004  -2.2443e-004   3.5422e-004   1.6152e+007   8.8378e+004   2.4795e+006    0.1122   -0.0000    0.0000   -0.0000    0.0413
                1.8467   4.5462e-004  -1.7725e-004   3.8144e-004   1.2757e+007   6.9950e+004   2.6701e+006    0.0886   -0.0000    0.0000   -0.0000    0.0445
                2.1566   3.2749e-004  -1.2767e-004   4.0315e-004   9.1898e+006   5.0548e+004   2.8221e+006    0.0638   -0.0000    0.0000   -0.0000    0.0470
                2.3081   2.6555e-004  -1.0351e-004   4.1124e-004   7.4518e+006   4.1162e+004   2.8787e+006    0.0517   -0.0000    0.0000   -0.0000    0.0480

               lamina:  2     
              matName:  (LEP-core)
                     s           e11           e22           e12           s11           s22           s12   s11_fcT   s11_fcC   s22_fcT   s22_fcC   s12_fcS
                   (m)         (m/m)         (m/m)         (rad)          (Pa)          (Pa)          (Pa)       (-)       (-)       (-)       (-)       (-)
                0.0000   1.1159e-003  -4.3517e-004   1.1485e-004   2.8154e+005  -2.8683e+004   2.2969e+003    0.0000   -0.0000    0.0000    0.0000    0.0000
                0.0982   1.1001e-003  -4.2900e-004   1.3411e-004   2.7755e+005  -2.8275e+004   2.6821e+003    0.0000   -0.0000    0.0000    0.0000    0.0000
                0.2196   1.0680e-003  -4.1646e-004   1.5744e-004   2.6945e+005  -2.7446e+004   3.1487e+003    0.0000   -0.0000    0.0000    0.0000    0.0000
                0.3709   1.0203e-003  -3.9784e-004   1.8547e-004   2.5740e+005  -2.6217e+004   3.7094e+003    0.0000   -0.0000    0.0000    0.0000    0.0000
                0.5543   9.5735e-004  -3.7330e-004   2.1768e-004   2.4153e+005  -2.4599e+004   4.3535e+003    0.0000   -0.0000    0.0000    0.0000    0.0000
                0.7678   8.8008e-004  -3.4316e-004   2.5255e-004   2.2204e+005  -2.2612e+004   5.0510e+003    0.0000   -0.0000    0.0000    0.0000    0.0000
                1.0071   7.8973e-004  -3.0793e-004   2.8809e-004   1.9924e+005  -2.0289e+004   5.7618e+003    0.0000   -0.0000    0.0000    0.0000    0.0000
                1.2690   6.8764e-004  -2.6812e-004   3.2253e-004   1.7349e+005  -1.7665e+004   6.4507e+003    0.0000   -0.0000    0.0000    0.0000    0.0000
                1.5506   5.7519e-004  -2.2427e-004   3.5422e-004   1.4512e+005  -1.4775e+004   7.0844e+003    0.0000   -0.0000    0.0000    0.0000    0.0000
                1.8467   4.5449e-004  -1.7720e-004   3.8144e-004   1.1467e+005  -1.1672e+004   7.6289e+003    0.0000   -0.0000    0.0000    0.0000    0.0000
                2.1566   3.2919e-004  -1.2835e-004   4.0315e-004   8.3053e+004  -8.4549e+003   8.0631e+003    0.0000   -0.0000    0.0000    0.0000    0.0000
                2.3081   2.7019e-004  -1.0536e-004   4.1124e-004   6.8166e+004  -6.9428e+003   8.2248e+003    0.0000   -0.0000    0.0000    0.0000    0.0000

               lamina:  3     
              matName:  (blade-shell)
                     s           e11           e22           e12           s11           s22           s12   s11_fcT   s11_fcC   s22_fcT   s22_fcC   s12_fcS
                   (m)         (m/m)         (m/m)         (rad)          (Pa)          (Pa)          (Pa)       (-)       (-)       (-)       (-)       (-)
                0.0000   1.0889e-003  -4.2443e-004   1.1485e-004   3.0556e+007   1.6921e+005   8.0393e+005    0.2122   -0.0000    0.0000   -0.0000    0.0134
                0.0982   1.0750e-003  -4.1905e-004   1.3411e-004   3.0168e+007   1.6698e+005   9.3874e+005    0.2095   -0.0000    0.0000   -0.0000    0.0156
                0.2196   1.0469e-003  -4.0809e-004   1.5744e-004   2.9379e+007   1.6243e+005   1.1021e+006    0.2040   -0.0000    0.0000   -0.0000    0.0184
                0.3709   1.0026e-003  -3.9082e-004   1.8547e-004   2.8134e+007   1.5542e+005   1.2983e+006    0.1954   -0.0000    0.0000   -0.0000    0.0216
                0.5543   9.4235e-004  -3.6735e-004   2.1768e-004   2.6444e+007   1.4599e+005   1.5237e+006    0.1836   -0.0000    0.0000   -0.0000    0.0254
                0.7678   8.6751e-004  -3.3818e-004   2.5255e-004   2.4344e+007   1.3433e+005   1.7679e+006    0.1691   -0.0000    0.0000   -0.0000    0.0295
                1.0071   7.7960e-004  -3.0391e-004   2.8809e-004   2.1877e+007   1.2066e+005   2.0166e+006    0.1519   -0.0000    0.0000   -0.0000    0.0336
                1.2690   6.7995e-004  -2.6507e-004   3.2253e-004   1.9081e+007   1.0517e+005   2.2577e+006    0.1325   -0.0000    0.0000   -0.0000    0.0376
                1.5506   5.7030e-004  -2.2233e-004   3.5422e-004   1.6004e+007   8.8129e+004   2.4795e+006    0.1111   -0.0000    0.0000   -0.0000    0.0413
                1.8467   4.5298e-004  -1.7660e-004   3.8144e-004   1.2711e+007   6.9873e+004   2.6701e+006    0.0883   -0.0000    0.0000   -0.0000    0.0445
                2.1566   3.2933e-004  -1.2841e-004   4.0315e-004   9.2415e+006   5.0634e+004   2.8221e+006    0.0642   -0.0000    0.0000   -0.0000    0.0470
                2.3081   2.7058e-004  -1.0551e-004   4.1124e-004   7.5927e+006   4.1398e+004   2.8787e+006    0.0527   -0.0000    0.0000   -0.0000    0.0480

            panel:  2     
           lam_num    nPlies        tPly      fibAng     matID  matName
               (-)       (-)         (m)       (deg)       (-)  (-)
                 1         1    0.005000      0.0000         2  (blade-shell)
                 2         1    0.061104      0.0000         3  (spar-uni)
                 3         1    0.000002      0.0000         4  (spar-core)
                 4         1    0.061104      0.0000         3  (spar-uni)
                 5         1    0.005000      0.0000         2  (blade-shell)

               lamina:  1     
              matName:  (blade-shell)
                     s           e11           e22           e12           s11           s22           s12   s11_fcT   s11_fcC   s22_fcT   s22_fcC   s12_fcS
                   (m)         (m/m)         (m/m)         (rad)          (Pa)          (Pa)          (Pa)       (-)       (-)       (-)       (-)       (-)
                0.0000   2.5752e-004  -7.4361e-005   8.6612e-005   7.3849e+006   4.3593e+005   6.0628e+005    0.0513   -0.0000    0.0000   -0.0000    0.0101
                0.1662   1.8367e-004  -5.2852e-005   1.0764e-004   5.2683e+006   3.1373e+005   7.5351e+005    0.0366   -0.0000    0.0000   -0.0000    0.0126
                0.5043   4.5604e-005  -1.2744e-005   1.3265e-004   1.3104e+006   8.3659e+004   9.2856e+005    0.0091   -0.0000    0.0000   -0.0000    0.0155
                0.8616  -9.5902e-005   2.8385e-005   1.3397e-004  -2.7460e+006  -1.5181e+005   9.3777e+005    0.0000    0.0129    0.0000    0.0000    0.0156
                1.2365  -2.3386e-004   6.8398e-005   1.0863e-004  -6.7012e+006  -3.8267e+005   7.6043e+005    0.0000    0.0315    0.0000    0.0000    0.0127
                1.4588  -3.1348e-004   9.1484e-005   8.1021e-005  -8.9838e+006  -5.1598e+005   5.6715e+005    0.0000    0.0422    0.0000    0.0000    0.0095

               lamina:  2     
              matName:  (spar-uni)
                     s           e11           e22           e12           s11           s22           s12   s11_fcT   s11_fcC   s22_fcT   s22_fcC   s12_fcS
                   (m)         (m/m)         (m/m)         (rad)          (Pa)          (Pa)          (Pa)       (-)       (-)       (-)       (-)       (-)
                0.0000   2.6987e-004  -7.8144e-005   8.6612e-005   1.1324e+007  -3.7110e+004   2.5983e+005    0.0117   -0.0000    0.0000    0.0000    0.0087
                0.1662   2.0347e-004  -5.8919e-005   1.0764e-004   8.5381e+006  -2.7980e+004   3.2293e+005    0.0088   -0.0000    0.0000    0.0000    0.0108
                0.5043   7.3050e-005  -2.1153e-005   1.3265e-004   3.0653e+006  -1.0045e+004   3.9796e+005    0.0032   -0.0000    0.0000    0.0000    0.0133
                0.8616  -9.3136e-005   2.7537e-005   1.3397e-004  -3.9059e+006   2.0974e+004   4.0190e+005    0.0000    0.0056    0.0000   -0.0000    0.0134
                1.2365  -2.3081e-004   6.7461e-005   1.0863e-004  -9.6824e+006   4.0765e+004   3.2590e+005    0.0000    0.0138    0.0000   -0.0000    0.0109
                1.4588  -3.1028e-004   9.0503e-005   8.1021e-005  -1.3017e+007   5.2124e+004   2.4306e+005    0.0000    0.0185    0.0000   -0.0000    0.0081

               lamina:  3     
              matName:  (spar-core)
                     s           e11           e22           e12           s11           s22           s12   s11_fcT   s11_fcC   s22_fcT   s22_fcC   s12_fcS
                   (m)         (m/m)         (m/m)         (rad)          (Pa)          (Pa)          (Pa)       (-)       (-)       (-)       (-)       (-)
                0.0000   2.6987e-004  -7.8145e-005   8.6612e-005   7.0407e+004   8.0454e+002   1.7322e+003    0.0000   -0.0000    0.0000   -0.0000    0.0000
                0.1662   2.0347e-004  -5.8919e-005   1.0764e-004   5.3085e+004   6.0661e+002   2.1529e+003    0.0000   -0.0000    0.0000   -0.0000    0.0000
                0.5043   7.3051e-005  -2.1153e-005   1.3265e-004   1.9059e+004   2.1778e+002   2.6530e+003    0.0000   -0.0000    0.0000   -0.0000    0.0000
                0.8616  -5.9338e-005   1.7182e-005   1.3397e-004  -1.5481e+004  -1.7690e+002   2.6793e+003    0.0000    0.0000    0.0000    0.0000    0.0000
                1.2365  -1.9345e-004   5.6016e-005   1.0863e-004  -5.0470e+004  -5.7672e+002   2.1727e+003    0.0000    0.0000    0.0000    0.0000    0.0000
                1.4588  -2.7114e-004   7.8512e-005   8.1021e-005  -7.0738e+004  -8.0833e+002   1.6204e+003    0.0000    0.0000    0.0000    0.0000    0.0000

               lamina:  4     
              matName:  (spar-uni)
                     s           e11           e22           e12           s11           s22           s12   s11_fcT   s11_fcC   s22_fcT   s22_fcC   s12_fcS
                   (m)         (m/m)         (m/m)         (rad)          (Pa)          (Pa)          (Pa)       (-)       (-)       (-)       (-)       (-)
                0.0000   2.8222e-004  -8.1928e-005   8.6612e-005   1.1841e+007  -4.1792e+004   2.5983e+005    0.0122   -0.0000    0.0000    0.0000    0.0087
                0.1662   2.2328e-004  -6.4986e-005   1.0764e-004   9.3677e+006  -3.5488e+004   3.2293e+005    0.0096   -0.0000    0.0000    0.0000    0.0108
                0.5043   1.0050e-004  -2.9562e-005   1.3265e-004   4.2152e+006  -2.0452e+004   3.9796e+005    0.0043   -0.0000    0.0000    0.0000    0.0133
                0.8616  -5.9337e-005   1.7182e-005   1.3397e-004  -2.4899e+006   8.1594e+003   4.0190e+005    0.0000    0.0035    0.0000   -0.0000    0.0134
                1.2365  -1.9345e-004   5.6016e-005   1.0863e-004  -8.1173e+006   2.6601e+004   3.2590e+005    0.0000    0.0116    0.0000   -0.0000    0.0109
                1.4588  -2.7114e-004   7.8512e-005   8.1021e-005  -1.1377e+007   3.7284e+004   2.4306e+005    0.0000    0.0162    0.0000   -0.0000    0.0081

               lamina:  5     
              matName:  (blade-shell)
                     s           e11           e22           e12           s11           s22           s12   s11_fcT   s11_fcC   s22_fcT   s22_fcC   s12_fcS
                   (m)         (m/m)         (m/m)         (rad)          (Pa)          (Pa)          (Pa)       (-)       (-)       (-)       (-)       (-)
                0.0000   2.8323e-004  -8.2237e-005   8.6612e-005   8.1194e+006   4.7255e+005   6.0628e+005    0.0564   -0.0000    0.0000   -0.0000    0.0101
                0.1662   2.2490e-004  -6.5483e-005   1.0764e-004   6.4461e+006   3.7247e+005   7.5351e+005    0.0448   -0.0000    0.0000   -0.0000    0.0126
                0.5043   1.0274e-004  -3.0250e-005   1.3265e-004   2.9428e+006   1.6507e+005   9.2856e+005    0.0204   -0.0000    0.0000   -0.0000    0.0155
                0.8616  -2.5538e-005   6.8270e-006   1.3397e-004  -7.3570e+005  -5.1563e+004   9.3777e+005    0.0000    0.0035    0.0000    0.0000    0.0156
                1.2365  -1.5609e-004   4.4571e-005   1.0863e-004  -4.4793e+006  -2.7187e+005   7.6043e+005    0.0000    0.0210    0.0000    0.0000    0.0127
                1.4588  -2.3200e-004   6.6521e-005   8.1021e-005  -6.6559e+006  -3.9989e+005   5.6715e+005    0.0000    0.0312    0.0000    0.0000    0.0095

            panel:  3     
           lam_num    nPlies        tPly      fibAng     matID  matName
               (-)       (-)         (m)       (deg)       (-)  (-)
                 1         1    0.005000      0.0000         2  (blade-shell)
                 2         1    0.035865      0.0000         6  (TEP-core)
                 3         1    0.005000      0.0000         2  (blade-shell)

               lamina:  1     
              matName:  (blade-shell)
                     s           e11           e22           e12           s11           s22           s12   s11_fcT   s11_fcC   s22_fcT   s22_fcC   s12_fcS
                   (m)         (m/m)         (m/m)         (rad)          (Pa)          (Pa)          (Pa)       (-)       (-)       (-)       (-)       (-)
                0.0000  -2.8594e-004   1.1260e-004   5.0025e-004  -8.0171e+006  -2.7030e+004   3.5017e+006    0.0000    0.0376    0.0000    0.0000    0.0584
                0.0060  -2.8804e-004   1.1343e-004   4.9995e-004  -8.0761e+006  -2.7232e+004   3.4996e+006    0.0000    0.0379    0.0000    0.0000    0.0583

               lamina:  2     
              matName:  (TEP-core)
                     s           e11           e22           e12           s11           s22           s12   s11_fcT   s11_fcC   s22_fcT   s22_fcC   s12_fcS
                   (m)         (m/m)         (m/m)         (rad)          (Pa)          (Pa)          (Pa)       (-)       (-)       (-)       (-)       (-)
                0.0000  -2.8463e-004   1.1208e-004   5.0025e-004  -7.1716e+004   7.6254e+003   1.0005e+004    0.0000    0.0000    0.0000   -0.0000    0.0000
                0.0060  -2.8673e-004   1.1291e-004   4.9995e-004  -7.2246e+004   7.6817e+003   9.9989e+003    0.0000    0.0000    0.0000   -0.0000    0.0000

               lamina:  3     
              matName:  (blade-shell)
                     s           e11           e22           e12           s11           s22           s12   s11_fcT   s11_fcC   s22_fcT   s22_fcC   s12_fcS
                   (m)         (m/m)         (m/m)         (rad)          (Pa)          (Pa)          (Pa)       (-)       (-)       (-)       (-)       (-)
                0.0000  -2.7524e-004   1.0834e-004   5.0025e-004  -7.7174e+006  -2.6755e+004   3.5017e+006    0.0000    0.0362    0.0000    0.0000    0.0584
                0.0060  -2.7734e-004   1.0917e-004   4.9995e-004  -7.7764e+006  -2.6957e+004   3.4996e+006    0.0000    0.0365    0.0000    0.0000    0.0583

            panel:  4     
           lam_num    nPlies        tPly      fibAng     matID  matName
               (-)       (-)         (m)       (deg)       (-)  (-)
                 1         1    0.005000      0.0000         2  (blade-shell)
                 2         1    0.035865      0.0000         6  (TEP-core)
                 3         1    0.005000      0.0000         2  (blade-shell)

               lamina:  1     
              matName:  (blade-shell)
                     s           e11           e22           e12           s11           s22           s12   s11_fcT   s11_fcC   s22_fcT   s22_fcC   s12_fcS
                   (m)         (m/m)         (m/m)         (rad)          (Pa)          (Pa)          (Pa)       (-)       (-)       (-)       (-)       (-)
                0.0000  -2.8804e-004   1.1343e-004   5.8795e-004  -8.0761e+006  -2.7232e+004   4.1157e+006    0.0000    0.0379    0.0000    0.0000    0.0686
                0.1573  -3.4315e-004   1.3512e-004   5.8765e-004  -9.6211e+006  -3.2512e+004   4.1136e+006    0.0000    0.0452    0.0000    0.0000    0.0686
                0.5474  -4.7799e-004   1.8821e-004   5.8765e-004  -1.3402e+007  -4.5451e+004   4.1136e+006    0.0000    0.0629    0.0000    0.0000    0.0686
                0.9348  -6.1103e-004   2.4058e-004   5.7906e-004  -1.7132e+007  -5.8221e+004   4.0534e+006    0.0000    0.0804    0.0000    0.0000    0.0676
                1.3136  -7.4118e-004   2.9182e-004   5.5123e-004  -2.0781e+007  -7.0720e+004   3.8586e+006    0.0000    0.0976    0.0000    0.0000    0.0643
                1.5824  -8.3416e-004   3.2843e-004   5.1443e-004  -2.3388e+007  -7.9651e+004   3.6010e+006    0.0000    0.1098    0.0000    0.0000    0.0600

               lamina:  2     
              matName:  (TEP-core)
                     s           e11           e22           e12           s11           s22           s12   s11_fcT   s11_fcC   s22_fcT   s22_fcC   s12_fcS
                   (m)         (m/m)         (m/m)         (rad)          (Pa)          (Pa)          (Pa)       (-)       (-)       (-)       (-)       (-)
                0.0000  -2.8673e-004   1.1291e-004   5.8795e-004  -7.2246e+004   7.6817e+003   1.1759e+004    0.0000    0.0000    0.0000   -0.0000    0.0000
                0.1573  -3.4181e-004   1.3459e-004   5.8765e-004  -8.6123e+004   9.1561e+003   1.1753e+004    0.0000    0.0000    0.0000   -0.0000    0.0000
                0.5474  -4.7663e-004   1.8767e-004   5.8765e-004  -1.2009e+005   1.2765e+004   1.1753e+004    0.0000    0.0000    0.0000   -0.0000    0.0000
                0.9348  -6.0965e-004   2.4004e-004   5.7906e-004  -1.5361e+005   1.6326e+004   1.1581e+004    0.0000    0.0000    0.0000   -0.0000    0.0000
                1.3136  -7.3982e-004   2.9128e-004   5.5123e-004  -1.8641e+005   1.9810e+004   1.1025e+004    0.0000    0.0000    0.0000   -0.0000    0.0000
                1.5824  -8.3281e-004   3.2789e-004   5.1443e-004  -2.0984e+005   2.2300e+004   1.0289e+004    0.0000    0.0000    0.0000   -0.0000    0.0000

               lamina:  3     
              matName:  (blade-shell)
                     s           e11           e22           e12           s11           s22           s12   s11_fcT   s11_fcC   s22_fcT   s22_fcC   s12_fcS
                   (m)         (m/m)         (m/m)         (rad)          (Pa)          (Pa)          (Pa)       (-)       (-)       (-)       (-)       (-)
                0.0000  -2.7734e-004   1.0917e-004   5.8795e-004  -7.7764e+006  -2.6957e+004   4.1157e+006    0.0000    0.0365    0.0000    0.0000    0.0686
                0.1573  -3.3219e-004   1.3076e-004   5.8765e-004  -9.3142e+006  -3.2230e+004   4.1136e+006    0.0000    0.0437    0.0000    0.0000    0.0686
                0.5474  -4.6684e-004   1.8377e-004   5.8765e-004  -1.3090e+007  -4.5164e+004   4.1136e+006    0.0000    0.0615    0.0000    0.0000    0.0686
                0.9348  -5.9981e-004   2.3612e-004   5.7906e-004  -1.6818e+007  -5.7932e+004   4.0534e+006    0.0000    0.0790    0.0000    0.0000    0.0676
                1.3136  -7.3006e-004   2.8740e-004   5.5123e-004  -2.0470e+007  -7.0434e+004   3.8586e+006    0.0000    0.0961    0.0000    0.0000    0.0643
                1.5824  -8.2316e-004   3.2405e-004   5.1443e-004  -2.3080e+007  -7.9368e+004   3.6010e+006    0.0000    0.1084    0.0000    0.0000    0.0600

            panel:  5     
           lam_num    nPlies        tPly      fibAng     matID  matName
               (-)       (-)         (m)       (deg)       (-)  (-)
                 1         1    0.005000      0.0000         2  (blade-shell)
                 2         1    0.035865      0.0000         6  (TEP-core)
                 3         1    0.005000      0.0000         2  (blade-shell)

               lamina:  1     
              matName:  (blade-shell)
                     s           e11           e22           e12           s11           s22           s12   s11_fcT   s11_fcC   s22_fcT   s22_fcC   s12_fcS
                   (m)         (m/m)         (m/m)         (rad)          (Pa)          (Pa)          (Pa)       (-)       (-)       (-)       (-)       (-)
                0.0000  -8.3416e-004   3.2843e-004   4.6966e-004  -2.3388e+007  -7.9651e+004   3.2876e+006    0.0000    0.1098    0.0000    0.0000    0.0548
                0.0963  -8.6726e-004   3.4146e-004   4.3258e-004  -2.4316e+007  -8.2844e+004   3.0281e+006    0.0000    0.1142    0.0000    0.0000    0.0505
                0.4415  -9.8838e-004   3.8914e-004   4.7368e-004  -2.7713e+007  -9.4490e+004   3.3158e+006    0.0000    0.1301    0.0000    0.0000    0.0553
                0.7634  -1.1033e-003   4.3438e-004   4.5934e-004  -3.0934e+007  -1.0555e+005   3.2153e+006    0.0000    0.1452    0.0000    0.0000    0.0536
                1.0580  -1.2110e-003   4.7678e-004   4.0317e-004  -3.3954e+007  -1.1594e+005   2.8222e+006    0.0000    0.1594    0.0000    0.0000    0.0470
                1.3229  -1.3104e-003   5.1592e-004   3.4407e-004  -3.6742e+007  -1.2554e+005   2.4085e+006    0.0000    0.1725    0.0000    0.0000    0.0401
                1.5568  -1.4001e-003   5.5124e-004   2.8416e-004  -3.9258e+007  -1.3421e+005   1.9891e+006    0.0000    0.1843    0.0000    0.0000    0.0332
                1.7586  -1.4789e-003   5.8224e-004   2.2543e-004  -4.1466e+007  -1.4183e+005   1.5780e+006    0.0000    0.1947    0.0000    0.0000    0.0263
                1.9272  -1.5455e-003   6.0845e-004   1.6964e-004  -4.3333e+007  -1.4828e+005   1.1875e+006    0.0000    0.2034    0.0000    0.0000    0.0198
                2.0614  -1.5988e-003   6.2943e-004   1.1847e-004  -4.4827e+007  -1.5345e+005   8.2931e+005    0.0000    0.2105    0.0000    0.0000    0.0138
                2.1596  -1.6378e-003   6.4480e-004   7.3532e-005  -4.5922e+007  -1.5725e+005   5.1472e+005    0.0000    0.2156    0.0000    0.0000    0.0086
                2.2143  -1.6622e-003   6.5440e-004   3.6313e-005  -4.6605e+007  -1.5943e+005   2.5419e+005    0.0000    0.2188    0.0000    0.0000    0.0042
                2.2252  -1.6702e-003   6.5758e-004   8.2780e-006  -4.6829e+007  -1.5977e+005   5.7946e+004    0.0000    0.2199    0.0000    0.0000    0.0010

               lamina:  2     
              matName:  (TEP-core)
                     s           e11           e22           e12           s11           s22           s12   s11_fcT   s11_fcC   s22_fcT   s22_fcC   s12_fcS
                   (m)         (m/m)         (m/m)         (rad)          (Pa)          (Pa)          (Pa)       (-)       (-)       (-)       (-)       (-)
                0.0000  -8.3281e-004   3.2789e-004   4.6966e-004  -2.0984e+005   2.2300e+004   9.3932e+003    0.0000    0.0000    0.0000   -0.0000    0.0000
                0.0963  -8.6596e-004   3.4094e-004   4.3258e-004  -2.1819e+005   2.3187e+004   8.6516e+003    0.0000    0.0000    0.0000   -0.0000    0.0000
                0.4415  -9.8714e-004   3.8865e-004   4.7368e-004  -2.4873e+005   2.6430e+004   9.4737e+003    0.0000    0.0000    0.0000   -0.0000    0.0000
                0.7634  -1.1021e-003   4.3392e-004   4.5934e-004  -2.7770e+005   2.9509e+004   9.1867e+003    0.0000    0.0000    0.0000   -0.0000    0.0000
                1.0580  -1.2100e-003   4.7638e-004   4.0317e-004  -3.0488e+005   3.2395e+004   8.0634e+003    0.0000    0.0000    0.0000   -0.0000    0.0000
                1.3229  -1.3096e-003   5.1558e-004   3.4407e-004  -3.2997e+005   3.5060e+004   6.8814e+003    0.0000    0.0000    0.0000   -0.0000    0.0000
                1.5568  -1.3995e-003   5.5097e-004   2.8416e-004  -3.5262e+005   3.7465e+004   5.6832e+003    0.0000    0.0000    0.0000   -0.0000    0.0000
                1.7586  -1.4784e-003   5.8204e-004   2.2543e-004  -3.7251e+005   3.9578e+004   4.5087e+003    0.0000    0.0000    0.0000   -0.0000    0.0000
                1.9272  -1.5452e-003   6.0833e-004   1.6964e-004  -3.8934e+005   4.1364e+004   3.3928e+003    0.0000    0.0000    0.0000   -0.0000    0.0000
                2.0614  -1.5987e-003   6.2938e-004   1.1847e-004  -4.0281e+005   4.2795e+004   2.3695e+003    0.0000    0.0000    0.0000   -0.0000    0.0000
                2.1596  -1.6380e-003   6.4486e-004   7.3532e-005  -4.1272e+005   4.3847e+004   1.4706e+003    0.0000    0.0000    0.0000   -0.0000    0.0000
                2.2143  -1.6617e-003   6.5421e-004   3.6313e-005  -4.1870e+005   4.4485e+004   7.2627e+002    0.0000    0.0000    0.0000   -0.0000    0.0000
                2.2252  -1.6684e-003   6.5686e-004   8.2780e-006  -4.2038e+005   4.4669e+004   1.6556e+002    0.0000    0.0000    0.0000   -0.0000    0.0000

               lamina:  3     
              matName:  (blade-shell)
                     s           e11           e22           e12           s11           s22           s12   s11_fcT   s11_fcC   s22_fcT   s22_fcC   s12_fcS
                   (m)         (m/m)         (m/m)         (rad)          (Pa)          (Pa)          (Pa)       (-)       (-)       (-)       (-)       (-)
                0.0000  -8.2316e-004   3.2405e-004   4.6966e-004  -2.3080e+007  -7.9368e+004   3.2876e+006    0.0000    0.1084    0.0000    0.0000    0.0548
                0.0963  -8.5664e-004   3.3723e-004   4.3258e-004  -2.4019e+007  -8.2571e+004   3.0281e+006    0.0000    0.1128    0.0000    0.0000    0.0505
                0.4415  -9.7819e-004   3.8508e-004   4.7368e-004  -2.7427e+007  -9.4228e+004   3.3158e+006    0.0000    0.1288    0.0000    0.0000    0.0553
                0.7634  -1.0939e-003   4.3064e-004   4.5934e-004  -3.0672e+007  -1.0531e+005   3.2153e+006    0.0000    0.1440    0.0000    0.0000    0.0536
                1.0580  -1.2028e-003   4.7350e-004   4.0317e-004  -3.3724e+007  -1.1573e+005   2.8222e+006    0.0000    0.1583    0.0000    0.0000    0.0470
                1.3229  -1.3035e-003   5.1316e-004   3.4407e-004  -3.6548e+007  -1.2536e+005   2.4085e+006    0.0000    0.1716    0.0000    0.0000    0.0401
                1.5568  -1.3946e-003   5.4904e-004   2.8416e-004  -3.9103e+007  -1.3406e+005   1.9891e+006    0.0000    0.1836    0.0000    0.0000    0.0332
                1.7586  -1.4749e-003   5.8063e-004   2.2543e-004  -4.1353e+007  -1.4172e+005   1.5780e+006    0.0000    0.1941    0.0000    0.0000    0.0263
                1.9272  -1.5429e-003   6.0744e-004   1.6964e-004  -4.3262e+007  -1.4821e+005   1.1875e+006    0.0000    0.2031    0.0000    0.0000    0.0198
                2.0614  -1.5977e-003   6.2901e-004   1.1847e-004  -4.4798e+007  -1.5343e+005   8.2931e+005    0.0000    0.2103    0.0000    0.0000    0.0138
                2.1596  -1.6380e-003   6.4487e-004   7.3532e-005  -4.5927e+007  -1.5725e+005   5.1472e+005    0.0000    0.2156    0.0000    0.0000    0.0086
                2.2143  -1.6583e-003   6.5287e-004   3.6313e-005  -4.6497e+007  -1.5933e+005   2.5419e+005    0.0000    0.2183    0.0000    0.0000    0.0042
                2.2252  -1.6554e-003   6.5170e-004   8.2780e-006  -4.6416e+007  -1.5939e+005   5.7946e+004    0.0000    0.2179    0.0000    0.0000    0.0010

     Web:  panel  nNode   nLam     xc_St    xc_End         b         t         E_eff         G_eff      nu_eff     density  buckleCrit
            (-)    (-)    (-)       (-)       (-)       (m)       (m)          (Pa)          (Pa)         (-)    (kg/m^3)         (-)
              1     10      3    0.2721    0.2721    1.9477    0.0830   7.6445e+008   4.5301e+008      0.4420    257.1084      0.0001
              2     10      3    0.4788    0.4788    1.6206    0.0830   7.6445e+008   4.5301e+008      0.4420    257.1084      0.0001
              3     10      3    0.6905    0.6905    0.7954    0.0830   7.6445e+008   4.5301e+008      0.4420    257.1084      0.0000

            panel:  1     
           lam_num    nPlies        tPly      fibAng     matID  matName
               (-)       (-)         (m)       (deg)       (-)  (-)
                 1         1    0.001500      0.0000         7  (web-shell)
                 2         1    0.080000      0.0000         8  (web-core)
                 3         1    0.001500      0.0000         7  (web-shell)

               lamina:  1     
              matName:  (web-shell)
                     s           e11           e22           e12           s11           s22           s12   s11_fcT   s11_fcC   s22_fcT   s22_fcC   s12_fcS
                   (m)         (m/m)         (m/m)         (rad)          (Pa)          (Pa)          (Pa)       (-)       (-)       (-)       (-)       (-)
                0.0000   4.0433e-004  -1.7798e-004   1.7773e-004   5.8863e+006   4.5139e+005   2.1328e+006    0.0409   -0.0000    0.0000   -0.0000    0.0237
                0.2164   3.8705e-004  -1.7034e-004   1.8430e-004   5.6350e+006   4.3269e+005   2.2116e+006    0.0391   -0.0000    0.0000   -0.0000    0.0246
                0.4328   3.6976e-004  -1.6270e-004   1.9059e-004   5.3837e+006   4.1398e+005   2.2871e+006    0.0374   -0.0000    0.0000   -0.0000    0.0254
                0.6492   3.5248e-004  -1.5507e-004   1.9661e-004   5.1324e+006   3.9528e+005   2.3594e+006    0.0356   -0.0000    0.0000   -0.0000    0.0262
                0.8657   3.3520e-004  -1.4743e-004   2.0237e-004   4.8811e+006   3.7658e+005   2.4284e+006    0.0339   -0.0000    0.0000   -0.0000    0.0270
                1.0821   3.1792e-004  -1.3979e-004   2.0784e-004   4.6298e+006   3.5788e+005   2.4941e+006    0.0322   -0.0000    0.0000   -0.0000    0.0277
                1.2985   3.0064e-004  -1.3215e-004   2.1305e-004   4.3785e+006   3.3918e+005   2.5566e+006    0.0304   -0.0000    0.0000   -0.0000    0.0284
                1.5149   2.8335e-004  -1.2451e-004   2.1798e-004   4.1272e+006   3.2048e+005   2.6158e+006    0.0287   -0.0000    0.0000   -0.0000    0.0291
                1.7313   2.6607e-004  -1.1687e-004   2.2265e-004   3.8759e+006   3.0178e+005   2.6718e+006    0.0269   -0.0000    0.0000   -0.0000    0.0297
                1.9477   2.4879e-004  -1.0923e-004   2.2704e-004   3.6246e+006   2.8307e+005   2.7244e+006    0.0252   -0.0000    0.0000   -0.0000    0.0303

               lamina:  2     
              matName:  (web-core)
                     s           e11           e22           e12           s11           s22           s12   s11_fcT   s11_fcC   s22_fcT   s22_fcC   s12_fcS
                   (m)         (m/m)         (m/m)         (rad)          (Pa)          (Pa)          (Pa)       (-)       (-)       (-)       (-)       (-)
                0.0000   4.4699e-004  -1.9832e-004   1.7773e-004   1.1071e+005  -1.8351e+004   3.5546e+003    0.0000   -0.0000    0.0000    0.0000    0.0000
                0.2164   4.2971e-004  -1.9068e-004   1.8430e-004   1.0643e+005  -1.7649e+004   3.6859e+003    0.0000   -0.0000    0.0000    0.0000    0.0000
                0.4328   4.1242e-004  -1.8305e-004   1.9059e-004   1.0215e+005  -1.6948e+004   3.8118e+003    0.0000   -0.0000    0.0000    0.0000    0.0000
                0.6492   3.9514e-004  -1.7541e-004   1.9661e-004   9.7863e+004  -1.6247e+004   3.9323e+003    0.0000   -0.0000    0.0000    0.0000    0.0000
                0.8657   3.7786e-004  -1.6777e-004   2.0237e-004   9.3580e+004  -1.5545e+004   4.0473e+003    0.0000   -0.0000    0.0000    0.0000    0.0000
                1.0821   3.6058e-004  -1.6013e-004   2.0784e-004   8.9297e+004  -1.4844e+004   4.1569e+003    0.0000   -0.0000    0.0000    0.0000    0.0000
                1.2985   3.4329e-004  -1.5249e-004   2.1305e-004   8.5014e+004  -1.4143e+004   4.2610e+003    0.0000   -0.0000    0.0000    0.0000    0.0000
                1.5149   3.2601e-004  -1.4485e-004   2.1798e-004   8.0731e+004  -1.3442e+004   4.3597e+003    0.0000   -0.0000    0.0000    0.0000    0.0000
                1.7313   3.0873e-004  -1.3721e-004   2.2265e-004   7.6448e+004  -1.2740e+004   4.4529e+003    0.0000   -0.0000    0.0000    0.0000    0.0000
                1.9477   2.9145e-004  -1.2957e-004   2.2704e-004   7.2165e+004  -1.2039e+004   4.5407e+003    0.0000   -0.0000    0.0000    0.0000    0.0000

               lamina:  3     
              matName:  (web-shell)
                     s           e11           e22           e12           s11           s22           s12   s11_fcT   s11_fcC   s22_fcT   s22_fcC   s12_fcS
                   (m)         (m/m)         (m/m)         (rad)          (Pa)          (Pa)          (Pa)       (-)       (-)       (-)       (-)       (-)
                0.0000   4.4779e-004  -1.9871e-004   1.7773e-004   6.5041e+006   4.7019e+005   2.1328e+006    0.0452   -0.0000    0.0000   -0.0000    0.0237
                0.2164   4.3051e-004  -1.9107e-004   1.8430e-004   6.2528e+006   4.5149e+005   2.2116e+006    0.0434   -0.0000    0.0000   -0.0000    0.0246
                0.4328   4.1322e-004  -1.8343e-004   1.9059e-004   6.0015e+006   4.3279e+005   2.2871e+006    0.0417   -0.0000    0.0000   -0.0000    0.0254
                0.6492   3.9594e-004  -1.7579e-004   1.9661e-004   5.7502e+006   4.1409e+005   2.3594e+006    0.0399   -0.0000    0.0000   -0.0000    0.0262
                0.8657   3.7866e-004  -1.6815e-004   2.0237e-004   5.4989e+006   3.9538e+005   2.4284e+006    0.0382   -0.0000    0.0000   -0.0000    0.0270
                1.0821   3.6138e-004  -1.6051e-004   2.0784e-004   5.2476e+006   3.7668e+005   2.4941e+006    0.0364   -0.0000    0.0000   -0.0000    0.0277
                1.2985   3.4409e-004  -1.5287e-004   2.1305e-004   4.9963e+006   3.5798e+005   2.5566e+006    0.0347   -0.0000    0.0000   -0.0000    0.0284
                1.5149   3.2681e-004  -1.4523e-004   2.1798e-004   4.7450e+006   3.3928e+005   2.6158e+006    0.0330   -0.0000    0.0000   -0.0000    0.0291
                1.7313   3.0953e-004  -1.3759e-004   2.2265e-004   4.4937e+006   3.2058e+005   2.6718e+006    0.0312   -0.0000    0.0000   -0.0000    0.0297
                1.9477   2.9225e-004  -1.2995e-004   2.2704e-004   4.2424e+006   3.0188e+005   2.7244e+006    0.0295   -0.0000    0.0000   -0.0000    0.0303

            panel:  2     
           lam_num    nPlies        tPly      fibAng     matID  matName
               (-)       (-)         (m)       (deg)       (-)  (-)
                 1         1    0.001500      0.0000         7  (web-shell)
                 2         1    0.080000      0.0000         8  (web-core)
                 3         1    0.001500      0.0000         7  (web-shell)

               lamina:  1     
              matName:  (web-shell)
                     s           e11           e22           e12           s11           s22           s12   s11_fcT   s11_fcC   s22_fcT   s22_fcC   s12_fcS
                   (m)         (m/m)         (m/m)         (rad)          (Pa)          (Pa)          (Pa)       (-)       (-)       (-)       (-)       (-)
                0.0000  -1.7306e-004   7.7268e-005   1.9076e-004  -2.5093e+006  -1.7289e+005   2.2892e+006    0.0000    0.0118    0.0000    0.0000    0.0254
                0.1801  -1.8711e-004   8.3479e-005   1.8869e-004  -2.7136e+006  -1.8809e+005   2.2643e+006    0.0000    0.0127    0.0000    0.0000    0.0252
                0.3601  -2.0116e-004   8.9690e-005   1.8644e-004  -2.9179e+006  -2.0330e+005   2.2373e+006    0.0000    0.0137    0.0000    0.0000    0.0249
                0.5402  -2.1521e-004   9.5900e-005   1.8400e-004  -3.1222e+006  -2.1850e+005   2.2080e+006    0.0000    0.0147    0.0000    0.0000    0.0245
                0.7203  -2.2926e-004   1.0211e-004   1.8138e-004  -3.3265e+006  -2.3370e+005   2.1766e+006    0.0000    0.0156    0.0000    0.0000    0.0242
                0.9003  -2.4331e-004   1.0832e-004   1.7858e-004  -3.5308e+006  -2.4891e+005   2.1429e+006    0.0000    0.0166    0.0000    0.0000    0.0238
                1.0804  -2.5736e-004   1.1453e-004   1.7559e-004  -3.7351e+006  -2.6411e+005   2.1071e+006    0.0000    0.0175    0.0000    0.0000    0.0234
                1.2605  -2.7141e-004   1.2074e-004   1.7241e-004  -3.9395e+006  -2.7932e+005   2.0690e+006    0.0000    0.0185    0.0000    0.0000    0.0230
                1.4405  -2.8546e-004   1.2695e-004   1.6906e-004  -4.1438e+006  -2.9452e+005   2.0287e+006    0.0000    0.0195    0.0000    0.0000    0.0225
                1.6206  -2.9951e-004   1.3316e-004   1.6552e-004  -4.3481e+006  -3.0973e+005   1.9862e+006    0.0000    0.0204    0.0000    0.0000    0.0221

               lamina:  2     
              matName:  (web-core)
                     s           e11           e22           e12           s11           s22           s12   s11_fcT   s11_fcC   s22_fcT   s22_fcC   s12_fcS
                   (m)         (m/m)         (m/m)         (rad)          (Pa)          (Pa)          (Pa)       (-)       (-)       (-)       (-)       (-)
                0.0000  -1.7226e-004   7.6886e-005   1.9076e-004  -4.2627e+004   7.2025e+003   3.8153e+003    0.0000    0.0000    0.0000   -0.0000    0.0000
                0.1801  -1.8631e-004   8.3097e-005   1.8869e-004  -4.6109e+004   7.7726e+003   3.7739e+003    0.0000    0.0000    0.0000   -0.0000    0.0000
                0.3601  -2.0036e-004   8.9308e-005   1.8644e-004  -4.9591e+004   8.3428e+003   3.7288e+003    0.0000    0.0000    0.0000   -0.0000    0.0000
                0.5402  -2.1441e-004   9.5519e-005   1.8400e-004  -5.3073e+004   8.9130e+003   3.6801e+003    0.0000    0.0000    0.0000   -0.0000    0.0000
                0.7203  -2.2846e-004   1.0173e-004   1.8138e-004  -5.6555e+004   9.4831e+003   3.6277e+003    0.0000    0.0000    0.0000   -0.0000    0.0000
                0.9003  -2.4251e-004   1.0794e-004   1.7858e-004  -6.0037e+004   1.0053e+004   3.5716e+003    0.0000    0.0000    0.0000   -0.0000    0.0000
                1.0804  -2.5656e-004   1.1415e-004   1.7559e-004  -6.3519e+004   1.0623e+004   3.5118e+003    0.0000    0.0000    0.0000   -0.0000    0.0000
                1.2605  -2.7061e-004   1.2036e-004   1.7241e-004  -6.7001e+004   1.1194e+004   3.4483e+003    0.0000    0.0000    0.0000   -0.0000    0.0000
                1.4405  -2.8466e-004   1.2657e-004   1.6906e-004  -7.0483e+004   1.1764e+004   3.3811e+003    0.0000    0.0000    0.0000   -0.0000    0.0000
                1.6206  -2.9871e-004   1.3278e-004   1.6552e-004  -7.3966e+004   1.2334e+004   3.3103e+003    0.0000    0.0000    0.0000   -0.0000    0.0000

               lamina:  3     
              matName:  (web-shell)
                     s           e11           e22           e12           s11           s22           s12   s11_fcT   s11_fcC   s22_fcT   s22_fcC   s12_fcS
                   (m)         (m/m)         (m/m)         (rad)          (Pa)          (Pa)          (Pa)       (-)       (-)       (-)       (-)       (-)
                0.0000  -1.2956e-004   5.6527e-005   1.9076e-004  -1.8909e+006  -1.5407e+005   2.2892e+006    0.0000    0.0089    0.0000    0.0000    0.0254
                0.1801  -1.4361e-004   6.2738e-005   1.8869e-004  -2.0952e+006  -1.6927e+005   2.2643e+006    0.0000    0.0098    0.0000    0.0000    0.0252
                0.3601  -1.5766e-004   6.8949e-005   1.8644e-004  -2.2995e+006  -1.8448e+005   2.2373e+006    0.0000    0.0108    0.0000    0.0000    0.0249
                0.5402  -1.7171e-004   7.5159e-005   1.8400e-004  -2.5038e+006  -1.9968e+005   2.2080e+006    0.0000    0.0118    0.0000    0.0000    0.0245
                0.7203  -1.8576e-004   8.1370e-005   1.8138e-004  -2.7081e+006  -2.1489e+005   2.1766e+006    0.0000    0.0127    0.0000    0.0000    0.0242
                0.9003  -1.9981e-004   8.7581e-005   1.7858e-004  -2.9124e+006  -2.3009e+005   2.1429e+006    0.0000    0.0137    0.0000    0.0000    0.0238
                1.0804  -2.1386e-004   9.3792e-005   1.7559e-004  -3.1168e+006  -2.4529e+005   2.1071e+006    0.0000    0.0146    0.0000    0.0000    0.0234
                1.2605  -2.2792e-004   1.0000e-004   1.7241e-004  -3.3211e+006  -2.6050e+005   2.0690e+006    0.0000    0.0156    0.0000    0.0000    0.0230
                1.4405  -2.4197e-004   1.0621e-004   1.6906e-004  -3.5254e+006  -2.7570e+005   2.0287e+006    0.0000    0.0166    0.0000    0.0000    0.0225
                1.6206  -2.5602e-004   1.1242e-004   1.6552e-004  -3.7297e+006  -2.9091e+005   1.9862e+006    0.0000    0.0175    0.0000    0.0000    0.0221

            panel:  3     
           lam_num    nPlies        tPly      fibAng     matID  matName
               (-)       (-)         (m)       (deg)       (-)  (-)
                 1         1    0.001500      0.0000         7  (web-shell)
                 2         1    0.080000      0.0000         8  (web-core)
                 3         1    0.001500      0.0000         7  (web-shell)

               lamina:  1     
              matName:  (web-shell)
                     s           e11           e22           e12           s11           s22           s12   s11_fcT   s11_fcC   s22_fcT   s22_fcC   s12_fcS
                   (m)         (m/m)         (m/m)         (rad)          (Pa)          (Pa)          (Pa)       (-)       (-)       (-)       (-)       (-)
                0.0000  -7.8387e-004   3.4726e-004   1.2316e-004  -1.1391e+007  -8.3385e+005   1.4780e+006    0.0000    0.0535    0.0000    0.0000    0.0164
                0.0884  -7.9070e-004   3.5028e-004   1.1824e-004  -1.1490e+007  -8.4124e+005   1.4189e+006    0.0000    0.0539    0.0000    0.0000    0.0158
                0.1767  -7.9753e-004   3.5330e-004   1.1328e-004  -1.1590e+007  -8.4864e+005   1.3594e+006    0.0000    0.0544    0.0000    0.0000    0.0151
                0.2651  -8.0436e-004   3.5632e-004   1.0827e-004  -1.1689e+007  -8.5603e+005   1.2993e+006    0.0000    0.0549    0.0000    0.0000    0.0144
                0.3535  -8.1119e-004   3.5934e-004   1.0322e-004  -1.1788e+007  -8.6342e+005   1.2386e+006    0.0000    0.0553    0.0000    0.0000    0.0138
                0.4419  -8.1802e-004   3.6236e-004   9.8125e-005  -1.1888e+007  -8.7081e+005   1.1775e+006    0.0000    0.0558    0.0000    0.0000    0.0131
                0.5302  -8.2485e-004   3.6538e-004   9.2985e-005  -1.1987e+007  -8.7820e+005   1.1158e+006    0.0000    0.0563    0.0000    0.0000    0.0124
                0.6186  -8.3168e-004   3.6840e-004   8.7802e-005  -1.2086e+007  -8.8559e+005   1.0536e+006    0.0000    0.0567    0.0000    0.0000    0.0117
                0.7070  -8.3851e-004   3.7142e-004   8.2574e-005  -1.2186e+007  -8.9298e+005   9.9089e+005    0.0000    0.0572    0.0000    0.0000    0.0110
                0.7954  -8.4534e-004   3.7444e-004   7.7303e-005  -1.2285e+007  -9.0037e+005   9.2764e+005    0.0000    0.0577    0.0000    0.0000    0.0103

               lamina:  2     
              matName:  (web-core)
                     s           e11           e22           e12           s11           s22           s12   s11_fcT   s11_fcC   s22_fcT   s22_fcC   s12_fcS
                   (m)         (m/m)         (m/m)         (rad)          (Pa)          (Pa)          (Pa)       (-)       (-)       (-)       (-)       (-)
                0.0000  -7.8307e-004   3.4688e-004   1.2316e-004  -1.9400e+005   3.1989e+004   2.4633e+003    0.0000    0.0000    0.0000   -0.0000    0.0000
                0.0884  -7.8990e-004   3.4990e-004   1.1824e-004  -1.9569e+005   3.2266e+004   2.3649e+003    0.0000    0.0000    0.0000   -0.0000    0.0000
                0.1767  -7.9673e-004   3.5292e-004   1.1328e-004  -1.9739e+005   3.2543e+004   2.2656e+003    0.0000    0.0000    0.0000   -0.0000    0.0000
                0.2651  -8.0356e-004   3.5594e-004   1.0827e-004  -1.9908e+005   3.2820e+004   2.1654e+003    0.0000    0.0000    0.0000   -0.0000    0.0000
                0.3535  -8.1039e-004   3.5896e-004   1.0322e-004  -2.0077e+005   3.3098e+004   2.0644e+003    0.0000    0.0000    0.0000   -0.0000    0.0000
                0.4419  -8.1722e-004   3.6198e-004   9.8125e-005  -2.0246e+005   3.3375e+004   1.9625e+003    0.0000    0.0000    0.0000   -0.0000    0.0000
                0.5302  -8.2405e-004   3.6500e-004   9.2985e-005  -2.0416e+005   3.3652e+004   1.8597e+003    0.0000    0.0000    0.0000   -0.0000    0.0000
                0.6186  -8.3088e-004   3.6802e-004   8.7802e-005  -2.0585e+005   3.3929e+004   1.7560e+003    0.0000    0.0000    0.0000   -0.0000    0.0000
                0.7070  -8.3771e-004   3.7103e-004   8.2574e-005  -2.0754e+005   3.4206e+004   1.6515e+003    0.0000    0.0000    0.0000   -0.0000    0.0000
                0.7954  -8.4454e-004   3.7405e-004   7.7303e-005  -2.0923e+005   3.4483e+004   1.5461e+003    0.0000    0.0000    0.0000   -0.0000    0.0000

               lamina:  3     
              matName:  (web-shell)
                     s           e11           e22           e12           s11           s22           s12   s11_fcT   s11_fcC   s22_fcT   s22_fcC   s12_fcS
                   (m)         (m/m)         (m/m)         (rad)          (Pa)          (Pa)          (Pa)       (-)       (-)       (-)       (-)       (-)
                0.0000  -7.4035e-004   3.2651e-004   1.2316e-004  -1.0772e+007  -8.1503e+005   1.4780e+006    0.0000    0.0506    0.0000    0.0000    0.0164
                0.0884  -7.4718e-004   3.2953e-004   1.1824e-004  -1.0872e+007  -8.2242e+005   1.4189e+006    0.0000    0.0510    0.0000    0.0000    0.0158
                0.1767  -7.5401e-004   3.3255e-004   1.1328e-004  -1.0971e+007  -8.2981e+005   1.3594e+006    0.0000    0.0515    0.0000    0.0000    0.0151
                0.2651  -7.6084e-004   3.3557e-004   1.0827e-004  -1.1070e+007  -8.3720e+005   1.2993e+006    0.0000    0.0520    0.0000    0.0000    0.0144
                0.3535  -7.6767e-004   3.3859e-004   1.0322e-004  -1.1170e+007  -8.4459e+005   1.2386e+006    0.0000    0.0524    0.0000    0.0000    0.0138
                0.4419  -7.7450e-004   3.4161e-004   9.8125e-005  -1.1269e+007  -8.5198e+005   1.1775e+006    0.0000    0.0529    0.0000    0.0000    0.0131
                0.5302  -7.8133e-004   3.4463e-004   9.2985e-005  -1.1368e+007  -8.5937e+005   1.1158e+006    0.0000    0.0534    0.0000    0.0000    0.0124
                0.6186  -7.8816e-004   3.4765e-004   8.7802e-005  -1.1468e+007  -8.6676e+005   1.0536e+006    0.0000    0.0538    0.0000    0.0000    0.0117
                0.7070  -7.9499e-004   3.5067e-004   8.2574e-005  -1.1567e+007  -8.7415e+005   9.9089e+005    0.0000    0.0543    0.0000    0.0000    0.0110
                0.7954  -8.0182e-004   3.5369e-004   7.7303e-005  -1.1666e+007  -8.8155e+005   9.2764e+005    0.0000    0.0548    0.0000    0.0000    0.0103

================================================================================
sec        =  21     
zSec       =  40.0000  (m)
nPanelsTop =  5      
nPanelsBot =  5      
nWebs      =  3      

    Top:  panel  nNode   nLam     xc_St    xc_End         b         t         E_eff         G_eff      nu_eff     density  buckleCrit
            (-)    (-)    (-)       (-)       (-)       (m)       (m)          (Pa)          (Pa)         (-)    (kg/m^3)         (-)
              1     12      3    0.0000    0.2674    2.0303    0.0700   4.2251e+009   1.0171e+009      0.3899    435.7143      0.0001
              2      6      5    0.2674    0.4826    1.4263    0.1265   4.0909e+010   3.3161e+009      0.2900   1914.4394      0.0000
              3      2      3    0.4826    0.4834    0.0052    0.0359   7.9936e+009   1.9655e+009      0.3954    659.8858      0.0000
              4      6      3    0.4834    0.6875    1.3850    0.0359   7.9936e+009   1.9655e+009      0.3954    659.8858      0.1243
              5     13      3    0.6875    1.0000    2.1480    0.0359   7.9936e+009   1.9655e+009      0.3954    659.8858      0.7602

            panel:  1     
           lam_num    nPlies        tPly      fibAng     matID  matName
               (-)       (-)         (m)       (deg)       (-)  (-)
                 1         1    0.005000      0.0000         2  (blade-shell)
                 2         1    0.060000      0.0000         5  (LEP-core)
                 3         1    0.005000      0.0000         2  (blade-shell)

               lamina:  1     
              matName:  (blade-shell)
                     s           e11           e22           e12           s11           s22           s12   s11_fcT   s11_fcC   s22_fcT   s22_fcC   s12_fcS
                   (m)         (m/m)         (m/m)         (rad)          (Pa)          (Pa)          (Pa)       (-)       (-)       (-)       (-)       (-)
                0.0000   9.4526e-004  -3.6864e-004   1.0696e-004   2.6525e+007   1.4402e+005   7.4873e+005    0.1842   -0.0000    0.0000   -0.0000    0.0125
                0.0849   9.4472e-004  -3.6843e-004   9.1442e-005   2.6510e+007   1.4396e+005   6.4010e+005    0.1841   -0.0000    0.0000   -0.0000    0.0107
                0.1817   9.3126e-004  -3.6317e-004   7.3865e-005   2.6132e+007   1.4204e+005   5.1706e+005    0.1815   -0.0000    0.0000   -0.0000    0.0086
                0.3063   9.0534e-004  -3.5306e-004   5.1687e-005   2.5405e+007   1.3820e+005   3.6181e+005    0.1764   -0.0000    0.0000   -0.0000    0.0060
                0.4612   8.6742e-004  -3.3826e-004   2.5053e-005   2.4341e+007   1.3249e+005   1.7537e+005    0.1690   -0.0000    0.0000   -0.0000    0.0029
                0.6446   8.1773e-004  -3.1888e-004   4.9420e-006   2.2946e+007   1.2495e+005   3.4594e+004    0.1593   -0.0000    0.0000   -0.0000    0.0006
                0.8539   7.5655e-004  -2.9502e-004   3.6947e-005   2.1230e+007   1.1564e+005   2.5863e+005    0.1474   -0.0000    0.0000   -0.0000    0.0043
                1.0880   6.8449e-004  -2.6692e-004   6.9720e-005   1.9208e+007   1.0464e+005   4.8804e+005    0.1334   -0.0000    0.0000   -0.0000    0.0081
                1.3447   6.0222e-004  -2.3484e-004   1.0181e-004   1.6899e+007   9.2069e+004   7.1270e+005    0.1174   -0.0000    0.0000   -0.0000    0.0119
                1.6210   5.1032e-004  -1.9900e-004   1.3169e-004   1.4320e+007   7.8018e+004   9.2180e+005    0.0994   -0.0000    0.0000   -0.0000    0.0154
                1.9158   4.0971e-004  -1.5977e-004   1.5803e-004   1.1497e+007   6.2601e+004   1.1062e+006    0.0798   -0.0000    0.0000   -0.0000    0.0184
                2.0303   3.6932e-004  -1.4402e-004   1.6669e-004   1.0363e+007   5.6454e+004   1.1668e+006    0.0720   -0.0000    0.0000   -0.0000    0.0194

               lamina:  2     
              matName:  (LEP-core)
                     s           e11           e22           e12           s11           s22           s12   s11_fcT   s11_fcC   s22_fcT   s22_fcC   s12_fcS
                   (m)         (m/m)         (m/m)         (rad)          (Pa)          (Pa)          (Pa)       (-)       (-)       (-)       (-)       (-)
                0.0000   9.4310e-004  -3.6778e-004   1.0696e-004   2.3793e+005  -2.4244e+004   2.1392e+003    0.0000   -0.0000    0.0000    0.0000    0.0000
                0.0849   9.4259e-004  -3.6758e-004   9.1442e-005   2.3780e+005  -2.4230e+004   1.8288e+003    0.0000   -0.0000    0.0000    0.0000    0.0000
                0.1817   9.2933e-004  -3.6240e-004   7.3865e-005   2.3446e+005  -2.3887e+004   1.4773e+003    0.0000   -0.0000    0.0000    0.0000    0.0000
                0.3063   9.0362e-004  -3.5237e-004   5.1687e-005   2.2797e+005  -2.3225e+004   1.0337e+003    0.0000   -0.0000    0.0000    0.0000    0.0000
                0.4612   8.6587e-004  -3.3765e-004   2.5053e-005   2.1845e+005  -2.2253e+004   5.0105e+002    0.0000   -0.0000    0.0000    0.0000    0.0000
                0.6446   8.1634e-004  -3.1833e-004   4.9420e-006   2.0596e+005  -2.0979e+004   9.8840e+001    0.0000   -0.0000    0.0000    0.0000    0.0000
                0.8539   7.5532e-004  -2.9453e-004   3.6947e-005   1.9056e+005  -1.9410e+004   7.3894e+002    0.0000   -0.0000    0.0000    0.0000    0.0000
                1.0880   6.8340e-004  -2.6649e-004   6.9720e-005   1.7241e+005  -1.7562e+004   1.3944e+003    0.0000   -0.0000    0.0000    0.0000    0.0000
                1.3447   6.0127e-004  -2.3446e-004   1.0181e-004   1.5169e+005  -1.5451e+004   2.0363e+003    0.0000   -0.0000    0.0000    0.0000    0.0000
                1.6210   5.0951e-004  -1.9868e-004   1.3169e-004   1.2854e+005  -1.3093e+004   2.6337e+003    0.0000   -0.0000    0.0000    0.0000    0.0000
                1.9158   4.0901e-004  -1.5949e-004   1.5803e-004   1.0319e+005  -1.0511e+004   3.1605e+003    0.0000   -0.0000    0.0000    0.0000    0.0000
                2.0303   3.6872e-004  -1.4378e-004   1.6669e-004   9.3024e+004  -9.4754e+003   3.3338e+003    0.0000   -0.0000    0.0000    0.0000    0.0000

               lamina:  3     
              matName:  (blade-shell)
                     s           e11           e22           e12           s11           s22           s12   s11_fcT   s11_fcC   s22_fcT   s22_fcC   s12_fcS
                   (m)         (m/m)         (m/m)         (rad)          (Pa)          (Pa)          (Pa)       (-)       (-)       (-)       (-)       (-)
                0.0000   9.1708e-004  -3.5746e-004   1.0696e-004   2.5735e+007   1.4269e+005   7.4873e+005    0.1787   -0.0000    0.0000   -0.0000    0.0125
                0.0849   9.1707e-004  -3.5745e-004   9.1442e-005   2.5735e+007   1.4266e+005   6.4010e+005    0.1787   -0.0000    0.0000   -0.0000    0.0107
                0.1817   9.0619e-004  -3.5322e-004   7.3865e-005   2.5430e+007   1.4086e+005   5.1706e+005    0.1766   -0.0000    0.0000   -0.0000    0.0086
                0.3063   8.8297e-004  -3.4417e-004   5.1687e-005   2.4778e+007   1.3715e+005   3.6181e+005    0.1721   -0.0000    0.0000   -0.0000    0.0060
                0.4612   8.4730e-004  -3.3028e-004   2.5053e-005   2.3777e+007   1.3154e+005   1.7537e+005    0.1651   -0.0000    0.0000   -0.0000    0.0029
                0.6446   7.9971e-004  -3.1173e-004   4.9420e-006   2.2441e+007   1.2410e+005   3.4594e+004    0.1558   -0.0000    0.0000   -0.0000    0.0006
                0.8539   7.4050e-004  -2.8865e-004   3.6947e-005   2.0780e+007   1.1488e+005   2.5863e+005    0.1443   -0.0000    0.0000   -0.0000    0.0043
                1.0880   6.7022e-004  -2.6125e-004   6.9720e-005   1.8808e+007   1.0397e+005   4.8804e+005    0.1306   -0.0000    0.0000   -0.0000    0.0081
                1.3447   5.8977e-004  -2.2990e-004   1.0181e-004   1.6550e+007   9.1482e+004   7.1270e+005    0.1149   -0.0000    0.0000   -0.0000    0.0119
                1.6210   4.9977e-004  -1.9482e-004   1.3169e-004   1.4025e+007   7.7522e+004   9.2180e+005    0.0974   -0.0000    0.0000   -0.0000    0.0154
                1.9158   4.0061e-004  -1.5616e-004   1.5803e-004   1.1242e+007   6.2172e+004   1.1062e+006    0.0781   -0.0000    0.0000   -0.0000    0.0184
                2.0303   3.6155e-004  -1.4093e-004   1.6669e-004   1.0146e+007   5.6088e+004   1.1668e+006    0.0705   -0.0000    0.0000   -0.0000    0.0194

            panel:  2     
           lam_num    nPlies        tPly      fibAng     matID  matName
               (-)       (-)         (m)       (deg)       (-)  (-)
                 1         1    0.005000      0.0000         2  (blade-shell)
                 2         1    0.058251      0.0000         3  (spar-uni)
                 3         1    0.000002      0.0000         4  (spar-core)
                 4         1    0.058251      0.0000         3  (spar-uni)
                 5         1    0.005000      0.0000         2  (blade-shell)

               lamina:  1     
              matName:  (blade-shell)
                     s           e11           e22           e12           s11           s22           s12   s11_fcT   s11_fcC   s22_fcT   s22_fcC   s12_fcS
                   (m)         (m/m)         (m/m)         (rad)          (Pa)          (Pa)          (Pa)       (-)       (-)       (-)       (-)       (-)
                0.0000   3.8211e-004  -1.1116e-004   1.4425e-005   1.0953e+007   6.3439e+005   1.0098e+005    0.0761   -0.0000    0.0000   -0.0000    0.0017
                0.1932   3.1198e-004  -9.0762e-005   5.1505e-005   8.9426e+006   5.1785e+005   3.6054e+005    0.0621   -0.0000    0.0000   -0.0000    0.0060
                0.5155   1.9422e-004  -5.6541e-005   9.6388e-005   5.5668e+006   3.2180e+005   6.7471e+005    0.0387   -0.0000    0.0000   -0.0000    0.0112
                0.8494   7.1219e-005  -2.0802e-005   1.2021e-004   2.0409e+006   1.1695e+005   8.4146e+005    0.0142   -0.0000    0.0000   -0.0000    0.0140
                1.1929  -5.5575e-005   1.6029e-005   1.2042e-004  -1.5939e+006  -9.4363e+004   8.4296e+005    0.0000    0.0075    0.0000    0.0000    0.0140
                1.4263  -1.4123e-004   4.0898e-005   1.0645e-004  -4.0494e+006  -2.3731e+005   7.4516e+005    0.0000    0.0190    0.0000    0.0000    0.0124

               lamina:  2     
              matName:  (spar-uni)
                     s           e11           e22           e12           s11           s22           s12   s11_fcT   s11_fcC   s22_fcT   s22_fcC   s12_fcS
                   (m)         (m/m)         (m/m)         (rad)          (Pa)          (Pa)          (Pa)       (-)       (-)       (-)       (-)       (-)
                0.0000   3.8055e-004  -1.1067e-004   1.4425e-005   1.5966e+007  -5.9252e+004   4.3275e+004    0.0164   -0.0000    0.0000    0.0000    0.0014
                0.1932   3.1067e-004  -9.0359e-005   5.1505e-005   1.3035e+007  -4.8466e+004   1.5452e+005    0.0134   -0.0000    0.0000    0.0000    0.0052
                0.5155   1.9323e-004  -5.6237e-005   9.6388e-005   8.1071e+006  -3.0654e+004   2.8916e+005    0.0083   -0.0000    0.0000    0.0000    0.0096
                0.8494   7.0544e-005  -2.0595e-005   1.2021e-004   2.9595e+006  -1.2111e+004   3.6062e+005    0.0030   -0.0000    0.0000    0.0000    0.0120
                1.1929  -6.0582e-005   1.7568e-005   1.2042e-004  -2.5420e+006   8.7048e+003   3.6127e+005    0.0000    0.0036    0.0000   -0.0000    0.0120
                1.4263  -1.4458e-004   4.1927e-005   1.0645e-004  -6.0664e+006   2.0774e+004   3.1936e+005    0.0000    0.0086    0.0000   -0.0000    0.0106

               lamina:  3     
              matName:  (spar-core)
                     s           e11           e22           e12           s11           s22           s12   s11_fcT   s11_fcC   s22_fcT   s22_fcC   s12_fcS
                   (m)         (m/m)         (m/m)         (rad)          (Pa)          (Pa)          (Pa)       (-)       (-)       (-)       (-)       (-)
                0.0000   3.6233e-004  -1.0507e-004   1.4425e-005   9.4516e+004   1.0357e+003   2.8850e+002    0.0000   -0.0000    0.0000   -0.0000    0.0000
                0.1932   2.9543e-004  -8.5672e-005   5.1505e-005   7.7064e+004   8.4448e+002   1.0301e+003    0.0000   -0.0000    0.0000   -0.0000    0.0000
                0.5155   1.8172e-004  -5.2697e-005   9.6388e-005   4.7402e+004   5.1944e+002   1.9278e+003    0.0000   -0.0000    0.0000   -0.0000    0.0000
                0.8494   6.2677e-005  -1.8176e-005   1.2021e-004   1.6350e+004   1.7916e+002   2.4042e+003    0.0000   -0.0000    0.0000   -0.0000    0.0000
                1.1929  -6.0582e-005   1.7569e-005   1.2042e-004  -1.5803e+004  -1.7318e+002   2.4085e+003    0.0000    0.0000    0.0000    0.0000    0.0000
                1.4263  -1.4458e-004   4.1927e-005   1.0645e-004  -3.7714e+004  -4.1328e+002   2.1290e+003    0.0000    0.0000    0.0000    0.0000    0.0000

               lamina:  4     
              matName:  (spar-uni)
                     s           e11           e22           e12           s11           s22           s12   s11_fcT   s11_fcC   s22_fcT   s22_fcC   s12_fcS
                   (m)         (m/m)         (m/m)         (rad)          (Pa)          (Pa)          (Pa)       (-)       (-)       (-)       (-)       (-)
                0.0000   3.6233e-004  -1.0507e-004   1.4425e-005   1.5203e+007  -5.2062e+004   4.3275e+004    0.0156   -0.0000    0.0000    0.0000    0.0014
                0.1932   2.9543e-004  -8.5672e-005   5.1505e-005   1.2396e+007  -4.2449e+004   1.5452e+005    0.0128   -0.0000    0.0000    0.0000    0.0052
                0.5155   1.8172e-004  -5.2697e-005   9.6388e-005   7.6248e+006  -2.6110e+004   2.8916e+005    0.0078   -0.0000    0.0000    0.0000    0.0096
                0.8494   6.2677e-005  -1.8176e-005   1.2021e-004   2.6299e+006  -9.0058e+003   3.6062e+005    0.0027   -0.0000    0.0000    0.0000    0.0120
                1.1929  -6.5589e-005   1.9108e-005   1.2042e-004  -2.7517e+006   1.0681e+004   3.6127e+005    0.0000    0.0039    0.0000   -0.0000    0.0120
                1.4263  -1.4792e-004   4.2956e-005   1.0645e-004  -6.2066e+006   2.2095e+004   3.1936e+005    0.0000    0.0088    0.0000   -0.0000    0.0106

               lamina:  5     
              matName:  (blade-shell)
                     s           e11           e22           e12           s11           s22           s12   s11_fcT   s11_fcC   s22_fcT   s22_fcC   s12_fcS
                   (m)         (m/m)         (m/m)         (rad)          (Pa)          (Pa)          (Pa)       (-)       (-)       (-)       (-)       (-)
                0.0000   3.4411e-004  -9.9472e-005   1.4425e-005   9.8674e+006   5.8087e+005   1.0098e+005    0.0685   -0.0000    0.0000   -0.0000    0.0017
                0.1932   2.8018e-004  -8.0985e-005   5.1505e-005   8.0343e+006   4.7307e+005   3.6054e+005    0.0558   -0.0000    0.0000   -0.0000    0.0060
                0.5155   1.7020e-004  -4.9157e-005   9.6388e-005   4.8809e+006   2.8798e+005   6.7471e+005    0.0339   -0.0000    0.0000   -0.0000    0.0112
                0.8494   5.4810e-005  -1.5757e-005   1.2021e-004   1.5722e+006   9.3841e+004   8.4146e+005    0.0109   -0.0000    0.0000   -0.0000    0.0140
                1.1929  -6.6018e-005   1.9240e-005   1.2042e-004  -1.8921e+006  -1.0907e+005   8.4296e+005    0.0000    0.0089    0.0000    0.0000    0.0140
                1.4263  -1.4821e-004   4.3044e-005   1.0645e-004  -4.2488e+006  -2.4714e+005   7.4516e+005    0.0000    0.0199    0.0000    0.0000    0.0124

            panel:  3     
           lam_num    nPlies        tPly      fibAng     matID  matName
               (-)       (-)         (m)       (deg)       (-)  (-)
                 1         1    0.005000      0.0000         2  (blade-shell)
                 2         1    0.025878      0.0000         6  (TEP-core)
                 3         1    0.005000      0.0000         2  (blade-shell)

               lamina:  1     
              matName:  (blade-shell)
                     s           e11           e22           e12           s11           s22           s12   s11_fcT   s11_fcC   s22_fcT   s22_fcC   s12_fcS
                   (m)         (m/m)         (m/m)         (rad)          (Pa)          (Pa)          (Pa)       (-)       (-)       (-)       (-)       (-)
                0.0000  -1.4343e-004   5.6706e-005   6.3328e-004  -4.0201e+006  -1.0131e+004   4.4329e+006    0.0000    0.0189    0.0000    0.0000    0.0739
                0.0052  -1.4530e-004   5.7444e-005   6.3313e-004  -4.0724e+006  -1.0262e+004   4.4319e+006    0.0000    0.0191    0.0000    0.0000    0.0739

               lamina:  2     
              matName:  (TEP-core)
                     s           e11           e22           e12           s11           s22           s12   s11_fcT   s11_fcC   s22_fcT   s22_fcC   s12_fcS
                   (m)         (m/m)         (m/m)         (rad)          (Pa)          (Pa)          (Pa)       (-)       (-)       (-)       (-)       (-)
                0.0000  -1.4407e-004   5.6962e-005   6.3328e-004  -3.6281e+004   3.9259e+003   1.2666e+004    0.0000    0.0000    0.0000   -0.0000    0.0000
                0.0052  -1.4594e-004   5.7700e-005   6.3313e-004  -3.6751e+004   3.9768e+003   1.2663e+004    0.0000    0.0000    0.0000   -0.0000    0.0000

               lamina:  3     
              matName:  (blade-shell)
                     s           e11           e22           e12           s11           s22           s12   s11_fcT   s11_fcC   s22_fcT   s22_fcC   s12_fcS
                   (m)         (m/m)         (m/m)         (rad)          (Pa)          (Pa)          (Pa)       (-)       (-)       (-)       (-)       (-)
                0.0000  -1.4420e-004   5.7012e-005   6.3328e-004  -4.0416e+006  -1.0144e+004   4.4329e+006    0.0000    0.0190    0.0000    0.0000    0.0739
                0.0052  -1.4606e-004   5.7750e-005   6.3313e-004  -4.0939e+006  -1.0275e+004   4.4319e+006    0.0000    0.0192    0.0000    0.0000    0.0739

            panel:  4     
           lam_num    nPlies        tPly      fibAng     matID  matName
               (-)       (-)         (m)       (deg)       (-)  (-)
                 1         1    0.005000      0.0000         2  (blade-shell)
                 2         1    0.025878      0.0000         6  (TEP-core)
                 3         1    0.005000      0.0000         2  (blade-shell)

               lamina:  1     
              matName:  (blade-shell)
                     s           e11           e22           e12           s11           s22           s12   s11_fcT   s11_fcC   s22_fcT   s22_fcC   s12_fcS
                   (m)         (m/m)         (m/m)         (rad)          (Pa)          (Pa)          (Pa)       (-)       (-)       (-)       (-)       (-)
                0.0000  -1.4530e-004   5.7444e-005   5.6662e-004  -4.0724e+006  -1.0262e+004   3.9663e+006    0.0000    0.0191    0.0000    0.0000    0.0661
                0.1113  -1.8548e-004   7.3331e-005   5.6647e-004  -5.1986e+006  -1.3088e+004   3.9653e+006    0.0000    0.0244    0.0000    0.0000    0.0661
                0.4643  -3.1278e-004   1.2366e-004   5.6647e-004  -8.7668e+006  -2.2058e+004   3.9653e+006    0.0000    0.0412    0.0000    0.0000    0.0661
                0.8150  -4.3933e-004   1.7370e-004   5.6293e-004  -1.2314e+007  -3.0972e+004   3.9405e+006    0.0000    0.0578    0.0000    0.0000    0.0657
                1.1595  -5.6355e-004   2.2281e-004   5.4600e-004  -1.5795e+007  -3.9724e+004   3.8220e+006    0.0000    0.0742    0.0000    0.0000    0.0637
                1.3850  -6.4483e-004   2.5495e-004   5.2062e-004  -1.8074e+007  -4.5452e+004   3.6444e+006    0.0000    0.0849    0.0000    0.0000    0.0607

               lamina:  2     
              matName:  (TEP-core)
                     s           e11           e22           e12           s11           s22           s12   s11_fcT   s11_fcC   s22_fcT   s22_fcC   s12_fcS
                   (m)         (m/m)         (m/m)         (rad)          (Pa)          (Pa)          (Pa)       (-)       (-)       (-)       (-)       (-)
                0.0000  -1.4594e-004   5.7700e-005   5.6662e-004  -3.6751e+004   3.9768e+003   1.1332e+004    0.0000    0.0000    0.0000   -0.0000    0.0000
                0.1113  -1.8584e-004   7.3476e-005   5.6647e-004  -4.6800e+004   5.0639e+003   1.1329e+004    0.0000    0.0000    0.0000   -0.0000    0.0000
                0.4643  -3.1290e-004   1.2371e-004   5.6647e-004  -7.8796e+004   8.5258e+003   1.1329e+004    0.0000    0.0000    0.0000   -0.0000    0.0000
                0.8150  -4.3929e-004   1.7368e-004   5.6293e-004  -1.1063e+005   1.1970e+004   1.1259e+004    0.0000    0.0000    0.0000   -0.0000    0.0000
                1.1595  -5.6348e-004   2.2278e-004   5.4600e-004  -1.4190e+005   1.5354e+004   1.0920e+004    0.0000    0.0000    0.0000   -0.0000    0.0000
                1.3850  -6.4475e-004   2.5491e-004   5.2062e-004  -1.6236e+005   1.7568e+004   1.0412e+004    0.0000    0.0000    0.0000   -0.0000    0.0000

               lamina:  3     
              matName:  (blade-shell)
                     s           e11           e22           e12           s11           s22           s12   s11_fcT   s11_fcC   s22_fcT   s22_fcC   s12_fcS
                   (m)         (m/m)         (m/m)         (rad)          (Pa)          (Pa)          (Pa)       (-)       (-)       (-)       (-)       (-)
                0.0000  -1.4606e-004   5.7750e-005   5.6662e-004  -4.0939e+006  -1.0275e+004   3.9663e+006    0.0000    0.0192    0.0000    0.0000    0.0661
                0.1113  -1.8591e-004   7.3504e-005   5.6647e-004  -5.2108e+006  -1.3096e+004   3.9653e+006    0.0000    0.0245    0.0000    0.0000    0.0661
                0.4643  -3.1292e-004   1.2372e-004   5.6647e-004  -8.7706e+006  -2.2061e+004   3.9653e+006    0.0000    0.0412    0.0000    0.0000    0.0661
                0.8150  -4.3913e-004   1.7361e-004   5.6293e-004  -1.2308e+007  -3.0968e+004   3.9405e+006    0.0000    0.0578    0.0000    0.0000    0.0657
                1.1595  -5.6312e-004   2.2264e-004   5.4600e-004  -1.5783e+007  -3.9717e+004   3.8220e+006    0.0000    0.0741    0.0000    0.0000    0.0637
                1.3850  -6.4429e-004   2.5473e-004   5.2062e-004  -1.8058e+007  -4.5443e+004   3.6444e+006    0.0000    0.0848    0.0000    0.0000    0.0607

            panel:  5     
           lam_num    nPlies        tPly      fibAng     matID  matName
               (-)       (-)         (m)       (deg)       (-)  (-)
                 1         1    0.005000      0.0000         2  (blade-shell)
                 2         1    0.025878      0.0000         6  (TEP-core)
                 3         1    0.005000      0.0000         2  (blade-shell)

               lamina:  1     
              matName:  (blade-shell)
                     s           e11           e22           e12           s11           s22           s12   s11_fcT   s11_fcC   s22_fcT   s22_fcC   s12_fcS
                   (m)         (m/m)         (m/m)         (rad)          (Pa)          (Pa)          (Pa)       (-)       (-)       (-)       (-)       (-)
                0.0000  -6.4483e-004   2.5495e-004   4.8740e-004  -1.8074e+007  -4.5452e+004   3.4118e+006    0.0000    0.0849    0.0000    0.0000    0.0569
                0.1083  -6.8390e-004   2.7039e-004   4.6119e-004  -1.9168e+007  -4.8203e+004   3.2283e+006    0.0000    0.0900    0.0000    0.0000    0.0538
                0.4279  -7.9897e-004   3.1589e-004   4.2365e-004  -2.2394e+007  -5.6314e+004   2.9656e+006    0.0000    0.1051    0.0000    0.0000    0.0494
                0.7290  -9.0740e-004   3.5876e-004   4.0982e-004  -2.5433e+007  -6.3957e+004   2.8687e+006    0.0000    0.1194    0.0000    0.0000    0.0478
                1.0087  -1.0080e-003   3.9855e-004   3.6425e-004  -2.8253e+007  -7.1050e+004   2.5497e+006    0.0000    0.1326    0.0000    0.0000    0.0425
                1.2633  -1.0996e-003   4.3476e-004   3.1484e-004  -3.0820e+007  -7.7507e+004   2.2039e+006    0.0000    0.1447    0.0000    0.0000    0.0367
                1.4901  -1.1812e-003   4.6701e-004   2.6333e-004  -3.3107e+007  -8.3259e+004   1.8433e+006    0.0000    0.1554    0.0000    0.0000    0.0307
                1.6864  -1.2518e-003   4.9492e-004   2.1173e-004  -3.5086e+007  -8.8235e+004   1.4821e+006    0.0000    0.1647    0.0000    0.0000    0.0247
                1.8502  -1.3107e-003   5.1822e-004   1.6197e-004  -3.6737e+007  -9.2387e+004   1.1338e+006    0.0000    0.1725    0.0000    0.0000    0.0189
                1.9797  -1.3573e-003   5.3664e-004   1.1606e-004  -3.8043e+007  -9.5669e+004   8.1239e+005    0.0000    0.1786    0.0000    0.0000    0.0135
                2.0735  -1.3910e-003   5.4997e-004   7.5693e-005  -3.8988e+007  -9.8044e+004   5.2985e+005    0.0000    0.1830    0.0000    0.0000    0.0088
                2.1267  -1.4118e-003   5.5819e-004   4.2467e-005  -3.9570e+007  -9.9420e+004   2.9727e+005    0.0000    0.1858    0.0000    0.0000    0.0050
                2.1480  -1.4205e-003   5.6166e-004   1.7668e-005  -3.9815e+007  -9.9869e+004   1.2368e+005    0.0000    0.1869    0.0000    0.0000    0.0021

               lamina:  2     
              matName:  (TEP-core)
                     s           e11           e22           e12           s11           s22           s12   s11_fcT   s11_fcC   s22_fcT   s22_fcC   s12_fcS
                   (m)         (m/m)         (m/m)         (rad)          (Pa)          (Pa)          (Pa)       (-)       (-)       (-)       (-)       (-)
                0.0000  -6.4475e-004   2.5491e-004   4.8740e-004  -1.6236e+005   1.7568e+004   9.7480e+003    0.0000    0.0000    0.0000   -0.0000    0.0000
                0.1083  -6.8379e-004   2.7035e-004   4.6119e-004  -1.7220e+005   1.8632e+004   9.2238e+003    0.0000    0.0000    0.0000   -0.0000    0.0000
                0.4279  -7.9885e-004   3.1584e-004   4.2365e-004  -2.0117e+005   2.1767e+004   8.4730e+003    0.0000    0.0000    0.0000   -0.0000    0.0000
                0.7290  -9.0727e-004   3.5870e-004   4.0982e-004  -2.2847e+005   2.4721e+004   8.1963e+003    0.0000    0.0000    0.0000   -0.0000    0.0000
                1.0087  -1.0079e-003   3.9849e-004   3.6425e-004  -2.5381e+005   2.7463e+004   7.2850e+003    0.0000    0.0000    0.0000   -0.0000    0.0000
                1.2633  -1.0995e-003   4.3469e-004   3.1484e-004  -2.7687e+005   2.9958e+004   6.2967e+003    0.0000    0.0000    0.0000   -0.0000    0.0000
                1.4901  -1.1810e-003   4.6695e-004   2.6333e-004  -2.9742e+005   3.2181e+004   5.2666e+003    0.0000    0.0000    0.0000   -0.0000    0.0000
                1.6864  -1.2516e-003   4.9486e-004   2.1173e-004  -3.1519e+005   3.4104e+004   4.2347e+003    0.0000    0.0000    0.0000   -0.0000    0.0000
                1.8502  -1.3105e-003   5.1815e-004   1.6197e-004  -3.3003e+005   3.5710e+004   3.2395e+003    0.0000    0.0000    0.0000   -0.0000    0.0000
                1.9797  -1.3571e-003   5.3656e-004   1.1606e-004  -3.4176e+005   3.6979e+004   2.3211e+003    0.0000    0.0000    0.0000   -0.0000    0.0000
                2.0735  -1.3908e-003   5.4988e-004   7.5693e-005  -3.5024e+005   3.7897e+004   1.5139e+003    0.0000    0.0000    0.0000   -0.0000    0.0000
                2.1267  -1.4111e-003   5.5792e-004   4.2467e-005  -3.5536e+005   3.8452e+004   8.4935e+002    0.0000    0.0000    0.0000   -0.0000    0.0000
                2.1480  -1.4190e-003   5.6104e-004   1.7668e-005  -3.5734e+005   3.8668e+004   3.5337e+002    0.0000    0.0000    0.0000   -0.0000    0.0000

               lamina:  3     
              matName:  (blade-shell)
                     s           e11           e22           e12           s11           s22           s12   s11_fcT   s11_fcC   s22_fcT   s22_fcC   s12_fcS
                   (m)         (m/m)         (m/m)         (rad)          (Pa)          (Pa)          (Pa)       (-)       (-)       (-)       (-)       (-)
                0.0000  -6.4429e-004   2.5473e-004   4.8740e-004  -1.8058e+007  -4.5443e+004   3.4118e+006    0.0000    0.0848    0.0000    0.0000    0.0569
                0.1083  -6.8324e-004   2.7013e-004   4.6119e-004  -1.9150e+007  -4.8192e+004   3.2283e+006    0.0000    0.0899    0.0000    0.0000    0.0538
                0.4279  -7.9823e-004   3.1559e-004   4.2365e-004  -2.2373e+007  -5.6302e+004   2.9656e+006    0.0000    0.1050    0.0000    0.0000    0.0494
                0.7290  -9.0656e-004   3.5842e-004   4.0982e-004  -2.5409e+007  -6.3943e+004   2.8687e+006    0.0000    0.1193    0.0000    0.0000    0.0478
                1.0087  -1.0071e-003   3.9818e-004   3.6425e-004  -2.8228e+007  -7.1035e+004   2.5497e+006    0.0000    0.1325    0.0000    0.0000    0.0425
                1.2633  -1.0987e-003   4.3437e-004   3.1484e-004  -3.0793e+007  -7.7491e+004   2.2039e+006    0.0000    0.1446    0.0000    0.0000    0.0367
                1.4901  -1.1802e-003   4.6661e-004   2.6333e-004  -3.3079e+007  -8.3242e+004   1.8433e+006    0.0000    0.1553    0.0000    0.0000    0.0307
                1.6864  -1.2508e-003   4.9451e-004   2.1173e-004  -3.5057e+007  -8.8218e+004   1.4821e+006    0.0000    0.1646    0.0000    0.0000    0.0247
                1.8502  -1.3096e-003   5.1777e-004   1.6197e-004  -3.6706e+007  -9.2368e+004   1.1338e+006    0.0000    0.1723    0.0000    0.0000    0.0189
                1.9797  -1.3561e-003   5.3614e-004   1.1606e-004  -3.8008e+007  -9.5647e+004   8.1239e+005    0.0000    0.1784    0.0000    0.0000    0.0135
                2.0735  -1.3897e-003   5.4945e-004   7.5693e-005  -3.8951e+007  -9.8022e+004   5.2985e+005    0.0000    0.1829    0.0000    0.0000    0.0088
                2.1267  -1.4076e-003   5.5653e-004   4.2467e-005  -3.9454e+007  -9.9349e+004   2.9727e+005    0.0000    0.1852    0.0000    0.0000    0.0050
                2.1480  -1.4110e-003   5.5784e-004   1.7668e-005  -3.9548e+007  -9.9707e+004   1.2368e+005    0.0000    0.1857    0.0000    0.0000    0.0021

  Bottom:  panel  nNode   nLam     xc_St    xc_End         b         t         E_eff         G_eff      nu_eff     density  buckleCrit
            (-)    (-)    (-)       (-)       (-)       (m)       (m)          (Pa)          (Pa)         (-)    (kg/m^3)         (-)
              1     12      3    0.0000    0.2674    2.0694    0.0700   4.2251e+009   1.0171e+009      0.3899    435.7143      0.0005
              2      6      5    0.2674    0.4826    1.4379    0.1265   4.0909e+010   3.3161e+009      0.2900   1914.4394      0.0000
              3      2      3    0.4826    0.4834    0.0053    0.0359   7.9936e+009   1.9655e+009      0.3954    659.8858      0.0000
              4      6      3    0.4834    0.6875    1.4351    0.0359   7.9936e+009   1.9655e+009      0.3954    659.8858      0.1680
              5     13      3    0.6875    1.0000    2.1272    0.0359   7.9936e+009   1.9655e+009      0.3954    659.8858      0.1717

            panel:  1     
           lam_num    nPlies        tPly      fibAng     matID  matName
               (-)       (-)         (m)       (deg)       (-)  (-)
                 1         1    0.005000      0.0000         2  (blade-shell)
                 2         1    0.060000      0.0000         5  (LEP-core)
                 3         1    0.005000      0.0000         2  (blade-shell)

               lamina:  1     
              matName:  (blade-shell)
                     s           e11           e22           e12           s11           s22           s12   s11_fcT   s11_fcC   s22_fcT   s22_fcC   s12_fcS
                   (m)         (m/m)         (m/m)         (rad)          (Pa)          (Pa)          (Pa)       (-)       (-)       (-)       (-)       (-)
                0.0000   9.4508e-004  -3.6856e-004   1.0696e-004   2.6520e+007   1.4410e+005   7.4873e+005    0.1842   -0.0000    0.0000   -0.0000    0.0125
                0.0892   9.3221e-004  -3.6354e-004   1.2318e-004   2.6159e+007   1.4224e+005   8.6228e+005    0.1817   -0.0000    0.0000   -0.0000    0.0144
                0.1965   9.0562e-004  -3.5315e-004   1.4232e-004   2.5413e+007   1.3839e+005   9.9621e+005    0.1765   -0.0000    0.0000   -0.0000    0.0166
                0.3289   8.6625e-004  -3.3779e-004   1.6511e-004   2.4308e+007   1.3255e+005   1.1558e+006    0.1688   -0.0000    0.0000   -0.0000    0.0193
                0.4903   8.1439e-004  -3.1756e-004   1.9152e-004   2.2853e+007   1.2474e+005   1.3407e+006    0.1587   -0.0000    0.0000   -0.0000    0.0223
                0.6785   7.5079e-004  -2.9275e-004   2.2025e-004   2.1068e+007   1.1510e+005   1.5417e+006    0.1463   -0.0000    0.0000   -0.0000    0.0257
                0.8919   6.7630e-004  -2.6370e-004   2.4998e-004   1.8978e+007   1.0377e+005   1.7499e+006    0.1318   -0.0000    0.0000   -0.0000    0.0292
                1.1287   5.9190e-004  -2.3079e-004   2.7933e-004   1.6610e+007   9.0897e+004   1.9553e+006    0.1153   -0.0000    0.0000   -0.0000    0.0326
                1.3869   4.9857e-004  -1.9439e-004   3.0689e-004   1.3991e+007   7.6656e+004   2.1483e+006    0.0972   -0.0000    0.0000   -0.0000    0.0358
                1.6629   3.9785e-004  -1.5511e-004   3.3116e-004   1.1164e+007   6.1290e+004   2.3181e+006    0.0775   -0.0000    0.0000   -0.0000    0.0386
                1.9561   2.9129e-004  -1.1356e-004   3.5104e-004   8.1742e+006   4.4978e+004   2.4573e+006    0.0568   -0.0000    0.0000   -0.0000    0.0410
                2.0694   2.4995e-004  -9.7436e-005   3.5710e-004   7.0141e+006   3.8711e+004   2.4997e+006    0.0487   -0.0000    0.0000   -0.0000    0.0417

               lamina:  2     
              matName:  (LEP-core)
                     s           e11           e22           e12           s11           s22           s12   s11_fcT   s11_fcC   s22_fcT   s22_fcC   s12_fcS
                   (m)         (m/m)         (m/m)         (rad)          (Pa)          (Pa)          (Pa)       (-)       (-)       (-)       (-)       (-)
                0.0000   9.4307e-004  -3.6776e-004   1.0696e-004   2.3793e+005  -2.4241e+004   2.1392e+003    0.0000   -0.0000    0.0000    0.0000    0.0000
                0.0892   9.3035e-004  -3.6280e-004   1.2318e-004   2.3472e+005  -2.3912e+004   2.4637e+003    0.0000   -0.0000    0.0000    0.0000    0.0000
                0.1965   9.0410e-004  -3.5255e-004   1.4232e-004   2.2810e+005  -2.3234e+004   2.8463e+003    0.0000   -0.0000    0.0000    0.0000    0.0000
                0.3289   8.6503e-004  -3.3731e-004   1.6511e-004   2.1824e+005  -2.2228e+004   3.3023e+003    0.0000   -0.0000    0.0000    0.0000    0.0000
                0.4903   8.1341e-004  -3.1717e-004   1.9152e-004   2.0522e+005  -2.0899e+004   3.8305e+003    0.0000   -0.0000    0.0000    0.0000    0.0000
                0.6785   7.5003e-004  -2.9245e-004   2.2025e-004   1.8923e+005  -1.9269e+004   4.4049e+003    0.0000   -0.0000    0.0000    0.0000    0.0000
                0.8919   6.7573e-004  -2.6347e-004   2.4998e-004   1.7048e+005  -1.7359e+004   4.9996e+003    0.0000   -0.0000    0.0000    0.0000    0.0000
                1.1287   5.9150e-004  -2.3063e-004   2.7933e-004   1.4923e+005  -1.5194e+004   5.5867e+003    0.0000   -0.0000    0.0000    0.0000    0.0000
                1.3869   4.9835e-004  -1.9430e-004   3.0689e-004   1.2573e+005  -1.2800e+004   6.1379e+003    0.0000   -0.0000    0.0000    0.0000    0.0000
                1.6629   3.9784e-004  -1.5511e-004   3.3116e-004   1.0037e+005  -1.0216e+004   6.6232e+003    0.0000   -0.0000    0.0000    0.0000    0.0000
                1.9561   2.9313e-004  -1.1429e-004   3.5104e-004   7.3955e+004  -7.5291e+003   7.0209e+003    0.0000   -0.0000    0.0000    0.0000    0.0000
                2.0694   2.5371e-004  -9.8929e-005   3.5710e-004   6.4010e+004  -6.5188e+003   7.1420e+003    0.0000   -0.0000    0.0000    0.0000    0.0000

               lamina:  3     
              matName:  (blade-shell)
                     s           e11           e22           e12           s11           s22           s12   s11_fcT   s11_fcC   s22_fcT   s22_fcC   s12_fcS
                   (m)         (m/m)         (m/m)         (rad)          (Pa)          (Pa)          (Pa)       (-)       (-)       (-)       (-)       (-)
                0.0000   9.1891e-004  -3.5817e-004   1.0696e-004   2.5787e+007   1.4287e+005   7.4873e+005    0.1791   -0.0000    0.0000   -0.0000    0.0125
                0.0892   9.0807e-004  -3.5396e-004   1.2318e-004   2.5483e+007   1.4110e+005   8.6228e+005    0.1770   -0.0000    0.0000   -0.0000    0.0144
                0.1965   8.8590e-004  -3.4533e-004   1.4232e-004   2.4860e+007   1.3747e+005   9.9621e+005    0.1726   -0.0000    0.0000   -0.0000    0.0166
                0.3289   8.5043e-004  -3.3151e-004   1.6511e-004   2.3865e+007   1.3181e+005   1.1558e+006    0.1657   -0.0000    0.0000   -0.0000    0.0193
                0.4903   8.0170e-004  -3.1252e-004   1.9152e-004   2.2497e+007   1.2415e+005   1.3407e+006    0.1562   -0.0000    0.0000   -0.0000    0.0223
                0.6785   7.4085e-004  -2.8881e-004   2.2025e-004   2.0790e+007   1.1464e+005   1.5417e+006    0.1444   -0.0000    0.0000   -0.0000    0.0257
                0.8919   6.6886e-004  -2.6075e-004   2.4998e-004   1.8769e+007   1.0342e+005   1.7499e+006    0.1303   -0.0000    0.0000   -0.0000    0.0292
                1.1287   5.8673e-004  -2.2874e-004   2.7933e-004   1.6465e+007   9.0654e+004   1.9553e+006    0.1143   -0.0000    0.0000   -0.0000    0.0326
                1.3869   4.9580e-004  -1.9329e-004   3.0689e-004   1.3913e+007   7.6526e+004   2.1483e+006    0.0966   -0.0000    0.0000   -0.0000    0.0358
                1.6629   3.9773e-004  -1.5507e-004   3.3116e-004   1.1161e+007   6.1285e+004   2.3181e+006    0.0775   -0.0000    0.0000   -0.0000    0.0386
                1.9561   2.9328e-004  -1.1435e-004   3.5104e-004   8.2300e+006   4.5072e+004   2.4573e+006    0.0572   -0.0000    0.0000   -0.0000    0.0410
                2.0694   2.5403e-004  -9.9054e-005   3.5710e-004   7.1283e+006   3.8903e+004   2.4997e+006    0.0495   -0.0000    0.0000   -0.0000    0.0417

            panel:  2     
           lam_num    nPlies        tPly      fibAng     matID  matName
               (-)       (-)         (m)       (deg)       (-)  (-)
                 1         1    0.005000      0.0000         2  (blade-shell)
                 2         1    0.058251      0.0000         3  (spar-uni)
                 3         1    0.000002      0.0000         4  (spar-core)
                 4         1    0.058251      0.0000         3  (spar-uni)
                 5         1    0.005000      0.0000         2  (blade-shell)

               lamina:  1     
              matName:  (blade-shell)
                     s           e11           e22           e12           s11           s22           s12   s11_fcT   s11_fcC   s22_fcT   s22_fcC   s12_fcS
                   (m)         (m/m)         (m/m)         (rad)          (Pa)          (Pa)          (Pa)       (-)       (-)       (-)       (-)       (-)
                0.0000   2.4374e-004  -7.0517e-005   7.8076e-005   6.9890e+006   4.1056e+005   5.4653e+005    0.0485   -0.0000    0.0000   -0.0000    0.0091
                0.1912   1.7120e-004  -4.9403e-005   1.0254e-004   4.9096e+006   2.9028e+005   7.1777e+005    0.0341   -0.0000    0.0000   -0.0000    0.0120
                0.5126   5.3817e-005  -1.5272e-005   1.2676e-004   1.5450e+006   9.5182e+004   8.8729e+005    0.0107   -0.0000    0.0000   -0.0000    0.0148
                0.8487  -6.7358e-005   1.9986e-005   1.2986e-004  -1.9284e+006  -1.0587e+005   9.0899e+005    0.0000    0.0091    0.0000    0.0000    0.0151
                1.1983  -1.8689e-004   5.4714e-005   1.0959e-004  -5.3549e+006  -3.0498e+005   7.6715e+005    0.0000    0.0251    0.0000    0.0000    0.0128
                1.4379  -2.6642e-004   7.7814e-005   8.2185e-005  -7.6348e+006  -4.3756e+005   5.7529e+005    0.0000    0.0358    0.0000    0.0000    0.0096

               lamina:  2     
              matName:  (spar-uni)
                     s           e11           e22           e12           s11           s22           s12   s11_fcT   s11_fcC   s22_fcT   s22_fcC   s12_fcS
                   (m)         (m/m)         (m/m)         (rad)          (Pa)          (Pa)          (Pa)       (-)       (-)       (-)       (-)       (-)
                0.0000   2.5330e-004  -7.3457e-005   7.8076e-005   1.0629e+007  -3.6396e+004   2.3423e+005    0.0109   -0.0000    0.0000    0.0000    0.0078
                0.1912   1.8513e-004  -5.3688e-005   1.0254e-004   7.7682e+006  -2.6601e+004   3.0762e+005    0.0080   -0.0000    0.0000    0.0000    0.0103
                0.5126   7.2987e-005  -2.1166e-005   1.2676e-004   3.0625e+006  -1.0487e+004   3.8027e+005    0.0032   -0.0000    0.0000    0.0000    0.0127
                0.8487  -6.5309e-005   1.9356e-005   1.2986e-004  -2.7387e+006   1.5375e+004   3.8957e+005    0.0000    0.0039    0.0000   -0.0000    0.0130
                1.1983  -1.8455e-004   5.3994e-005   1.0959e-004  -7.7416e+006   3.3366e+004   3.2878e+005    0.0000    0.0110    0.0000   -0.0000    0.0110
                1.4379  -2.6392e-004   7.7044e-005   8.2185e-005  -1.1072e+007   4.5248e+004   2.4655e+005    0.0000    0.0158    0.0000   -0.0000    0.0082

               lamina:  3     
              matName:  (spar-core)
                     s           e11           e22           e12           s11           s22           s12   s11_fcT   s11_fcC   s22_fcT   s22_fcC   s12_fcS
                   (m)         (m/m)         (m/m)         (rad)          (Pa)          (Pa)          (Pa)       (-)       (-)       (-)       (-)       (-)
                0.0000   2.5330e-004  -7.3457e-005   7.8076e-005   6.6076e+004   7.2407e+002   1.5615e+003    0.0000   -0.0000    0.0000   -0.0000    0.0000
                0.1912   1.8513e-004  -5.3688e-005   1.0254e-004   4.8294e+004   5.2921e+002   2.0508e+003    0.0000   -0.0000    0.0000   -0.0000    0.0000
                0.5126   7.2987e-005  -2.1166e-005   1.2676e-004   1.9039e+004   2.0864e+002   2.5351e+003    0.0000   -0.0000    0.0000   -0.0000    0.0000
                0.8487  -4.1438e-005   1.2017e-005   1.2986e-004  -1.0809e+004  -1.1845e+002   2.5971e+003    0.0000    0.0000    0.0000    0.0000    0.0000
                1.1983  -1.5726e-004   4.5604e-005   1.0959e-004  -4.1022e+004  -4.4953e+002   2.1919e+003    0.0000    0.0000    0.0000    0.0000    0.0000
                1.4379  -2.3472e-004   6.8069e-005   8.2185e-005  -6.1229e+004  -6.7096e+002   1.6437e+003    0.0000    0.0000    0.0000    0.0000    0.0000

               lamina:  4     
              matName:  (spar-uni)
                     s           e11           e22           e12           s11           s22           s12   s11_fcT   s11_fcC   s22_fcT   s22_fcC   s12_fcS
                   (m)         (m/m)         (m/m)         (rad)          (Pa)          (Pa)          (Pa)       (-)       (-)       (-)       (-)       (-)
                0.0000   2.6286e-004  -7.6396e-005   7.8076e-005   1.1029e+007  -4.0170e+004   2.3423e+005    0.0113   -0.0000    0.0000    0.0000    0.0078
                0.1912   1.9907e-004  -5.7973e-005   1.0254e-004   8.3520e+006  -3.2102e+004   3.0762e+005    0.0086   -0.0000    0.0000    0.0000    0.0103
                0.5126   9.2156e-005  -2.7060e-005   1.2676e-004   3.8655e+006  -1.8053e+004   3.8027e+005    0.0040   -0.0000    0.0000    0.0000    0.0127
                0.8487  -4.1437e-005   1.2017e-005   1.2986e-004  -1.7387e+006   5.9539e+003   3.8957e+005    0.0000    0.0025    0.0000   -0.0000    0.0130
                1.1983  -1.5726e-004   4.5604e-005   1.0959e-004  -6.5985e+006   2.2596e+004   3.2878e+005    0.0000    0.0094    0.0000   -0.0000    0.0110
                1.4379  -2.3472e-004   6.8068e-005   8.2185e-005  -9.8489e+006   3.3726e+004   2.4655e+005    0.0000    0.0140    0.0000   -0.0000    0.0082

               lamina:  5     
              matName:  (blade-shell)
                     s           e11           e22           e12           s11           s22           s12   s11_fcT   s11_fcC   s22_fcT   s22_fcC   s12_fcS
                   (m)         (m/m)         (m/m)         (rad)          (Pa)          (Pa)          (Pa)       (-)       (-)       (-)       (-)       (-)
                0.0000   2.6368e-004  -7.6648e-005   7.8076e-005   7.5586e+006   4.3865e+005   5.4653e+005    0.0525   -0.0000    0.0000   -0.0000    0.0091
                0.1912   2.0027e-004  -5.8341e-005   1.0254e-004   5.7400e+006   3.3123e+005   7.1777e+005    0.0399   -0.0000    0.0000   -0.0000    0.0120
                0.5126   9.3802e-005  -2.7565e-005   1.2676e-004   2.6870e+006   1.5149e+005   8.8729e+005    0.0187   -0.0000    0.0000   -0.0000    0.0148
                0.8487  -1.7566e-005   4.6772e-006   1.2986e-004  -5.0614e+005  -3.5747e+004   9.0899e+005    0.0000    0.0024    0.0000    0.0000    0.0151
                1.1983  -1.2997e-004   3.7214e-005   1.0959e-004  -3.7291e+006  -2.2482e+005   7.6715e+005    0.0000    0.0175    0.0000    0.0000    0.0128
                1.4379  -2.0553e-004   5.9093e-005   8.2185e-005  -5.8956e+006  -3.5181e+005   5.7529e+005    0.0000    0.0277    0.0000    0.0000    0.0096

            panel:  3     
           lam_num    nPlies        tPly      fibAng     matID  matName
               (-)       (-)         (m)       (deg)       (-)  (-)
                 1         1    0.005000      0.0000         2  (blade-shell)
                 2         1    0.025878      0.0000         6  (TEP-core)
                 3         1    0.005000      0.0000         2  (blade-shell)

               lamina:  1     
              matName:  (blade-shell)
                     s           e11           e22           e12           s11           s22           s12   s11_fcT   s11_fcC   s22_fcT   s22_fcC   s12_fcS
                   (m)         (m/m)         (m/m)         (rad)          (Pa)          (Pa)          (Pa)       (-)       (-)       (-)       (-)       (-)
                0.0000  -2.4583e-004   9.7205e-005   4.8891e-004  -6.8900e+006  -1.7125e+004   3.4224e+006    0.0000    0.0323    0.0000    0.0000    0.0570
                0.0053  -2.4755e-004   9.7886e-005   4.8867e-004  -6.9383e+006  -1.7247e+004   3.4207e+006    0.0000    0.0326    0.0000    0.0000    0.0570

               lamina:  2     
              matName:  (TEP-core)
                     s           e11           e22           e12           s11           s22           s12   s11_fcT   s11_fcC   s22_fcT   s22_fcC   s12_fcS
                   (m)         (m/m)         (m/m)         (rad)          (Pa)          (Pa)          (Pa)       (-)       (-)       (-)       (-)       (-)
                0.0000  -2.4474e-004   9.6772e-005   4.8891e-004  -6.1631e+004   6.6714e+003   9.7783e+003    0.0000    0.0000    0.0000   -0.0000    0.0000
                0.0053  -2.4646e-004   9.7454e-005   4.8867e-004  -6.2065e+004   6.7184e+003   9.7733e+003    0.0000    0.0000    0.0000   -0.0000    0.0000

               lamina:  3     
              matName:  (blade-shell)
                     s           e11           e22           e12           s11           s22           s12   s11_fcT   s11_fcC   s22_fcT   s22_fcC   s12_fcS
                   (m)         (m/m)         (m/m)         (rad)          (Pa)          (Pa)          (Pa)       (-)       (-)       (-)       (-)       (-)
                0.0000  -2.3913e-004   9.4533e-005   4.8891e-004  -6.7023e+006  -1.7012e+004   3.4224e+006    0.0000    0.0315    0.0000    0.0000    0.0570
                0.0053  -2.4085e-004   9.5214e-005   4.8867e-004  -6.7507e+006  -1.7133e+004   3.4207e+006    0.0000    0.0317    0.0000    0.0000    0.0570

            panel:  4     
           lam_num    nPlies        tPly      fibAng     matID  matName
               (-)       (-)         (m)       (deg)       (-)  (-)
                 1         1    0.005000      0.0000         2  (blade-shell)
                 2         1    0.025878      0.0000         6  (TEP-core)
                 3         1    0.005000      0.0000         2  (blade-shell)

               lamina:  1     
              matName:  (blade-shell)
                     s           e11           e22           e12           s11           s22           s12   s11_fcT   s11_fcC   s22_fcT   s22_fcC   s12_fcS
                   (m)         (m/m)         (m/m)         (rad)          (Pa)          (Pa)          (Pa)       (-)       (-)       (-)       (-)       (-)
                0.0000  -2.4755e-004   9.7886e-005   5.4329e-004  -6.9383e+006  -1.7247e+004   3.8030e+006    0.0000    0.0326    0.0000    0.0000    0.0634
                0.1143  -2.8473e-004   1.1259e-004   5.4304e-004  -7.9803e+006  -1.9857e+004   3.8013e+006    0.0000    0.0375    0.0000    0.0000    0.0634
                0.4796  -4.0083e-004   1.5849e-004   5.4304e-004  -1.1234e+007  -2.8035e+004   3.8013e+006    0.0000    0.0527    0.0000    0.0000    0.0634
                0.8441  -5.1498e-004   2.0362e-004   5.3727e-004  -1.4434e+007  -3.6077e+004   3.7609e+006    0.0000    0.0678    0.0000    0.0000    0.0627
                1.2019  -6.2638e-004   2.4766e-004   5.1347e-004  -1.7556e+007  -4.3931e+004   3.5943e+006    0.0000    0.0824    0.0000    0.0000    0.0599
                1.4351  -6.9919e-004   2.7645e-004   4.8166e-004  -1.9597e+007  -4.9067e+004   3.3716e+006    0.0000    0.0920    0.0000    0.0000    0.0562

               lamina:  2     
              matName:  (TEP-core)
                     s           e11           e22           e12           s11           s22           s12   s11_fcT   s11_fcC   s22_fcT   s22_fcC   s12_fcS
                   (m)         (m/m)         (m/m)         (rad)          (Pa)          (Pa)          (Pa)       (-)       (-)       (-)       (-)       (-)
                0.0000  -2.4646e-004   9.7454e-005   5.4329e-004  -6.2065e+004   6.7184e+003   1.0866e+004    0.0000    0.0000    0.0000   -0.0000    0.0000
                0.1143  -2.8358e-004   1.1213e-004   5.4304e-004  -7.1413e+004   7.7299e+003   1.0861e+004    0.0000    0.0000    0.0000   -0.0000    0.0000
                0.4796  -3.9964e-004   1.5801e-004   5.4304e-004  -1.0064e+005   1.0892e+004   1.0861e+004    0.0000    0.0000    0.0000   -0.0000    0.0000
                0.8441  -5.1376e-004   2.0313e-004   5.3727e-004  -1.2938e+005   1.4002e+004   1.0745e+004    0.0000    0.0000    0.0000   -0.0000    0.0000
                1.2019  -6.2515e-004   2.4717e-004   5.1347e-004  -1.5743e+005   1.7037e+004   1.0269e+004    0.0000    0.0000    0.0000   -0.0000    0.0000
                1.4351  -6.9797e-004   2.7597e-004   4.8166e-004  -1.7577e+005   1.9021e+004   9.6333e+003    0.0000    0.0000    0.0000   -0.0000    0.0000

               lamina:  3     
              matName:  (blade-shell)
                     s           e11           e22           e12           s11           s22           s12   s11_fcT   s11_fcC   s22_fcT   s22_fcC   s12_fcS
                   (m)         (m/m)         (m/m)         (rad)          (Pa)          (Pa)          (Pa)       (-)       (-)       (-)       (-)       (-)
                0.0000  -2.4085e-004   9.5214e-005   5.4329e-004  -6.7507e+006  -1.7133e+004   3.8030e+006    0.0000    0.0317    0.0000    0.0000    0.0634
                0.1143  -2.7766e-004   1.0977e-004   5.4304e-004  -7.7824e+006  -1.9737e+004   3.8013e+006    0.0000    0.0365    0.0000    0.0000    0.0634
                0.4796  -3.9347e-004   1.5556e-004   5.4304e-004  -1.1028e+007  -2.7910e+004   3.8013e+006    0.0000    0.0518    0.0000    0.0000    0.0634
                0.8441  -5.0740e-004   2.0060e-004   5.3727e-004  -1.4222e+007  -3.5948e+004   3.7609e+006    0.0000    0.0668    0.0000    0.0000    0.0627
                1.2019  -6.1877e-004   2.4463e-004   5.1347e-004  -1.7343e+007  -4.3802e+004   3.5943e+006    0.0000    0.0814    0.0000    0.0000    0.0599
                1.4351  -6.9164e-004   2.7344e-004   4.8166e-004  -1.9385e+007  -4.8939e+004   3.3716e+006    0.0000    0.0910    0.0000    0.0000    0.0562

            panel:  5     
           lam_num    nPlies        tPly      fibAng     matID  matName
               (-)       (-)         (m)       (deg)       (-)  (-)
                 1         1    0.005000      0.0000         2  (blade-shell)
                 2         1    0.025878      0.0000         6  (TEP-core)
                 3         1    0.005000      0.0000         2  (blade-shell)

               lamina:  1     
              matName:  (blade-shell)
                     s           e11           e22           e12           s11           s22           s12   s11_fcT   s11_fcC   s22_fcT   s22_fcC   s12_fcS
                   (m)         (m/m)         (m/m)         (rad)          (Pa)          (Pa)          (Pa)       (-)       (-)       (-)       (-)       (-)
                0.0000  -6.9919e-004   2.7645e-004   4.4268e-004  -1.9597e+007  -4.9067e+004   3.0987e+006    0.0000    0.0920    0.0000    0.0000    0.0516
                0.1124  -7.3413e-004   2.9027e-004   4.1314e-004  -2.0576e+007  -5.1541e+004   2.8920e+006    0.0000    0.0966    0.0000    0.0000    0.0482
                0.4388  -8.3772e-004   3.3122e-004   4.2996e-004  -2.3480e+007  -5.8857e+004   3.0097e+006    0.0000    0.1102    0.0000    0.0000    0.0502
                0.7425  -9.3612e-004   3.7012e-004   4.1455e-004  -2.6238e+007  -6.5818e+004   2.9019e+006    0.0000    0.1232    0.0000    0.0000    0.0484
                1.0202  -1.0285e-003   4.0663e-004   3.6545e-004  -2.8826e+007  -7.2360e+004   2.5582e+006    0.0000    0.1353    0.0000    0.0000    0.0426
                1.2701  -1.1137e-003   4.4034e-004   3.1384e-004  -3.1216e+007  -7.8403e+004   2.1969e+006    0.0000    0.1466    0.0000    0.0000    0.0366
                1.4913  -1.1906e-003   4.7072e-004   2.6153e-004  -3.3370e+007  -8.3855e+004   1.8307e+006    0.0000    0.1567    0.0000    0.0000    0.0305
                1.6828  -1.2580e-003   4.9738e-004   2.1015e-004  -3.5260e+007  -8.8642e+004   1.4711e+006    0.0000    0.1655    0.0000    0.0000    0.0245
                1.8429  -1.3149e-003   5.1989e-004   1.6120e-004  -3.6855e+007  -9.2683e+004   1.1284e+006    0.0000    0.1730    0.0000    0.0000    0.0188
                1.9699  -1.3603e-003   5.3781e-004   1.1616e-004  -3.8126e+007  -9.5900e+004   8.1309e+005    0.0000    0.1790    0.0000    0.0000    0.0136
                2.0623  -1.3932e-003   5.5084e-004   7.6541e-005  -3.9050e+007  -9.8242e+004   5.3578e+005    0.0000    0.1833    0.0000    0.0000    0.0089
                2.1149  -1.4138e-003   5.5897e-004   4.3865e-005  -3.9626e+007  -9.9604e+004   3.0706e+005    0.0000    0.1860    0.0000    0.0000    0.0051
                2.1272  -1.4207e-003   5.6170e-004   1.9389e-005  -3.9818e+007  -9.9855e+004   1.3572e+005    0.0000    0.1869    0.0000    0.0000    0.0023

               lamina:  2     
              matName:  (TEP-core)
                     s           e11           e22           e12           s11           s22           s12   s11_fcT   s11_fcC   s22_fcT   s22_fcC   s12_fcS
                   (m)         (m/m)         (m/m)         (rad)          (Pa)          (Pa)          (Pa)       (-)       (-)       (-)       (-)       (-)
                0.0000  -6.9797e-004   2.7597e-004   4.4268e-004  -1.7577e+005   1.9021e+004   8.8535e+003    0.0000    0.0000    0.0000   -0.0000    0.0000
                0.1124  -7.3296e-004   2.8980e-004   4.1314e-004  -1.8458e+005   1.9974e+004   8.2628e+003    0.0000    0.0000    0.0000   -0.0000    0.0000
                0.4388  -8.3662e-004   3.3078e-004   4.2996e-004  -2.1068e+005   2.2799e+004   8.5993e+003    0.0000    0.0000    0.0000   -0.0000    0.0000
                0.7425  -9.3513e-004   3.6973e-004   4.1455e-004  -2.3549e+005   2.5483e+004   8.2910e+003    0.0000    0.0000    0.0000   -0.0000    0.0000
                1.0202  -1.0276e-003   4.0630e-004   3.6545e-004  -2.5879e+005   2.8003e+004   7.3091e+003    0.0000    0.0000    0.0000   -0.0000    0.0000
                1.2701  -1.1131e-003   4.4007e-004   3.1384e-004  -2.8030e+005   3.0330e+004   6.2768e+003    0.0000    0.0000    0.0000   -0.0000    0.0000
                1.4913  -1.1901e-003   4.7053e-004   2.6153e-004  -2.9969e+005   3.2428e+004   5.2306e+003    0.0000    0.0000    0.0000   -0.0000    0.0000
                1.6828  -1.2577e-003   4.9725e-004   2.1015e-004  -3.1672e+005   3.4269e+004   4.2031e+003    0.0000    0.0000    0.0000   -0.0000    0.0000
                1.8429  -1.3148e-003   5.1981e-004   1.6120e-004  -3.3109e+005   3.5824e+004   3.2239e+003    0.0000    0.0000    0.0000   -0.0000    0.0000
                1.9699  -1.3602e-003   5.3777e-004   1.1616e-004  -3.4253e+005   3.7062e+004   2.3231e+003    0.0000    0.0000    0.0000   -0.0000    0.0000
                2.0623  -1.3933e-003   5.5085e-004   7.6541e-005  -3.5086e+005   3.7963e+004   1.5308e+003    0.0000    0.0000    0.0000   -0.0000    0.0000
                2.1149  -1.4133e-003   5.5879e-004   4.3865e-005  -3.5592e+005   3.8511e+004   8.7730e+002    0.0000    0.0000    0.0000   -0.0000    0.0000
                2.1272  -1.4190e-003   5.6104e-004   1.9389e-005  -3.5734e+005   3.8668e+004   3.8778e+002    0.0000    0.0000    0.0000   -0.0000    0.0000

               lamina:  3     
              matName:  (blade-shell)
                     s           e11           e22           e12           s11           s22           s12   s11_fcT   s11_fcC   s22_fcT   s22_fcC   s12_fcS
                   (m)         (m/m)         (m/m)         (rad)          (Pa)          (Pa)          (Pa)       (-)       (-)       (-)       (-)       (-)
                0.0000  -6.9164e-004   2.7344e-004   4.4268e-004  -1.9385e+007  -4.8939e+004   3.0987e+006    0.0000    0.0910    0.0000    0.0000    0.0516
                0.1124  -7.2690e-004   2.8738e-004   4.1314e-004  -2.0374e+007  -5.1418e+004   2.8920e+006    0.0000    0.0957    0.0000    0.0000    0.0482
                0.4388  -8.3089e-004   3.2850e-004   4.2996e-004  -2.3288e+007  -5.8741e+004   3.0097e+006    0.0000    0.1093    0.0000    0.0000    0.0502
                0.7425  -9.3002e-004   3.6769e-004   4.1455e-004  -2.6067e+007  -6.5715e+004   2.9019e+006    0.0000    0.1224    0.0000    0.0000    0.0484
                1.0202  -1.0233e-003   4.0458e-004   3.6545e-004  -2.8682e+007  -7.2273e+004   2.5582e+006    0.0000    0.1347    0.0000    0.0000    0.0426
                1.2701  -1.1096e-003   4.3869e-004   3.1384e-004  -3.1100e+007  -7.8333e+004   2.1969e+006    0.0000    0.1460    0.0000    0.0000    0.0366
                1.4913  -1.1875e-003   4.6949e-004   2.6153e-004  -3.3284e+007  -8.3803e+004   1.8307e+006    0.0000    0.1563    0.0000    0.0000    0.0305
                1.6828  -1.2560e-003   4.9657e-004   2.1015e-004  -3.5203e+007  -8.8607e+004   1.4711e+006    0.0000    0.1653    0.0000    0.0000    0.0245
                1.8429  -1.3138e-003   5.1942e-004   1.6120e-004  -3.6823e+007  -9.2664e+004   1.1284e+006    0.0000    0.1729    0.0000    0.0000    0.0188
                1.9699  -1.3597e-003   5.3760e-004   1.1616e-004  -3.8111e+007  -9.5891e+004   8.1309e+005    0.0000    0.1789    0.0000    0.0000    0.0136
                2.0623  -1.3933e-003   5.5085e-004   7.6541e-005  -3.9051e+007  -9.8242e+004   5.3578e+005    0.0000    0.1833    0.0000    0.0000    0.0089
                2.1149  -1.4110e-003   5.5787e-004   4.3865e-005  -3.9549e+007  -9.9557e+004   3.0706e+005    0.0000    0.1857    0.0000    0.0000    0.0051
                2.1272  -1.4104e-003   5.5761e-004   1.9389e-005  -3.9531e+007  -9.9680e+004   1.3572e+005    0.0000    0.1856    0.0000    0.0000    0.0023

     Web:  panel  nNode   nLam     xc_St    xc_End         b         t         E_eff         G_eff      nu_eff     density  buckleCrit
            (-)    (-)    (-)       (-)       (-)       (m)       (m)          (Pa)          (Pa)         (-)    (kg/m^3)         (-)
              1     10      3    0.2674    0.2674    1.6358    0.0830   7.6445e+008   4.5301e+008      0.4420    257.1084      0.0001
              2     10      3    0.4834    0.4834    1.4451    0.0830   7.6445e+008   4.5301e+008      0.4420    257.1084      0.0000
              3     10      3    0.6875    0.6875    0.7286    0.0830   7.6445e+008   4.5301e+008      0.4420    257.1084      0.0000

            panel:  1     
           lam_num    nPlies        tPly      fibAng     matID  matName
               (-)       (-)         (m)       (deg)       (-)  (-)
                 1         1    0.001500      0.0000         7  (web-shell)
                 2         1    0.080000      0.0000         8  (web-core)
                 3         1    0.001500      0.0000         7  (web-shell)

               lamina:  1     
              matName:  (web-shell)
                     s           e11           e22           e12           s11           s22           s12   s11_fcT   s11_fcC   s22_fcT   s22_fcC   s12_fcS
                   (m)         (m/m)         (m/m)         (rad)          (Pa)          (Pa)          (Pa)       (-)       (-)       (-)       (-)       (-)
                0.0000   3.4261e-004  -1.5078e-004   1.5471e-004   4.9880e+006   3.8312e+005   1.8565e+006    0.0346   -0.0000    0.0000   -0.0000    0.0206
                0.1818   3.3061e-004  -1.4547e-004   1.5987e-004   4.8136e+006   3.7013e+005   1.9185e+006    0.0334   -0.0000    0.0000   -0.0000    0.0213
                0.3635   3.1861e-004  -1.4017e-004   1.6486e-004   4.6391e+006   3.5714e+005   1.9783e+006    0.0322   -0.0000    0.0000   -0.0000    0.0220
                0.5453   3.0661e-004  -1.3487e-004   1.6967e-004   4.4646e+006   3.4416e+005   2.0361e+006    0.0310   -0.0000    0.0000   -0.0000    0.0226
                0.7270   2.9461e-004  -1.2956e-004   1.7431e-004   4.2901e+006   3.3117e+005   2.0917e+006    0.0298   -0.0000    0.0000   -0.0000    0.0232
                0.9088   2.8261e-004  -1.2426e-004   1.7877e-004   4.1156e+006   3.1819e+005   2.1453e+006    0.0286   -0.0000    0.0000   -0.0000    0.0238
                1.0905   2.7060e-004  -1.1895e-004   1.8307e-004   3.9411e+006   3.0520e+005   2.1968e+006    0.0274   -0.0000    0.0000   -0.0000    0.0244
                1.2723   2.5860e-004  -1.1365e-004   1.8718e-004   3.7666e+006   2.9222e+005   2.2462e+006    0.0262   -0.0000    0.0000   -0.0000    0.0250
                1.4540   2.4660e-004  -1.0834e-004   1.9112e-004   3.5921e+006   2.7923e+005   2.2935e+006    0.0249   -0.0000    0.0000   -0.0000    0.0255
                1.6358   2.3460e-004  -1.0304e-004   1.9489e-004   3.4176e+006   2.6624e+005   2.3387e+006    0.0237   -0.0000    0.0000   -0.0000    0.0260

               lamina:  2     
              matName:  (web-core)
                     s           e11           e22           e12           s11           s22           s12   s11_fcT   s11_fcC   s22_fcT   s22_fcC   s12_fcS
                   (m)         (m/m)         (m/m)         (rad)          (Pa)          (Pa)          (Pa)       (-)       (-)       (-)       (-)       (-)
                0.0000   3.8071e-004  -1.6895e-004   1.5471e-004   9.4293e+004  -1.5638e+004   3.0942e+003    0.0000   -0.0000    0.0000    0.0000    0.0000
                0.1818   3.6871e-004  -1.6364e-004   1.5987e-004   9.1319e+004  -1.5151e+004   3.1974e+003    0.0000   -0.0000    0.0000    0.0000    0.0000
                0.3635   3.5671e-004  -1.5834e-004   1.6486e-004   8.8345e+004  -1.4664e+004   3.2972e+003    0.0000   -0.0000    0.0000    0.0000    0.0000
                0.5453   3.4471e-004  -1.5303e-004   1.6967e-004   8.5371e+004  -1.4177e+004   3.3934e+003    0.0000   -0.0000    0.0000    0.0000    0.0000
                0.7270   3.3271e-004  -1.4773e-004   1.7431e-004   8.2397e+004  -1.3691e+004   3.4862e+003    0.0000   -0.0000    0.0000    0.0000    0.0000
                0.9088   3.2071e-004  -1.4242e-004   1.7877e-004   7.9423e+004  -1.3204e+004   3.5755e+003    0.0000   -0.0000    0.0000    0.0000    0.0000
                1.0905   3.0871e-004  -1.3712e-004   1.8307e-004   7.6449e+004  -1.2717e+004   3.6613e+003    0.0000   -0.0000    0.0000    0.0000    0.0000
                1.2723   2.9671e-004  -1.3182e-004   1.8718e-004   7.3475e+004  -1.2230e+004   3.7436e+003    0.0000   -0.0000    0.0000    0.0000    0.0000
                1.4540   2.8471e-004  -1.2651e-004   1.9112e-004   7.0501e+004  -1.1743e+004   3.8225e+003    0.0000   -0.0000    0.0000    0.0000    0.0000
                1.6358   2.7271e-004  -1.2121e-004   1.9489e-004   6.7527e+004  -1.1256e+004   3.8978e+003    0.0000   -0.0000    0.0000    0.0000    0.0000

               lamina:  3     
              matName:  (web-shell)
                     s           e11           e22           e12           s11           s22           s12   s11_fcT   s11_fcC   s22_fcT   s22_fcC   s12_fcS
                   (m)         (m/m)         (m/m)         (rad)          (Pa)          (Pa)          (Pa)       (-)       (-)       (-)       (-)       (-)
                0.0000   3.8142e-004  -1.6929e-004   1.5471e-004   5.5399e+006   3.9991e+005   1.8565e+006    0.0385   -0.0000    0.0000   -0.0000    0.0206
                0.1818   3.6942e-004  -1.6398e-004   1.5987e-004   5.3654e+006   3.8692e+005   1.9185e+006    0.0373   -0.0000    0.0000   -0.0000    0.0213
                0.3635   3.5742e-004  -1.5868e-004   1.6486e-004   5.1909e+006   3.7394e+005   1.9783e+006    0.0360   -0.0000    0.0000   -0.0000    0.0220
                0.5453   3.4542e-004  -1.5337e-004   1.6967e-004   5.0164e+006   3.6095e+005   2.0361e+006    0.0348   -0.0000    0.0000   -0.0000    0.0226
                0.7270   3.3342e-004  -1.4807e-004   1.7431e-004   4.8419e+006   3.4797e+005   2.0917e+006    0.0336   -0.0000    0.0000   -0.0000    0.0232
                0.9088   3.2142e-004  -1.4277e-004   1.7877e-004   4.6674e+006   3.3498e+005   2.1453e+006    0.0324   -0.0000    0.0000   -0.0000    0.0238
                1.0905   3.0942e-004  -1.3746e-004   1.8307e-004   4.4929e+006   3.2200e+005   2.1968e+006    0.0312   -0.0000    0.0000   -0.0000    0.0244
                1.2723   2.9742e-004  -1.3216e-004   1.8718e-004   4.3184e+006   3.0901e+005   2.2462e+006    0.0300   -0.0000    0.0000   -0.0000    0.0250
                1.4540   2.8542e-004  -1.2685e-004   1.9112e-004   4.1439e+006   2.9602e+005   2.2935e+006    0.0288   -0.0000    0.0000   -0.0000    0.0255
                1.6358   2.7342e-004  -1.2155e-004   1.9489e-004   3.9694e+006   2.8304e+005   2.3387e+006    0.0276   -0.0000    0.0000   -0.0000    0.0260

            panel:  2     
           lam_num    nPlies        tPly      fibAng     matID  matName
               (-)       (-)         (m)       (deg)       (-)  (-)
                 1         1    0.001500      0.0000         7  (web-shell)
                 2         1    0.080000      0.0000         8  (web-core)
                 3         1    0.001500      0.0000         7  (web-shell)

               lamina:  1     
              matName:  (web-shell)
                     s           e11           e22           e12           s11           s22           s12   s11_fcT   s11_fcC   s22_fcT   s22_fcC   s12_fcS
                   (m)         (m/m)         (m/m)         (rad)          (Pa)          (Pa)          (Pa)       (-)       (-)       (-)       (-)       (-)
                0.0000  -1.6571e-004   7.3938e-005   1.2475e-004  -2.4032e+006  -1.6648e+005   1.4970e+006    0.0000    0.0113    0.0000    0.0000    0.0166
                0.1606  -1.7625e-004   7.8597e-005   1.2281e-004  -2.5565e+006  -1.7789e+005   1.4738e+006    0.0000    0.0120    0.0000    0.0000    0.0164
                0.3211  -1.8679e-004   8.3256e-005   1.2074e-004  -2.7098e+006  -1.8929e+005   1.4489e+006    0.0000    0.0127    0.0000    0.0000    0.0161
                0.4817  -1.9733e-004   8.7915e-005   1.1853e-004  -2.8630e+006  -2.0070e+005   1.4224e+006    0.0000    0.0134    0.0000    0.0000    0.0158
                0.6423  -2.0787e-004   9.2574e-005   1.1619e-004  -3.0163e+006  -2.1210e+005   1.3942e+006    0.0000    0.0142    0.0000    0.0000    0.0155
                0.8029  -2.1841e-004   9.7233e-005   1.1371e-004  -3.1695e+006  -2.2351e+005   1.3645e+006    0.0000    0.0149    0.0000    0.0000    0.0152
                0.9634  -2.2895e-004   1.0189e-004   1.1109e-004  -3.3228e+006  -2.3492e+005   1.3331e+006    0.0000    0.0156    0.0000    0.0000    0.0148
                1.1240  -2.3949e-004   1.0655e-004   1.0835e-004  -3.4761e+006  -2.4632e+005   1.3001e+006    0.0000    0.0163    0.0000    0.0000    0.0144
                1.2846  -2.5003e-004   1.1121e-004   1.0546e-004  -3.6293e+006  -2.5773e+005   1.2655e+006    0.0000    0.0170    0.0000    0.0000    0.0141
                1.4451  -2.6057e-004   1.1587e-004   1.0244e-004  -3.7826e+006  -2.6913e+005   1.2293e+006    0.0000    0.0178    0.0000    0.0000    0.0137

               lamina:  2     
              matName:  (web-core)
                     s           e11           e22           e12           s11           s22           s12   s11_fcT   s11_fcC   s22_fcT   s22_fcC   s12_fcS
                   (m)         (m/m)         (m/m)         (rad)          (Pa)          (Pa)          (Pa)       (-)       (-)       (-)       (-)       (-)
                0.0000  -1.6500e-004   7.3597e-005   1.2475e-004  -4.0834e+004   6.8850e+003   2.4950e+003    0.0000    0.0000    0.0000   -0.0000    0.0000
                0.1606  -1.7554e-004   7.8256e-005   1.2281e-004  -4.3446e+004   7.3127e+003   2.4563e+003    0.0000    0.0000    0.0000   -0.0000    0.0000
                0.3211  -1.8608e-004   8.2915e-005   1.2074e-004  -4.6058e+004   7.7404e+003   2.4148e+003    0.0000    0.0000    0.0000   -0.0000    0.0000
                0.4817  -1.9662e-004   8.7574e-005   1.1853e-004  -4.8670e+004   8.1681e+003   2.3706e+003    0.0000    0.0000    0.0000   -0.0000    0.0000
                0.6423  -2.0716e-004   9.2233e-005   1.1619e-004  -5.1282e+004   8.5958e+003   2.3237e+003    0.0000    0.0000    0.0000   -0.0000    0.0000
                0.8029  -2.1770e-004   9.6892e-005   1.1371e-004  -5.3894e+004   9.0235e+003   2.2742e+003    0.0000    0.0000    0.0000   -0.0000    0.0000
                0.9634  -2.2824e-004   1.0155e-004   1.1109e-004  -5.6507e+004   9.4513e+003   2.2219e+003    0.0000    0.0000    0.0000   -0.0000    0.0000
                1.1240  -2.3878e-004   1.0621e-004   1.0835e-004  -5.9119e+004   9.8790e+003   2.1669e+003    0.0000    0.0000    0.0000   -0.0000    0.0000
                1.2846  -2.4932e-004   1.1087e-004   1.0546e-004  -6.1731e+004   1.0307e+004   2.1092e+003    0.0000    0.0000    0.0000   -0.0000    0.0000
                1.4451  -2.5986e-004   1.1553e-004   1.0244e-004  -6.4343e+004   1.0734e+004   2.0489e+003    0.0000    0.0000    0.0000   -0.0000    0.0000

               lamina:  3     
              matName:  (web-shell)
                     s           e11           e22           e12           s11           s22           s12   s11_fcT   s11_fcC   s22_fcT   s22_fcC   s12_fcS
                   (m)         (m/m)         (m/m)         (rad)          (Pa)          (Pa)          (Pa)       (-)       (-)       (-)       (-)       (-)
                0.0000  -1.2689e-004   5.5426e-005   1.2475e-004  -1.8513e+006  -1.4969e+005   1.4970e+006    0.0000    0.0087    0.0000    0.0000    0.0166
                0.1606  -1.3743e-004   6.0085e-005   1.2281e-004  -2.0046e+006  -1.6109e+005   1.4738e+006    0.0000    0.0094    0.0000    0.0000    0.0164
                0.3211  -1.4797e-004   6.4744e-005   1.2074e-004  -2.1578e+006  -1.7250e+005   1.4489e+006    0.0000    0.0101    0.0000    0.0000    0.0161
                0.4817  -1.5851e-004   6.9403e-005   1.1853e-004  -2.3111e+006  -1.8390e+005   1.4224e+006    0.0000    0.0109    0.0000    0.0000    0.0158
                0.6423  -1.6905e-004   7.4062e-005   1.1619e-004  -2.4643e+006  -1.9531e+005   1.3942e+006    0.0000    0.0116    0.0000    0.0000    0.0155
                0.8029  -1.7959e-004   7.8721e-005   1.1371e-004  -2.6176e+006  -2.0671e+005   1.3645e+006    0.0000    0.0123    0.0000    0.0000    0.0152
                0.9634  -1.9013e-004   8.3380e-005   1.1109e-004  -2.7709e+006  -2.1812e+005   1.3331e+006    0.0000    0.0130    0.0000    0.0000    0.0148
                1.1240  -2.0067e-004   8.8038e-005   1.0835e-004  -2.9241e+006  -2.2952e+005   1.3001e+006    0.0000    0.0137    0.0000    0.0000    0.0144
                1.2846  -2.1121e-004   9.2697e-005   1.0546e-004  -3.0774e+006  -2.4093e+005   1.2655e+006    0.0000    0.0144    0.0000    0.0000    0.0141
                1.4451  -2.2175e-004   9.7356e-005   1.0244e-004  -3.2306e+006  -2.5234e+005   1.2293e+006    0.0000    0.0152    0.0000    0.0000    0.0137

            panel:  3     
           lam_num    nPlies        tPly      fibAng     matID  matName
               (-)       (-)         (m)       (deg)       (-)  (-)
                 1         1    0.001500      0.0000         7  (web-shell)
                 2         1    0.080000      0.0000         8  (web-core)
                 3         1    0.001500      0.0000         7  (web-shell)

               lamina:  1     
              matName:  (web-shell)
                     s           e11           e22           e12           s11           s22           s12   s11_fcT   s11_fcC   s22_fcT   s22_fcC   s12_fcS
                   (m)         (m/m)         (m/m)         (rad)          (Pa)          (Pa)          (Pa)       (-)       (-)       (-)       (-)       (-)
                0.0000  -6.6407e-004   2.9422e-004   7.0405e-005  -9.6498e+006  -7.0576e+005   8.4486e+005    0.0000    0.0453    0.0000    0.0000    0.0094
                0.0810  -6.6932e-004   2.9655e-004   6.6223e-005  -9.7262e+006  -7.1144e+005   7.9468e+005    0.0000    0.0457    0.0000    0.0000    0.0088
                0.1619  -6.7458e-004   2.9887e-004   6.2008e-005  -9.8026e+006  -7.1713e+005   7.4410e+005    0.0000    0.0460    0.0000    0.0000    0.0083
                0.2429  -6.7983e-004   3.0119e-004   5.7759e-005  -9.8790e+006  -7.2282e+005   6.9311e+005    0.0000    0.0464    0.0000    0.0000    0.0077
                0.3238  -6.8509e-004   3.0352e-004   5.3476e-005  -9.9554e+006  -7.2850e+005   6.4171e+005    0.0000    0.0467    0.0000    0.0000    0.0071
                0.4048  -6.9034e-004   3.0584e-004   4.9159e-005  -1.0032e+007  -7.3419e+005   5.8991e+005    0.0000    0.0471    0.0000    0.0000    0.0066
                0.4858  -6.9560e-004   3.0816e-004   4.4808e-005  -1.0108e+007  -7.3988e+005   5.3769e+005    0.0000    0.0475    0.0000    0.0000    0.0060
                0.5667  -7.0085e-004   3.1048e-004   4.0423e-005  -1.0185e+007  -7.4556e+005   4.8507e+005    0.0000    0.0478    0.0000    0.0000    0.0054
                0.6477  -7.0611e-004   3.1281e-004   3.6004e-005  -1.0261e+007  -7.5125e+005   4.3204e+005    0.0000    0.0482    0.0000    0.0000    0.0048
                0.7286  -7.1136e-004   3.1513e-004   3.1551e-005  -1.0338e+007  -7.5694e+005   3.7861e+005    0.0000    0.0485    0.0000    0.0000    0.0042

               lamina:  2     
              matName:  (web-core)
                     s           e11           e22           e12           s11           s22           s12   s11_fcT   s11_fcC   s22_fcT   s22_fcC   s12_fcS
                   (m)         (m/m)         (m/m)         (rad)          (Pa)          (Pa)          (Pa)       (-)       (-)       (-)       (-)       (-)
                0.0000  -6.6335e-004   2.9388e-004   7.0405e-005  -1.6434e+005   2.7108e+004   1.4081e+003    0.0000    0.0000    0.0000   -0.0000    0.0000
                0.0810  -6.6861e-004   2.9621e-004   6.6223e-005  -1.6564e+005   2.7321e+004   1.3245e+003    0.0000    0.0000    0.0000   -0.0000    0.0000
                0.1619  -6.7386e-004   2.9853e-004   6.2008e-005  -1.6694e+005   2.7535e+004   1.2402e+003    0.0000    0.0000    0.0000   -0.0000    0.0000
                0.2429  -6.7912e-004   3.0085e-004   5.7759e-005  -1.6825e+005   2.7748e+004   1.1552e+003    0.0000    0.0000    0.0000   -0.0000    0.0000
                0.3238  -6.8437e-004   3.0317e-004   5.3476e-005  -1.6955e+005   2.7961e+004   1.0695e+003    0.0000    0.0000    0.0000   -0.0000    0.0000
                0.4048  -6.8963e-004   3.0550e-004   4.9159e-005  -1.7085e+005   2.8174e+004   9.8318e+002    0.0000    0.0000    0.0000   -0.0000    0.0000
                0.4858  -6.9488e-004   3.0782e-004   4.4808e-005  -1.7215e+005   2.8388e+004   8.9615e+002    0.0000    0.0000    0.0000   -0.0000    0.0000
                0.5667  -7.0014e-004   3.1014e-004   4.0423e-005  -1.7345e+005   2.8601e+004   8.0845e+002    0.0000    0.0000    0.0000   -0.0000    0.0000
                0.6477  -7.0539e-004   3.1247e-004   3.6004e-005  -1.7476e+005   2.8814e+004   7.2007e+002    0.0000    0.0000    0.0000   -0.0000    0.0000
                0.7286  -7.1065e-004   3.1479e-004   3.1551e-005  -1.7606e+005   2.9027e+004   6.3101e+002    0.0000    0.0000    0.0000   -0.0000    0.0000

               lamina:  3     
              matName:  (web-shell)
                     s           e11           e22           e12           s11           s22           s12   s11_fcT   s11_fcC   s22_fcT   s22_fcC   s12_fcS
                   (m)         (m/m)         (m/m)         (rad)          (Pa)          (Pa)          (Pa)       (-)       (-)       (-)       (-)       (-)
                0.0000  -6.2523e-004   2.7571e-004   7.0405e-005  -9.0977e+006  -6.8895e+005   8.4486e+005    0.0000    0.0427    0.0000    0.0000    0.0094
                0.0810  -6.3048e-004   2.7803e-004   6.6223e-005  -9.1741e+006  -6.9464e+005   7.9468e+005    0.0000    0.0431    0.0000    0.0000    0.0088
                0.1619  -6.3574e-004   2.8035e-004   6.2008e-005  -9.2505e+006  -7.0033e+005   7.4410e+005    0.0000    0.0434    0.0000    0.0000    0.0083
                0.2429  -6.4099e-004   2.8267e-004   5.7759e-005  -9.3269e+006  -7.0601e+005   6.9311e+005    0.0000    0.0438    0.0000    0.0000    0.0077
                0.3238  -6.4625e-004   2.8500e-004   5.3476e-005  -9.4033e+006  -7.1170e+005   6.4171e+005    0.0000    0.0441    0.0000    0.0000    0.0071
                0.4048  -6.5150e-004   2.8732e-004   4.9159e-005  -9.4797e+006  -7.1739e+005   5.8991e+005    0.0000    0.0445    0.0000    0.0000    0.0066
                0.4858  -6.5676e-004   2.8964e-004   4.4808e-005  -9.5561e+006  -7.2307e+005   5.3769e+005    0.0000    0.0449    0.0000    0.0000    0.0060
                0.5667  -6.6201e-004   2.9197e-004   4.0423e-005  -9.6325e+006  -7.2876e+005   4.8507e+005    0.0000    0.0452    0.0000    0.0000    0.0054
                0.6477  -6.6727e-004   2.9429e-004   3.6004e-005  -9.7090e+006  -7.3445e+005   4.3204e+005    0.0000    0.0456    0.0000    0.0000    0.0048
                0.7286  -6.7252e-004   2.9661e-004   3.1551e-005  -9.7854e+006  -7.4013e+005   3.7861e+005    0.0000    0.0459    0.0000    0.0000    0.0042

================================================================================
sec        =  22     
zSec       =  46.0000  (m)
nPanelsTop =  5      
nPanelsBot =  5      
nWebs      =  3      

    Top:  panel  nNode   nLam     xc_St    xc_End         b         t         E_eff         G_eff      nu_eff     density  buckleCrit
            (-)    (-)    (-)       (-)       (-)       (m)       (m)          (Pa)          (Pa)         (-)    (kg/m^3)         (-)
              1     12      3    0.0000    0.2618    1.8644    0.0700   4.2251e+009   1.0171e+009      0.3899    435.7143      0.0001
              2      6      5    0.2618    0.4882    1.4170    0.1194   4.0843e+010   3.3350e+009      0.2906   1914.1081      0.0000
              3      2      3    0.4882    0.4889    0.0046    0.0276   1.0313e+010   2.5491e+009      0.3968    797.8605      0.0000
              4      6      3    0.4889    0.6851    1.2579    0.0276   1.0313e+010   2.5491e+009      0.3968    797.8605      0.1389
              5     13      3    0.6851    1.0000    2.0475    0.0276   1.0313e+010   2.5491e+009      0.3968    797.8605      0.8724

            panel:  1     
           lam_num    nPlies        tPly      fibAng     matID  matName
               (-)       (-)         (m)       (deg)       (-)  (-)
                 1         1    0.005000      0.0000         2  (blade-shell)
                 2         1    0.060000      0.0000         5  (LEP-core)
                 3         1    0.005000      0.0000         2  (blade-shell)

               lamina:  1     
              matName:  (blade-shell)
                     s           e11           e22           e12           s11           s22           s12   s11_fcT   s11_fcC   s22_fcT   s22_fcC   s12_fcS
                   (m)         (m/m)         (m/m)         (rad)          (Pa)          (Pa)          (Pa)       (-)       (-)       (-)       (-)       (-)
                0.0000   7.8369e-004  -3.0564e-004   9.3679e-005   2.1991e+007   1.1933e+005   6.5575e+005    0.1527   -0.0000    0.0000   -0.0000    0.0109
                0.0775   7.8241e-004  -3.0513e-004   8.0716e-005   2.1955e+007   1.1917e+005   5.6501e+005    0.1525   -0.0000    0.0000   -0.0000    0.0094
                0.1631   7.7017e-004  -3.0035e-004   6.6502e-005   2.1612e+007   1.1744e+005   4.6551e+005    0.1501   -0.0000    0.0000   -0.0000    0.0078
                0.2768   7.4761e-004  -2.9155e-004   4.8013e-005   2.0979e+007   1.1411e+005   3.3609e+005    0.1457   -0.0000    0.0000   -0.0000    0.0056
                0.4196   7.1505e-004  -2.7884e-004   2.5598e-005   2.0065e+007   1.0921e+005   1.7919e+005    0.1393   -0.0000    0.0000   -0.0000    0.0030
                0.5905   6.7278e-004  -2.6236e-004   1.4654e-007   1.8879e+007   1.0280e+005   1.0258e+003    0.1311   -0.0000    0.0000   -0.0000    0.0000
                0.7870   6.2108e-004  -2.4219e-004   2.7152e-005   1.7428e+007   9.4924e+004   1.9007e+005    0.1210   -0.0000    0.0000   -0.0000    0.0032
                1.0075   5.6046e-004  -2.1856e-004   5.5146e-005   1.5727e+007   8.5670e+004   3.8602e+005    0.1092   -0.0000    0.0000   -0.0000    0.0064
                1.2499   4.9151e-004  -1.9167e-004   8.2546e-005   1.3792e+007   7.5129e+004   5.7782e+005    0.0958   -0.0000    0.0000   -0.0000    0.0096
                1.5118   4.1482e-004  -1.6176e-004   1.0804e-004   1.1640e+007   6.3396e+004   7.5625e+005    0.0808   -0.0000    0.0000   -0.0000    0.0126
                1.7914   3.3122e-004  -1.2917e-004   1.3043e-004   9.2944e+006   5.0573e+004   9.1303e+005    0.0645   -0.0000    0.0000   -0.0000    0.0152
                1.8644   3.0846e-004  -1.2029e-004   1.3544e-004   8.6559e+006   4.7134e+004   9.4811e+005    0.0601   -0.0000    0.0000   -0.0000    0.0158

               lamina:  2     
              matName:  (LEP-core)
                     s           e11           e22           e12           s11           s22           s12   s11_fcT   s11_fcC   s22_fcT   s22_fcC   s12_fcS
                   (m)         (m/m)         (m/m)         (rad)          (Pa)          (Pa)          (Pa)       (-)       (-)       (-)       (-)       (-)
                0.0000   7.8180e-004  -3.0488e-004   9.3679e-005   1.9724e+005  -2.0098e+004   1.8736e+003    0.0000   -0.0000    0.0000    0.0000    0.0000
                0.0775   7.8056e-004  -3.0440e-004   8.0716e-005   1.9693e+005  -2.0066e+004   1.6143e+003    0.0000   -0.0000    0.0000    0.0000    0.0000
                0.1631   7.6854e-004  -2.9970e-004   6.6502e-005   1.9389e+005  -1.9755e+004   1.3300e+003    0.0000   -0.0000    0.0000    0.0000    0.0000
                0.2768   7.4618e-004  -2.9098e-004   4.8013e-005   1.8825e+005  -1.9178e+004   9.6027e+002    0.0000   -0.0000    0.0000    0.0000    0.0000
                0.4196   7.1377e-004  -2.7834e-004   2.5598e-005   1.8008e+005  -1.8344e+004   5.1196e+002    0.0000   -0.0000    0.0000    0.0000    0.0000
                0.5905   6.7163e-004  -2.6190e-004   1.4654e-007   1.6945e+005  -1.7260e+004   2.9308e+000    0.0000   -0.0000    0.0000    0.0000    0.0000
                0.7870   6.2006e-004  -2.4179e-004   2.7152e-005   1.5643e+005  -1.5935e+004   5.4305e+002    0.0000   -0.0000    0.0000    0.0000    0.0000
                1.0075   5.5955e-004  -2.1819e-004   5.5146e-005   1.4117e+005  -1.4380e+004   1.1029e+003    0.0000   -0.0000    0.0000    0.0000    0.0000
                1.2499   4.9071e-004  -1.9135e-004   8.2546e-005   1.2380e+005  -1.2610e+004   1.6509e+003    0.0000   -0.0000    0.0000    0.0000    0.0000
                1.5118   4.1413e-004  -1.6149e-004   1.0804e-004   1.0448e+005  -1.0643e+004   2.1607e+003    0.0000   -0.0000    0.0000    0.0000    0.0000
                1.7914   3.3061e-004  -1.2892e-004   1.3043e-004   8.3409e+004  -8.4970e+003   2.6087e+003    0.0000   -0.0000    0.0000    0.0000    0.0000
                1.8644   3.0794e-004  -1.2008e-004   1.3544e-004   7.7691e+004  -7.9138e+003   2.7089e+003    0.0000   -0.0000    0.0000    0.0000    0.0000

               lamina:  3     
              matName:  (blade-shell)
                     s           e11           e22           e12           s11           s22           s12   s11_fcT   s11_fcC   s22_fcT   s22_fcC   s12_fcS
                   (m)         (m/m)         (m/m)         (rad)          (Pa)          (Pa)          (Pa)       (-)       (-)       (-)       (-)       (-)
                0.0000   7.5906e-004  -2.9586e-004   9.3679e-005   2.1301e+007   1.1817e+005   6.5575e+005    0.1479   -0.0000    0.0000   -0.0000    0.0109
                0.0775   7.5845e-004  -2.9562e-004   8.0716e-005   2.1284e+007   1.1804e+005   5.6501e+005    0.1478   -0.0000    0.0000   -0.0000    0.0094
                0.1631   7.4892e-004  -2.9192e-004   6.6502e-005   2.1016e+007   1.1644e+005   4.6551e+005    0.1459   -0.0000    0.0000   -0.0000    0.0078
                0.2768   7.2890e-004  -2.8412e-004   4.8013e-005   2.0455e+007   1.1323e+005   3.3609e+005    0.1420   -0.0000    0.0000   -0.0000    0.0056
                0.4196   6.9837e-004  -2.7222e-004   2.5598e-005   1.9598e+007   1.0842e+005   1.7919e+005    0.1361   -0.0000    0.0000   -0.0000    0.0030
                0.5905   6.5786e-004  -2.5644e-004   1.4654e-007   1.8461e+007   1.0209e+005   1.0258e+003    0.1282   -0.0000    0.0000   -0.0000    0.0000
                0.7870   6.0778e-004  -2.3691e-004   2.7152e-005   1.7055e+007   9.4298e+004   1.9007e+005    0.1184   -0.0000    0.0000   -0.0000    0.0032
                1.0075   5.4863e-004  -2.1386e-004   5.5146e-005   1.5396e+007   8.5113e+004   3.8602e+005    0.1069   -0.0000    0.0000   -0.0000    0.0064
                1.2499   4.8111e-004  -1.8754e-004   8.2546e-005   1.3501e+007   7.4639e+004   5.7782e+005    0.0938   -0.0000    0.0000   -0.0000    0.0096
                1.5118   4.0585e-004  -1.5820e-004   1.0804e-004   1.1389e+007   6.2974e+004   7.5625e+005    0.0791   -0.0000    0.0000   -0.0000    0.0126
                1.7914   3.2325e-004  -1.2600e-004   1.3043e-004   9.0710e+006   5.0197e+004   9.1303e+005    0.0630   -0.0000    0.0000   -0.0000    0.0152
                1.8644   3.0166e-004  -1.1759e-004   1.3544e-004   8.4653e+006   4.6814e+004   9.4811e+005    0.0588   -0.0000    0.0000   -0.0000    0.0158

            panel:  2     
           lam_num    nPlies        tPly      fibAng     matID  matName
               (-)       (-)         (m)       (deg)       (-)  (-)
                 1         1    0.005000      0.0000         2  (blade-shell)
                 2         1    0.054695      0.0000         3  (spar-uni)
                 3         1    0.000002      0.0000         4  (spar-core)
                 4         1    0.054695      0.0000         3  (spar-uni)
                 5         1    0.005000      0.0000         2  (blade-shell)

               lamina:  1     
              matName:  (blade-shell)
                     s           e11           e22           e12           s11           s22           s12   s11_fcT   s11_fcC   s22_fcT   s22_fcC   s12_fcS
                   (m)         (m/m)         (m/m)         (rad)          (Pa)          (Pa)          (Pa)       (-)       (-)       (-)       (-)       (-)
                0.0000   3.1904e-004  -9.3011e-005   1.2353e-005   9.1439e+006   5.2662e+005   8.6472e+004    0.0635   -0.0000    0.0000   -0.0000    0.0014
                0.2185   2.5030e-004  -7.2988e-005   5.0098e-005   7.1735e+006   4.1287e+005   3.5069e+005    0.0498   -0.0000    0.0000   -0.0000    0.0058
                0.5227   1.5257e-004  -4.4519e-005   8.7035e-005   4.3723e+006   2.5121e+005   6.0924e+005    0.0304   -0.0000    0.0000   -0.0000    0.0102
                0.8375   5.0499e-005  -1.4790e-005   1.0587e-004   1.4469e+006   8.2319e+004   7.4106e+005    0.0100   -0.0000    0.0000   -0.0000    0.0124
                1.1613  -5.4569e-005   1.5801e-005   1.0448e-004  -1.5646e+006  -9.1705e+004   7.3134e+005    0.0000    0.0073    0.0000    0.0000    0.0122
                1.4170  -1.3654e-004   3.9645e-005   8.8438e-005  -3.9141e+006  -2.2779e+005   6.1906e+005    0.0000    0.0184    0.0000    0.0000    0.0103

               lamina:  2     
              matName:  (spar-uni)
                     s           e11           e22           e12           s11           s22           s12   s11_fcT   s11_fcC   s22_fcT   s22_fcC   s12_fcS
                   (m)         (m/m)         (m/m)         (rad)          (Pa)          (Pa)          (Pa)       (-)       (-)       (-)       (-)       (-)
                0.0000   3.1767e-004  -9.2587e-005   1.2353e-005   1.3328e+007  -5.2311e+004   3.7059e+004    0.0137   -0.0000    0.0000    0.0000    0.0012
                0.2185   2.4914e-004  -7.2629e-005   5.0098e-005   1.0452e+007  -4.1270e+004   1.5029e+005    0.0108   -0.0000    0.0000    0.0000    0.0050
                0.5227   1.5172e-004  -4.4258e-005   8.7035e-005   6.3652e+006  -2.5525e+004   2.6110e+005    0.0065   -0.0000    0.0000    0.0000    0.0087
                0.8375   4.9971e-005  -1.4627e-005   1.0587e-004   2.0962e+006  -9.1293e+003   3.1760e+005    0.0022   -0.0000    0.0000    0.0000    0.0106
                1.1613  -5.7615e-005   1.6742e-005   1.0448e-004  -2.4174e+006   8.7692e+003   3.1343e+005    0.0000    0.0034    0.0000   -0.0000    0.0104
                1.4170  -1.3820e-004   4.0160e-005   8.8438e-005  -5.7986e+006   2.1035e+004   2.6531e+005    0.0000    0.0083    0.0000   -0.0000    0.0088

               lamina:  3     
              matName:  (spar-core)
                     s           e11           e22           e12           s11           s22           s12   s11_fcT   s11_fcC   s22_fcT   s22_fcC   s12_fcS
                   (m)         (m/m)         (m/m)         (rad)          (Pa)          (Pa)          (Pa)       (-)       (-)       (-)       (-)       (-)
                0.0000   3.0266e-004  -8.7948e-005   1.2353e-005   7.8934e+004   8.1391e+002   2.4706e+002    0.0000   -0.0000    0.0000   -0.0000    0.0000
                0.2185   2.3643e-004  -6.8704e-005   5.0098e-005   6.1663e+004   6.3581e+002   1.0020e+003    0.0000   -0.0000    0.0000   -0.0000    0.0000
                0.5227   1.4250e-004  -4.1409e-005   8.7035e-005   3.7165e+004   3.8321e+002   1.7407e+003    0.0000   -0.0000    0.0000   -0.0000    0.0000
                0.8375   4.4193e-005  -1.2842e-005   1.0587e-004   1.1526e+004   1.1884e+002   2.1173e+003    0.0000   -0.0000    0.0000   -0.0000    0.0000
                1.1613  -5.7615e-005   1.6742e-005   1.0448e-004  -1.5026e+004  -1.5494e+002   2.0895e+003    0.0000    0.0000    0.0000    0.0000    0.0000
                1.4170  -1.3820e-004   4.0160e-005   8.8438e-005  -3.6044e+004  -3.7166e+002   1.7688e+003    0.0000    0.0000    0.0000    0.0000    0.0000

               lamina:  4     
              matName:  (spar-uni)
                     s           e11           e22           e12           s11           s22           s12   s11_fcT   s11_fcC   s22_fcT   s22_fcC   s12_fcS
                   (m)         (m/m)         (m/m)         (rad)          (Pa)          (Pa)          (Pa)       (-)       (-)       (-)       (-)       (-)
                0.0000   3.0265e-004  -8.7948e-005   1.2353e-005   1.2699e+007  -4.6066e+004   3.7059e+004    0.0131   -0.0000    0.0000    0.0000    0.0012
                0.2185   2.3643e-004  -6.8703e-005   5.0098e-005   9.9200e+006  -3.5986e+004   1.5029e+005    0.0102   -0.0000    0.0000    0.0000    0.0050
                0.5227   1.4250e-004  -4.1408e-005   8.7035e-005   5.9789e+006  -2.1689e+004   2.6110e+005    0.0062   -0.0000    0.0000    0.0000    0.0087
                0.8375   4.4193e-005  -1.2842e-005   1.0587e-004   1.8542e+006  -6.7263e+003   3.1760e+005    0.0019   -0.0000    0.0000    0.0000    0.0106
                1.1613  -6.0661e-005   1.7683e-005   1.0448e-004  -2.5449e+006   1.0036e+004   3.1343e+005    0.0000    0.0036    0.0000   -0.0000    0.0104
                1.4170  -1.3987e-004   4.0675e-005   8.8438e-005  -5.8684e+006   2.1728e+004   2.6531e+005    0.0000    0.0084    0.0000   -0.0000    0.0088

               lamina:  5     
              matName:  (blade-shell)
                     s           e11           e22           e12           s11           s22           s12   s11_fcT   s11_fcC   s22_fcT   s22_fcC   s12_fcS
                   (m)         (m/m)         (m/m)         (rad)          (Pa)          (Pa)          (Pa)       (-)       (-)       (-)       (-)       (-)
                0.0000   2.8764e-004  -8.3309e-005   1.2353e-005   8.2471e+006   4.8310e+005   8.6472e+004    0.0573   -0.0000    0.0000   -0.0000    0.0014
                0.2185   2.2372e-004  -6.4778e-005   5.0098e-005   6.4146e+006   3.7604e+005   3.5069e+005    0.0445   -0.0000    0.0000   -0.0000    0.0058
                0.5227   1.3327e-004  -3.8559e-005   8.7035e-005   3.8215e+006   2.2447e+005   6.0924e+005    0.0265   -0.0000    0.0000   -0.0000    0.0102
                0.8375   3.8414e-005  -1.1057e-005   1.0587e-004   1.1018e+006   6.5572e+004   7.4106e+005    0.0077   -0.0000    0.0000   -0.0000    0.0124
                1.1613  -6.0939e-005   1.7769e-005   1.0448e-004  -1.7465e+006  -1.0053e+005   7.3134e+005    0.0000    0.0082    0.0000    0.0000    0.0122
                1.4170  -1.4002e-004   4.0722e-005   8.8438e-005  -4.0137e+006  -2.3262e+005   6.1906e+005    0.0000    0.0188    0.0000    0.0000    0.0103

            panel:  3     
           lam_num    nPlies        tPly      fibAng     matID  matName
               (-)       (-)         (m)       (deg)       (-)  (-)
                 1         1    0.005000      0.0000         2  (blade-shell)
                 2         1    0.017598      0.0000         6  (TEP-core)
                 3         1    0.005000      0.0000         2  (blade-shell)

               lamina:  1     
              matName:  (blade-shell)
                     s           e11           e22           e12           s11           s22           s12   s11_fcT   s11_fcC   s22_fcT   s22_fcC   s12_fcS
                   (m)         (m/m)         (m/m)         (rad)          (Pa)          (Pa)          (Pa)       (-)       (-)       (-)       (-)       (-)
                0.0000  -1.3763e-004   5.4613e-005   5.0053e-004  -3.8564e+006  -6.7039e+003   3.5037e+006    0.0000    0.0181    0.0000    0.0000    0.0584
                0.0046  -1.3909e-004   5.5191e-005   5.0039e-004  -3.8972e+006  -6.7748e+003   3.5028e+006    0.0000    0.0183    0.0000    0.0000    0.0584

               lamina:  2     
              matName:  (TEP-core)
                     s           e11           e22           e12           s11           s22           s12   s11_fcT   s11_fcC   s22_fcT   s22_fcC   s12_fcS
                   (m)         (m/m)         (m/m)         (rad)          (Pa)          (Pa)          (Pa)       (-)       (-)       (-)       (-)       (-)
                0.0000  -1.3789e-004   5.4714e-005   5.0053e-004  -3.4706e+004   3.8137e+003   1.0011e+004    0.0000    0.0000    0.0000   -0.0000    0.0000
                0.0046  -1.3934e-004   5.5291e-005   5.0039e-004  -3.5073e+004   3.8540e+003   1.0008e+004    0.0000    0.0000    0.0000   -0.0000    0.0000

               lamina:  3     
              matName:  (blade-shell)
                     s           e11           e22           e12           s11           s22           s12   s11_fcT   s11_fcC   s22_fcT   s22_fcC   s12_fcS
                   (m)         (m/m)         (m/m)         (rad)          (Pa)          (Pa)          (Pa)       (-)       (-)       (-)       (-)       (-)
                0.0000  -1.3796e-004   5.4742e-005   5.0053e-004  -3.8655e+006  -6.7071e+003   3.5037e+006    0.0000    0.0181    0.0000    0.0000    0.0584
                0.0046  -1.3941e-004   5.5320e-005   5.0039e-004  -3.9063e+006  -6.7780e+003   3.5028e+006    0.0000    0.0183    0.0000    0.0000    0.0584

            panel:  4     
           lam_num    nPlies        tPly      fibAng     matID  matName
               (-)       (-)         (m)       (deg)       (-)  (-)
                 1         1    0.005000      0.0000         2  (blade-shell)
                 2         1    0.017598      0.0000         6  (TEP-core)
                 3         1    0.005000      0.0000         2  (blade-shell)

               lamina:  1     
              matName:  (blade-shell)
                     s           e11           e22           e12           s11           s22           s12   s11_fcT   s11_fcC   s22_fcT   s22_fcC   s12_fcS
                   (m)         (m/m)         (m/m)         (rad)          (Pa)          (Pa)          (Pa)       (-)       (-)       (-)       (-)       (-)
                0.0000  -1.3909e-004   5.5191e-005   4.6521e-004  -3.8972e+006  -6.7748e+003   3.2565e+006    0.0000    0.0183    0.0000    0.0000    0.0543
                0.0698  -1.6121e-004   6.3969e-005   4.6508e-004  -4.5171e+006  -7.8471e+003   3.2555e+006    0.0000    0.0212    0.0000    0.0000    0.0543
                0.4033  -2.6646e-004   1.0573e-004   4.6508e-004  -7.4662e+006  -1.2965e+004   3.2555e+006    0.0000    0.0351    0.0000    0.0000    0.0543
                0.7347  -3.7106e-004   1.4724e-004   4.6286e-004  -1.0397e+007  -1.8050e+004   3.2400e+006    0.0000    0.0488    0.0000    0.0000    0.0540
                1.0601  -4.7365e-004   1.8794e-004   4.4777e-004  -1.3271e+007  -2.3040e+004   3.1344e+006    0.0000    0.0623    0.0000    0.0000    0.0522
                1.2579  -5.3594e-004   2.1266e-004   4.2542e-004  -1.5017e+007  -2.6070e+004   2.9780e+006    0.0000    0.0705    0.0000    0.0000    0.0496

               lamina:  2     
              matName:  (TEP-core)
                     s           e11           e22           e12           s11           s22           s12   s11_fcT   s11_fcC   s22_fcT   s22_fcC   s12_fcS
                   (m)         (m/m)         (m/m)         (rad)          (Pa)          (Pa)          (Pa)       (-)       (-)       (-)       (-)       (-)
                0.0000  -1.3934e-004   5.5291e-005   4.6521e-004  -3.5073e+004   3.8540e+003   9.3042e+003    0.0000    0.0000    0.0000   -0.0000    0.0000
                0.0698  -1.6124e-004   6.3979e-005   4.6508e-004  -4.0584e+004   4.4594e+003   9.3015e+003    0.0000    0.0000    0.0000   -0.0000    0.0000
                0.4033  -2.6642e-004   1.0572e-004   4.6508e-004  -6.7060e+004   7.3687e+003   9.3015e+003    0.0000    0.0000    0.0000   -0.0000    0.0000
                0.7347  -3.7096e-004   1.4720e-004   4.6286e-004  -9.3372e+004   1.0260e+004   9.2571e+003    0.0000    0.0000    0.0000   -0.0000    0.0000
                1.0601  -4.7352e-004   1.8789e-004   4.4777e-004  -1.1919e+005   1.3096e+004   8.9554e+003    0.0000    0.0000    0.0000   -0.0000    0.0000
                1.2579  -5.3579e-004   2.1260e-004   4.2542e-004  -1.3486e+005   1.4819e+004   8.5085e+003    0.0000    0.0000    0.0000   -0.0000    0.0000

               lamina:  3     
              matName:  (blade-shell)
                     s           e11           e22           e12           s11           s22           s12   s11_fcT   s11_fcC   s22_fcT   s22_fcC   s12_fcS
                   (m)         (m/m)         (m/m)         (rad)          (Pa)          (Pa)          (Pa)       (-)       (-)       (-)       (-)       (-)
                0.0000  -1.3941e-004   5.5320e-005   4.6521e-004  -3.9063e+006  -6.7780e+003   3.2565e+006    0.0000    0.0183    0.0000    0.0000    0.0543
                0.0698  -1.6124e-004   6.3982e-005   4.6508e-004  -4.5179e+006  -7.8474e+003   3.2555e+006    0.0000    0.0212    0.0000    0.0000    0.0543
                0.4033  -2.6628e-004   1.0566e-004   4.6508e-004  -7.4611e+006  -1.2964e+004   3.2555e+006    0.0000    0.0350    0.0000    0.0000    0.0543
                0.7347  -3.7063e-004   1.4707e-004   4.6286e-004  -1.0385e+007  -1.8046e+004   3.2400e+006    0.0000    0.0488    0.0000    0.0000    0.0540
                1.0601  -4.7306e-004   1.8771e-004   4.4777e-004  -1.3255e+007  -2.3034e+004   3.1344e+006    0.0000    0.0622    0.0000    0.0000    0.0522
                1.2579  -5.3527e-004   2.1239e-004   4.2542e-004  -1.4998e+007  -2.6063e+004   2.9780e+006    0.0000    0.0704    0.0000    0.0000    0.0496

            panel:  5     
           lam_num    nPlies        tPly      fibAng     matID  matName
               (-)       (-)         (m)       (deg)       (-)  (-)
                 1         1    0.005000      0.0000         2  (blade-shell)
                 2         1    0.017598      0.0000         6  (TEP-core)
                 3         1    0.005000      0.0000         2  (blade-shell)

               lamina:  1     
              matName:  (blade-shell)
                     s           e11           e22           e12           s11           s22           s12   s11_fcT   s11_fcC   s22_fcT   s22_fcC   s12_fcS
                   (m)         (m/m)         (m/m)         (rad)          (Pa)          (Pa)          (Pa)       (-)       (-)       (-)       (-)       (-)
                0.0000  -5.3594e-004   2.1266e-004   3.9635e-004  -1.5017e+007  -2.6070e+004   2.7744e+006    0.0000    0.0705    0.0000    0.0000    0.0462
                0.1176  -5.7302e-004   2.2737e-004   3.7523e-004  -1.6056e+007  -2.7872e+004   2.6266e+006    0.0000    0.0754    0.0000    0.0000    0.0438
                0.4198  -6.6804e-004   2.6508e-004   3.6043e-004  -1.8718e+007  -3.2496e+004   2.5230e+006    0.0000    0.0879    0.0000    0.0000    0.0421
                0.7044  -7.5754e-004   3.0060e-004   3.4663e-004  -2.1226e+007  -3.6851e+004   2.4264e+006    0.0000    0.0997    0.0000    0.0000    0.0404
                0.9687  -8.4058e-004   3.3355e-004   3.0698e-004  -2.3553e+007  -4.0891e+004   2.1489e+006    0.0000    0.1106    0.0000    0.0000    0.0358
                1.2093  -9.1616e-004   3.6354e-004   2.6406e-004  -2.5670e+007  -4.4569e+004   1.8484e+006    0.0000    0.1205    0.0000    0.0000    0.0308
                1.4238  -9.8349e-004   3.9025e-004   2.1940e-004  -2.7557e+007  -4.7846e+004   1.5358e+006    0.0000    0.1294    0.0000    0.0000    0.0256
                1.6093  -1.0417e-003   4.1337e-004   1.7469e-004  -2.9189e+007  -5.0680e+004   1.2228e+006    0.0000    0.1370    0.0000    0.0000    0.0204
                1.7642  -1.0904e-003   4.3266e-004   1.3159e-004  -3.0552e+007  -5.3045e+004   9.2116e+005    0.0000    0.1434    0.0000    0.0000    0.0154
                1.8867  -1.1288e-003   4.4792e-004   9.1856e-005  -3.1629e+007  -5.4915e+004   6.4299e+005    0.0000    0.1485    0.0000    0.0000    0.0107
                1.9754  -1.1566e-003   4.5894e-004   5.6928e-005  -3.2407e+007  -5.6267e+004   3.9850e+005    0.0000    0.1521    0.0000    0.0000    0.0066
                2.0263  -1.1738e-003   4.6576e-004   2.8167e-005  -3.2888e+007  -5.7056e+004   1.9717e+005    0.0000    0.1544    0.0000    0.0000    0.0033
                2.0475  -1.1809e-003   4.6859e-004   6.7366e-006  -3.3088e+007  -5.7316e+004   4.7157e+004    0.0000    0.1553    0.0000    0.0000    0.0008

               lamina:  2     
              matName:  (TEP-core)
                     s           e11           e22           e12           s11           s22           s12   s11_fcT   s11_fcC   s22_fcT   s22_fcC   s12_fcS
                   (m)         (m/m)         (m/m)         (rad)          (Pa)          (Pa)          (Pa)       (-)       (-)       (-)       (-)       (-)
                0.0000  -5.3579e-004   2.1260e-004   3.9635e-004  -1.3486e+005   1.4819e+004   7.9270e+003    0.0000    0.0000    0.0000   -0.0000    0.0000
                0.1176  -5.7285e-004   2.2731e-004   3.7523e-004  -1.4419e+005   1.5844e+004   7.5046e+003    0.0000    0.0000    0.0000   -0.0000    0.0000
                0.4198  -6.6786e-004   2.6501e-004   3.6043e-004  -1.6810e+005   1.8472e+004   7.2086e+003    0.0000    0.0000    0.0000   -0.0000    0.0000
                0.7044  -7.5735e-004   3.0052e-004   3.4663e-004  -1.9063e+005   2.0947e+004   6.9327e+003    0.0000    0.0000    0.0000   -0.0000    0.0000
                0.9687  -8.4037e-004   3.3346e-004   3.0698e-004  -2.1152e+005   2.3243e+004   6.1396e+003    0.0000    0.0000    0.0000   -0.0000    0.0000
                1.2093  -9.1595e-004   3.6345e-004   2.6406e-004  -2.3055e+005   2.5333e+004   5.2812e+003    0.0000    0.0000    0.0000   -0.0000    0.0000
                1.4238  -9.8327e-004   3.9016e-004   2.1940e-004  -2.4749e+005   2.7195e+004   4.3879e+003    0.0000    0.0000    0.0000   -0.0000    0.0000
                1.6093  -1.0415e-003   4.1328e-004   1.7469e-004  -2.6215e+005   2.8806e+004   3.4938e+003    0.0000    0.0000    0.0000   -0.0000    0.0000
                1.7642  -1.0901e-003   4.3257e-004   1.3159e-004  -2.7439e+005   3.0151e+004   2.6319e+003    0.0000    0.0000    0.0000   -0.0000    0.0000
                1.8867  -1.1286e-003   4.4781e-004   9.1856e-005  -2.8406e+005   3.1213e+004   1.8371e+003    0.0000    0.0000    0.0000   -0.0000    0.0000
                1.9754  -1.1563e-003   4.5884e-004   5.6928e-005  -2.9105e+005   3.1982e+004   1.1386e+003    0.0000    0.0000    0.0000   -0.0000    0.0000
                2.0263  -1.1731e-003   4.6548e-004   2.8167e-005  -2.9526e+005   3.2445e+004   5.6334e+002    0.0000    0.0000    0.0000   -0.0000    0.0000
                2.0475  -1.1794e-003   4.6798e-004   6.7366e-006  -2.9685e+005   3.2621e+004   1.3473e+002    0.0000    0.0000    0.0000   -0.0000    0.0000

               lamina:  3     
              matName:  (blade-shell)
                     s           e11           e22           e12           s11           s22           s12   s11_fcT   s11_fcC   s22_fcT   s22_fcC   s12_fcS
                   (m)         (m/m)         (m/m)         (rad)          (Pa)          (Pa)          (Pa)       (-)       (-)       (-)       (-)       (-)
                0.0000  -5.3527e-004   2.1239e-004   3.9635e-004  -1.4998e+007  -2.6063e+004   2.7744e+006    0.0000    0.0704    0.0000    0.0000    0.0462
                0.1176  -5.7225e-004   2.2707e-004   3.7523e-004  -1.6034e+007  -2.7864e+004   2.6266e+006    0.0000    0.0753    0.0000    0.0000    0.0438
                0.4198  -6.6721e-004   2.6475e-004   3.6043e-004  -1.8695e+007  -3.2488e+004   2.5230e+006    0.0000    0.0878    0.0000    0.0000    0.0421
                0.7044  -7.5665e-004   3.0024e-004   3.4663e-004  -2.1201e+007  -3.6842e+004   2.4264e+006    0.0000    0.0995    0.0000    0.0000    0.0404
                0.9687  -8.3964e-004   3.3317e-004   3.0698e-004  -2.3526e+007  -4.0882e+004   2.1489e+006    0.0000    0.1105    0.0000    0.0000    0.0358
                1.2093  -9.1518e-004   3.6314e-004   2.6406e-004  -2.5643e+007  -4.4559e+004   1.8484e+006    0.0000    0.1204    0.0000    0.0000    0.0308
                1.4238  -9.8249e-004   3.8985e-004   2.1940e-004  -2.7529e+007  -4.7836e+004   1.5358e+006    0.0000    0.1292    0.0000    0.0000    0.0256
                1.6093  -1.0407e-003   4.1295e-004   1.7469e-004  -2.9160e+007  -5.0670e+004   1.2228e+006    0.0000    0.1369    0.0000    0.0000    0.0204
                1.7642  -1.0893e-003   4.3222e-004   1.3159e-004  -3.0520e+007  -5.3034e+004   9.2116e+005    0.0000    0.1433    0.0000    0.0000    0.0154
                1.8867  -1.1276e-003   4.4744e-004   9.1856e-005  -3.1596e+007  -5.4903e+004   6.4299e+005    0.0000    0.1483    0.0000    0.0000    0.0107
                1.9754  -1.1554e-003   4.5846e-004   5.6928e-005  -3.2374e+007  -5.6255e+004   3.9850e+005    0.0000    0.1520    0.0000    0.0000    0.0066
                2.0263  -1.1706e-003   4.6449e-004   2.8167e-005  -3.2799e+007  -5.7024e+004   1.9717e+005    0.0000    0.1540    0.0000    0.0000    0.0033
                2.0475  -1.1741e-003   4.6586e-004   6.7366e-006  -3.2896e+007  -5.7248e+004   4.7157e+004    0.0000    0.1544    0.0000    0.0000    0.0008

  Bottom:  panel  nNode   nLam     xc_St    xc_End         b         t         E_eff         G_eff      nu_eff     density  buckleCrit
            (-)    (-)    (-)       (-)       (-)       (m)       (m)          (Pa)          (Pa)         (-)    (kg/m^3)         (-)
              1     12      3    0.0000    0.2618    1.8629    0.0700   4.2251e+009   1.0171e+009      0.3899    435.7143      0.0003
              2      6      5    0.2618    0.4882    1.4237    0.1194   4.0843e+010   3.3350e+009      0.2906   1914.1081      0.0000
              3      2      3    0.4882    0.4889    0.0047    0.0276   1.0313e+010   2.5491e+009      0.3968    797.8605      0.0000
              4      6      3    0.4889    0.6851    1.2951    0.0276   1.0313e+010   2.5491e+009      0.3968    797.8605      0.1649
              5     13      3    0.6851    1.0000    2.0209    0.0276   1.0313e+010   2.5491e+009      0.3968    797.8605      0.1782

            panel:  1     
           lam_num    nPlies        tPly      fibAng     matID  matName
               (-)       (-)         (m)       (deg)       (-)  (-)
                 1         1    0.005000      0.0000         2  (blade-shell)
                 2         1    0.060000      0.0000         5  (LEP-core)
                 3         1    0.005000      0.0000         2  (blade-shell)

               lamina:  1     
              matName:  (blade-shell)
                     s           e11           e22           e12           s11           s22           s12   s11_fcT   s11_fcC   s22_fcT   s22_fcC   s12_fcS
                   (m)         (m/m)         (m/m)         (rad)          (Pa)          (Pa)          (Pa)       (-)       (-)       (-)       (-)       (-)
                0.0000   7.8355e-004  -3.0558e-004   9.3679e-005   2.1987e+007   1.1939e+005   6.5575e+005    0.1527   -0.0000    0.0000   -0.0000    0.0109
                0.0814   7.7371e-004  -3.0173e-004   1.0723e-004   2.1711e+007   1.1798e+005   7.5064e+005    0.1508   -0.0000    0.0000   -0.0000    0.0125
                0.1765   7.5269e-004  -2.9352e-004   1.2281e-004   2.1121e+007   1.1498e+005   8.5968e+005    0.1467   -0.0000    0.0000   -0.0000    0.0143
                0.2943   7.2120e-004  -2.8123e-004   1.4147e-004   2.0238e+007   1.1035e+005   9.9026e+005    0.1405   -0.0000    0.0000   -0.0000    0.0165
                0.4381   6.7958e-004  -2.6499e-004   1.6315e-004   1.9070e+007   1.0412e+005   1.1421e+006    0.1324   -0.0000    0.0000   -0.0000    0.0190
                0.6069   6.2840e-004  -2.4503e-004   1.8697e-004   1.7634e+007   9.6388e+004   1.3088e+006    0.1225   -0.0000    0.0000   -0.0000    0.0218
                0.8003   5.6827e-004  -2.2157e-004   2.1198e-004   1.5946e+007   8.7250e+004   1.4839e+006    0.1107   -0.0000    0.0000   -0.0000    0.0247
                1.0174   4.9986e-004  -1.9490e-004   2.3707e-004   1.4027e+007   7.6820e+004   1.6595e+006    0.0974   -0.0000    0.0000   -0.0000    0.0277
                1.2561   4.2397e-004  -1.6530e-004   2.6097e-004   1.1897e+007   6.5235e+004   1.8268e+006    0.0826   -0.0000    0.0000   -0.0000    0.0304
                1.5141   3.4168e-004  -1.3321e-004   2.8241e-004   9.5881e+006   5.2660e+004   1.9769e+006    0.0666   -0.0000    0.0000   -0.0000    0.0329
                1.7906   2.5402e-004  -9.9032e-005   3.0034e-004   7.1283e+006   3.9215e+004   2.1024e+006    0.0495   -0.0000    0.0000   -0.0000    0.0350
                1.8629   2.3076e-004  -8.9957e-005   3.0417e-004   6.4755e+006   3.5700e+004   2.1292e+006    0.0450   -0.0000    0.0000   -0.0000    0.0355

               lamina:  2     
              matName:  (LEP-core)
                     s           e11           e22           e12           s11           s22           s12   s11_fcT   s11_fcC   s22_fcT   s22_fcC   s12_fcS
                   (m)         (m/m)         (m/m)         (rad)          (Pa)          (Pa)          (Pa)       (-)       (-)       (-)       (-)       (-)
                0.0000   7.8178e-004  -3.0487e-004   9.3679e-005   1.9723e+005  -2.0096e+004   1.8736e+003    0.0000   -0.0000    0.0000    0.0000    0.0000
                0.0814   7.7207e-004  -3.0108e-004   1.0723e-004   1.9478e+005  -1.9845e+004   2.1447e+003    0.0000   -0.0000    0.0000    0.0000    0.0000
                0.1765   7.5137e-004  -2.9300e-004   1.2281e-004   1.8956e+005  -1.9310e+004   2.4562e+003    0.0000   -0.0000    0.0000    0.0000    0.0000
                0.2943   7.2018e-004  -2.8082e-004   1.4147e-004   1.8169e+005  -1.8506e+004   2.8293e+003    0.0000   -0.0000    0.0000    0.0000    0.0000
                0.4381   6.7880e-004  -2.6468e-004   1.6315e-004   1.7126e+005  -1.7440e+004   3.2630e+003    0.0000   -0.0000    0.0000    0.0000    0.0000
                0.6069   6.2782e-004  -2.4480e-004   1.8697e-004   1.5840e+005  -1.6129e+004   3.7395e+003    0.0000   -0.0000    0.0000    0.0000    0.0000
                0.8003   5.6786e-004  -2.2141e-004   2.1198e-004   1.4327e+005  -1.4587e+004   4.2396e+003    0.0000   -0.0000    0.0000    0.0000    0.0000
                1.0174   4.9960e-004  -1.9479e-004   2.3707e-004   1.2605e+005  -1.2832e+004   4.7413e+003    0.0000   -0.0000    0.0000    0.0000    0.0000
                1.2561   4.2385e-004  -1.6526e-004   2.6097e-004   1.0694e+005  -1.0885e+004   5.2193e+003    0.0000   -0.0000    0.0000    0.0000    0.0000
                1.5141   3.4199e-004  -1.3334e-004   2.8241e-004   8.6283e+004  -8.7822e+003   5.6483e+003    0.0000   -0.0000    0.0000    0.0000    0.0000
                1.7906   2.5546e-004  -9.9604e-005   3.0034e-004   6.4452e+004  -6.5614e+003   6.0069e+003    0.0000   -0.0000    0.0000    0.0000    0.0000
                1.8629   2.3349e-004  -9.1043e-005   3.0417e-004   5.8909e+004  -5.9986e+003   6.0833e+003    0.0000   -0.0000    0.0000    0.0000    0.0000

               lamina:  3     
              matName:  (blade-shell)
                     s           e11           e22           e12           s11           s22           s12   s11_fcT   s11_fcC   s22_fcT   s22_fcC   s12_fcS
                   (m)         (m/m)         (m/m)         (rad)          (Pa)          (Pa)          (Pa)       (-)       (-)       (-)       (-)       (-)
                0.0000   7.6046e-004  -2.9641e-004   9.3679e-005   2.1340e+007   1.1831e+005   6.5575e+005    0.1482   -0.0000    0.0000   -0.0000    0.0109
                0.0814   7.5245e-004  -2.9329e-004   1.0723e-004   2.1115e+007   1.1698e+005   7.5064e+005    0.1466   -0.0000    0.0000   -0.0000    0.0125
                0.1765   7.3559e-004  -2.8673e-004   1.2281e-004   2.0642e+007   1.1418e+005   8.5968e+005    0.1433   -0.0000    0.0000   -0.0000    0.0143
                0.2943   7.0794e-004  -2.7596e-004   1.4147e-004   1.9866e+007   1.0973e+005   9.9026e+005    0.1380   -0.0000    0.0000   -0.0000    0.0165
                0.4381   6.6945e-004  -2.6097e-004   1.6315e-004   1.8786e+007   1.0364e+005   1.1421e+006    0.1305   -0.0000    0.0000   -0.0000    0.0190
                0.6069   6.2092e-004  -2.4206e-004   1.8697e-004   1.7424e+007   9.6036e+004   1.3088e+006    0.1210   -0.0000    0.0000   -0.0000    0.0218
                0.8003   5.6300e-004  -2.1948e-004   2.1198e-004   1.5799e+007   8.7002e+004   1.4839e+006    0.1097   -0.0000    0.0000   -0.0000    0.0247
                1.0174   4.9649e-004  -1.9356e-004   2.3707e-004   1.3932e+007   7.6661e+004   1.6595e+006    0.0968   -0.0000    0.0000   -0.0000    0.0277
                1.2561   4.2247e-004  -1.6470e-004   2.6097e-004   1.1855e+007   6.5164e+004   1.8268e+006    0.0823   -0.0000    0.0000   -0.0000    0.0304
                1.5141   3.4202e-004  -1.3335e-004   2.8241e-004   9.5976e+006   5.2676e+004   1.9769e+006    0.0666   -0.0000    0.0000   -0.0000    0.0329
                1.7906   2.5558e-004  -9.9652e-005   3.0034e-004   7.1721e+006   3.9288e+004   2.1024e+006    0.0498   -0.0000    0.0000   -0.0000    0.0350
                1.8629   2.3372e-004  -9.1134e-005   3.0417e-004   6.5586e+006   3.5839e+004   2.1292e+006    0.0455   -0.0000    0.0000   -0.0000    0.0355

            panel:  2     
           lam_num    nPlies        tPly      fibAng     matID  matName
               (-)       (-)         (m)       (deg)       (-)  (-)
                 1         1    0.005000      0.0000         2  (blade-shell)
                 2         1    0.054695      0.0000         3  (spar-uni)
                 3         1    0.000002      0.0000         4  (spar-core)
                 4         1    0.054695      0.0000         3  (spar-uni)
                 5         1    0.005000      0.0000         2  (blade-shell)

               lamina:  1     
              matName:  (blade-shell)
                     s           e11           e22           e12           s11           s22           s12   s11_fcT   s11_fcC   s22_fcT   s22_fcC   s12_fcS
                   (m)         (m/m)         (m/m)         (rad)          (Pa)          (Pa)          (Pa)       (-)       (-)       (-)       (-)       (-)
                0.0000   2.2651e-004  -6.5702e-005   6.9363e-005   6.4940e+006   3.7897e+005   4.8554e+005    0.0451   -0.0000    0.0000   -0.0000    0.0081
                0.2171   1.5619e-004  -4.5223e-005   9.7065e-005   4.4783e+006   2.6253e+005   6.7945e+005    0.0311   -0.0000    0.0000   -0.0000    0.0113
                0.5213   5.8696e-005  -1.6831e-005   1.2008e-004   1.6839e+006   1.0116e+005   8.4055e+005    0.0117   -0.0000    0.0000   -0.0000    0.0140
                0.8376  -4.2498e-005   1.2663e-005   1.2470e-004  -1.2163e+006  -6.5979e+004   8.7293e+005    0.0000    0.0057    0.0000    0.0000    0.0145
                1.1640  -1.4350e-004   4.2075e-005   1.0920e-004  -4.1112e+006  -2.3318e+005   7.6438e+005    0.0000    0.0193    0.0000    0.0000    0.0127
                1.4237  -2.2127e-004   6.4711e-005   8.2434e-005  -6.3403e+006  -3.6210e+005   5.7704e+005    0.0000    0.0298    0.0000    0.0000    0.0096

               lamina:  2     
              matName:  (spar-uni)
                     s           e11           e22           e12           s11           s22           s12   s11_fcT   s11_fcC   s22_fcT   s22_fcC   s12_fcS
                   (m)         (m/m)         (m/m)         (rad)          (Pa)          (Pa)          (Pa)       (-)       (-)       (-)       (-)       (-)
                0.0000   2.3306e-004  -6.7725e-005   6.9363e-005   9.7787e+006  -3.5473e+004   2.0809e+005    0.0101   -0.0000    0.0000    0.0000    0.0069
                0.2171   1.6509e-004  -4.7973e-005   9.7065e-005   6.9268e+006  -2.5128e+004   2.9119e+005    0.0071   -0.0000    0.0000    0.0000    0.0097
                0.5213   7.0997e-005  -2.0631e-005   1.2008e-004   2.9788e+006  -1.0806e+004   3.6024e+005    0.0031   -0.0000    0.0000    0.0000    0.0120
                0.8376  -4.1064e-005   1.2220e-005   1.2470e-004  -1.7218e+006   1.0387e+004   3.7411e+005    0.0000    0.0025    0.0000   -0.0000    0.0125
                1.1640  -1.4177e-004   4.1543e-005   1.0920e-004  -5.9471e+006   2.6545e+004   3.2759e+005    0.0000    0.0085    0.0000   -0.0000    0.0109
                1.4237  -2.1938e-004   6.4127e-005   8.2434e-005  -9.2029e+006   3.8841e+004   2.4730e+005    0.0000    0.0131    0.0000   -0.0000    0.0082

               lamina:  3     
              matName:  (spar-core)
                     s           e11           e22           e12           s11           s22           s12   s11_fcT   s11_fcC   s22_fcT   s22_fcC   s12_fcS
                   (m)         (m/m)         (m/m)         (rad)          (Pa)          (Pa)          (Pa)       (-)       (-)       (-)       (-)       (-)
                0.0000   2.3306e-004  -6.7725e-005   6.9363e-005   6.0784e+004   6.2676e+002   1.3873e+003    0.0000   -0.0000    0.0000   -0.0000    0.0000
                0.2171   1.6509e-004  -4.7974e-005   9.7065e-005   4.3057e+004   4.4397e+002   1.9413e+003    0.0000   -0.0000    0.0000   -0.0000    0.0000
                0.5213   7.0997e-005  -2.0631e-005   1.2008e-004   1.8517e+004   1.9093e+002   2.4016e+003    0.0000   -0.0000    0.0000   -0.0000    0.0000
                0.8376  -2.5376e-005   7.3739e-006   1.2470e-004  -6.6181e+003  -6.8241e+001   2.4941e+003    0.0000    0.0000    0.0000    0.0000    0.0000
                1.1640  -1.2294e-004   3.5725e-005   1.0920e-004  -3.2064e+004  -3.3062e+002   2.1839e+003    0.0000    0.0000    0.0000    0.0000    0.0000
                1.4237  -1.9870e-004   5.7740e-005   8.2434e-005  -5.1823e+004  -5.3435e+002   1.6487e+003    0.0000    0.0000    0.0000    0.0000    0.0000

               lamina:  4     
              matName:  (spar-uni)
                     s           e11           e22           e12           s11           s22           s12   s11_fcT   s11_fcC   s22_fcT   s22_fcC   s12_fcS
                   (m)         (m/m)         (m/m)         (rad)          (Pa)          (Pa)          (Pa)       (-)       (-)       (-)       (-)       (-)
                0.0000   2.3961e-004  -6.9748e-005   6.9363e-005   1.0053e+007  -3.8197e+004   2.0809e+005    0.0103   -0.0000    0.0000    0.0000    0.0069
                0.2171   1.7399e-004  -5.0724e-005   9.7065e-005   7.2997e+006  -2.8830e+004   2.9119e+005    0.0075   -0.0000    0.0000    0.0000    0.0097
                0.5213   8.3298e-005  -2.4431e-005   1.2008e-004   3.4941e+006  -1.5922e+004   3.6024e+005    0.0036   -0.0000    0.0000    0.0000    0.0120
                0.8376  -2.5375e-005   7.3737e-006   1.2470e-004  -1.0647e+006   3.8621e+003   3.7411e+005    0.0000    0.0015    0.0000   -0.0000    0.0125
                1.1640  -1.2294e-004   3.5725e-005   1.0920e-004  -5.1582e+006   1.8712e+004   3.2759e+005    0.0000    0.0073    0.0000   -0.0000    0.0109
                1.4237  -1.9870e-004   5.7740e-005   8.2434e-005  -8.3370e+006   3.0243e+004   2.4730e+005    0.0000    0.0119    0.0000   -0.0000    0.0082

               lamina:  5     
              matName:  (blade-shell)
                     s           e11           e22           e12           s11           s22           s12   s11_fcT   s11_fcC   s22_fcT   s22_fcC   s12_fcS
                   (m)         (m/m)         (m/m)         (rad)          (Pa)          (Pa)          (Pa)       (-)       (-)       (-)       (-)       (-)
                0.0000   2.4021e-004  -6.9933e-005   6.9363e-005   6.8851e+006   3.9795e+005   4.8554e+005    0.0478   -0.0000    0.0000   -0.0000    0.0081
                0.2171   1.7481e-004  -5.0975e-005   9.7065e-005   5.0100e+006   2.8834e+005   6.7945e+005    0.0348   -0.0000    0.0000   -0.0000    0.0113
                0.5213   8.4423e-005  -2.4778e-005   1.2008e-004   2.4186e+006   1.3681e+005   8.4055e+005    0.0168   -0.0000    0.0000   -0.0000    0.0140
                0.8376  -9.6868e-006   2.5271e-006   1.2470e-004  -2.7943e+005  -2.0507e+004   8.7293e+005    0.0000    0.0013    0.0000    0.0000    0.0145
                1.1640  -1.0411e-004   2.9907e-005   1.0920e-004  -2.9864e+006  -1.7859e+005   7.6438e+005    0.0000    0.0140    0.0000    0.0000    0.0127
                1.4237  -1.7803e-004   5.1353e-005   8.2434e-005  -5.1056e+006  -3.0218e+005   5.7704e+005    0.0000    0.0240    0.0000    0.0000    0.0096

            panel:  3     
           lam_num    nPlies        tPly      fibAng     matID  matName
               (-)       (-)         (m)       (deg)       (-)  (-)
                 1         1    0.005000      0.0000         2  (blade-shell)
                 2         1    0.017598      0.0000         6  (TEP-core)
                 3         1    0.005000      0.0000         2  (blade-shell)

               lamina:  1     
              matName:  (blade-shell)
                     s           e11           e22           e12           s11           s22           s12   s11_fcT   s11_fcC   s22_fcT   s22_fcC   s12_fcS
                   (m)         (m/m)         (m/m)         (rad)          (Pa)          (Pa)          (Pa)       (-)       (-)       (-)       (-)       (-)
                0.0000  -2.0665e-004   8.2006e-005   4.6655e-004  -5.7902e+006  -9.9632e+003   3.2658e+006    0.0000    0.0272    0.0000    0.0000    0.0544
                0.0047  -2.0802e-004   8.2550e-005   4.6634e-004  -5.8287e+006  -1.0030e+004   3.2644e+006    0.0000    0.0274    0.0000    0.0000    0.0544

               lamina:  2     
              matName:  (TEP-core)
                     s           e11           e22           e12           s11           s22           s12   s11_fcT   s11_fcC   s22_fcT   s22_fcC   s12_fcS
                   (m)         (m/m)         (m/m)         (rad)          (Pa)          (Pa)          (Pa)       (-)       (-)       (-)       (-)       (-)
                0.0000  -2.0576e-004   8.1651e-005   4.6655e-004  -5.1790e+004   5.6920e+003   9.3310e+003    0.0000    0.0000    0.0000   -0.0000    0.0000
                0.0047  -2.0713e-004   8.2195e-005   4.6634e-004  -5.2136e+004   5.7300e+003   9.3269e+003    0.0000    0.0000    0.0000   -0.0000    0.0000

               lamina:  3     
              matName:  (blade-shell)
                     s           e11           e22           e12           s11           s22           s12   s11_fcT   s11_fcC   s22_fcT   s22_fcC   s12_fcS
                   (m)         (m/m)         (m/m)         (rad)          (Pa)          (Pa)          (Pa)       (-)       (-)       (-)       (-)       (-)
                0.0000  -2.0263e-004   8.0400e-005   4.6655e-004  -5.6776e+006  -9.9232e+003   3.2658e+006    0.0000    0.0267    0.0000    0.0000    0.0544
                0.0047  -2.0400e-004   8.0944e-005   4.6634e-004  -5.7160e+006  -9.9900e+003   3.2644e+006    0.0000    0.0268    0.0000    0.0000    0.0544

            panel:  4     
           lam_num    nPlies        tPly      fibAng     matID  matName
               (-)       (-)         (m)       (deg)       (-)  (-)
                 1         1    0.005000      0.0000         2  (blade-shell)
                 2         1    0.017598      0.0000         6  (TEP-core)
                 3         1    0.005000      0.0000         2  (blade-shell)

               lamina:  1     
              matName:  (blade-shell)
                     s           e11           e22           e12           s11           s22           s12   s11_fcT   s11_fcC   s22_fcT   s22_fcC   s12_fcS
                   (m)         (m/m)         (m/m)         (rad)          (Pa)          (Pa)          (Pa)       (-)       (-)       (-)       (-)       (-)
                0.0000  -2.0802e-004   8.2550e-005   4.9100e-004  -5.8287e+006  -1.0030e+004   3.4370e+006    0.0000    0.0274    0.0000    0.0000    0.0573
                0.0709  -2.2896e-004   9.0857e-005   4.9080e-004  -6.4152e+006  -1.1040e+004   3.4356e+006    0.0000    0.0301    0.0000    0.0000    0.0573
                0.4129  -3.2679e-004   1.2968e-004   4.9080e-004  -9.1563e+006  -1.5795e+004   3.4356e+006    0.0000    0.0430    0.0000    0.0000    0.0573
                0.7549  -4.2288e-004   1.6781e-004   4.8755e-004  -1.1849e+007  -2.0466e+004   3.4129e+006    0.0000    0.0556    0.0000    0.0000    0.0569
                1.0914  -5.1655e-004   2.0497e-004   4.6764e-004  -1.4473e+007  -2.5024e+004   3.2735e+006    0.0000    0.0679    0.0000    0.0000    0.0546
                1.2951  -5.7333e-004   2.2751e-004   4.4072e-004  -1.6064e+007  -2.7789e+004   3.0850e+006    0.0000    0.0754    0.0000    0.0000    0.0514

               lamina:  2     
              matName:  (TEP-core)
                     s           e11           e22           e12           s11           s22           s12   s11_fcT   s11_fcC   s22_fcT   s22_fcC   s12_fcS
                   (m)         (m/m)         (m/m)         (rad)          (Pa)          (Pa)          (Pa)       (-)       (-)       (-)       (-)       (-)
                0.0000  -2.0713e-004   8.2195e-005   4.9100e-004  -5.2136e+004   5.7300e+003   9.8200e+003    0.0000    0.0000    0.0000   -0.0000    0.0000
                0.0709  -2.2798e-004   9.0467e-005   4.9080e-004  -5.7383e+004   6.3066e+003   9.8159e+003    0.0000    0.0000    0.0000   -0.0000    0.0000
                0.4129  -3.2575e-004   1.2926e-004   4.9080e-004  -8.1993e+004   9.0109e+003   9.8159e+003    0.0000    0.0000    0.0000   -0.0000    0.0000
                0.7549  -4.2179e-004   1.6737e-004   4.8755e-004  -1.0617e+005   1.1667e+004   9.7511e+003    0.0000    0.0000    0.0000   -0.0000    0.0000
                1.0914  -5.1545e-004   2.0454e-004   4.6764e-004  -1.2974e+005   1.4257e+004   9.3529e+003    0.0000    0.0000    0.0000   -0.0000    0.0000
                1.2951  -5.7224e-004   2.2707e-004   4.4072e-004  -1.4403e+005   1.5828e+004   8.8144e+003    0.0000    0.0000    0.0000   -0.0000    0.0000

               lamina:  3     
              matName:  (blade-shell)
                     s           e11           e22           e12           s11           s22           s12   s11_fcT   s11_fcC   s22_fcT   s22_fcC   s12_fcS
                   (m)         (m/m)         (m/m)         (rad)          (Pa)          (Pa)          (Pa)       (-)       (-)       (-)       (-)       (-)
                0.0000  -2.0400e-004   8.0944e-005   4.9100e-004  -5.7160e+006  -9.9900e+003   3.4370e+006    0.0000    0.0268    0.0000    0.0000    0.0573
                0.0709  -2.2455e-004   8.9097e-005   4.9080e-004  -6.2918e+006  -1.0996e+004   3.4356e+006    0.0000    0.0295    0.0000    0.0000    0.0573
                0.4129  -3.2212e-004   1.2781e-004   4.9080e-004  -9.0257e+006  -1.5749e+004   3.4356e+006    0.0000    0.0424    0.0000    0.0000    0.0573
                0.7549  -4.1797e-004   1.6584e-004   4.8755e-004  -1.1711e+007  -2.0418e+004   3.4129e+006    0.0000    0.0550    0.0000    0.0000    0.0569
                1.0914  -5.1158e-004   2.0299e-004   4.6764e-004  -1.4334e+007  -2.4975e+004   3.2735e+006    0.0000    0.0673    0.0000    0.0000    0.0546
                1.2951  -5.6839e-004   2.2553e-004   4.4072e-004  -1.5926e+007  -2.7740e+004   3.0850e+006    0.0000    0.0748    0.0000    0.0000    0.0514

            panel:  5     
           lam_num    nPlies        tPly      fibAng     matID  matName
               (-)       (-)         (m)       (deg)       (-)  (-)
                 1         1    0.005000      0.0000         2  (blade-shell)
                 2         1    0.017598      0.0000         6  (TEP-core)
                 3         1    0.005000      0.0000         2  (blade-shell)

               lamina:  1     
              matName:  (blade-shell)
                     s           e11           e22           e12           s11           s22           s12   s11_fcT   s11_fcC   s22_fcT   s22_fcC   s12_fcS
                   (m)         (m/m)         (m/m)         (rad)          (Pa)          (Pa)          (Pa)       (-)       (-)       (-)       (-)       (-)
                0.0000  -5.7333e-004   2.2751e-004   4.0748e-004  -1.6064e+007  -2.7789e+004   2.8524e+006    0.0000    0.0754    0.0000    0.0000    0.0475
                0.1215  -6.0708e-004   2.4090e-004   3.8412e-004  -1.7010e+007  -2.9437e+004   2.6888e+006    0.0000    0.0799    0.0000    0.0000    0.0448
                0.4289  -6.9399e-004   2.7538e-004   3.8139e-004  -1.9445e+007  -3.3675e+004   2.6697e+006    0.0000    0.0913    0.0000    0.0000    0.0445
                0.7143  -7.7656e-004   3.0815e-004   3.6629e-004  -2.1759e+007  -3.7708e+004   2.5640e+006    0.0000    0.1022    0.0000    0.0000    0.0427
                0.9752  -8.5398e-004   3.3887e-004   3.2414e-004  -2.3928e+007  -4.1494e+004   2.2690e+006    0.0000    0.1123    0.0000    0.0000    0.0378
                1.2104  -9.2534e-004   3.6718e-004   2.7987e-004  -2.5928e+007  -4.4986e+004   1.9591e+006    0.0000    0.1217    0.0000    0.0000    0.0327
                1.4189  -9.8960e-004   3.9268e-004   2.3496e-004  -2.7728e+007  -4.8131e+004   1.6447e+006    0.0000    0.1302    0.0000    0.0000    0.0274
                1.5997  -1.0459e-003   4.1501e-004   1.9076e-004  -2.9305e+007  -5.0887e+004   1.3353e+006    0.0000    0.1376    0.0000    0.0000    0.0223
                1.7510  -1.0932e-003   4.3380e-004   1.4855e-004  -3.0632e+007  -5.3204e+004   1.0398e+006    0.0000    0.1438    0.0000    0.0000    0.0173
                1.8709  -1.1309e-003   4.4873e-004   1.0963e-004  -3.1686e+007  -5.5042e+004   7.6741e+005    0.0000    0.1488    0.0000    0.0000    0.0128
                1.9576  -1.1581e-003   4.5955e-004   7.5382e-005  -3.2450e+007  -5.6372e+004   5.2768e+005    0.0000    0.1523    0.0000    0.0000    0.0088
                2.0076  -1.1750e-003   4.6626e-004   4.7168e-005  -3.2924e+007  -5.7150e+004   3.3018e+005    0.0000    0.1546    0.0000    0.0000    0.0055
                2.0209  -1.1809e-003   4.6859e-004   2.6158e-005  -3.3088e+007  -5.7315e+004   1.8311e+005    0.0000    0.1553    0.0000    0.0000    0.0031

               lamina:  2     
              matName:  (TEP-core)
                     s           e11           e22           e12           s11           s22           s12   s11_fcT   s11_fcC   s22_fcT   s22_fcC   s12_fcS
                   (m)         (m/m)         (m/m)         (rad)          (Pa)          (Pa)          (Pa)       (-)       (-)       (-)       (-)       (-)
                0.0000  -5.7224e-004   2.2707e-004   4.0748e-004  -1.4403e+005   1.5828e+004   8.1496e+003    0.0000    0.0000    0.0000   -0.0000    0.0000
                0.1215  -6.0604e-004   2.4048e-004   3.8412e-004  -1.5254e+005   1.6763e+004   7.6823e+003    0.0000    0.0000    0.0000   -0.0000    0.0000
                0.4289  -6.9302e-004   2.7500e-004   3.8139e-004  -1.7443e+005   1.9169e+004   7.6279e+003    0.0000    0.0000    0.0000   -0.0000    0.0000
                0.7143  -7.7573e-004   3.0781e-004   3.6629e-004  -1.9525e+005   2.1456e+004   7.3258e+003    0.0000    0.0000    0.0000   -0.0000    0.0000
                0.9752  -8.5331e-004   3.3860e-004   3.2414e-004  -2.1478e+005   2.3601e+004   6.4828e+003    0.0000    0.0000    0.0000   -0.0000    0.0000
                1.2104  -9.2484e-004   3.6698e-004   2.7987e-004  -2.3279e+005   2.5580e+004   5.5974e+003    0.0000    0.0000    0.0000   -0.0000    0.0000
                1.4189  -9.8927e-004   3.9254e-004   2.3496e-004  -2.4900e+005   2.7361e+004   4.6992e+003    0.0000    0.0000    0.0000   -0.0000    0.0000
                1.5997  -1.0457e-003   4.1494e-004   1.9076e-004  -2.6321e+005   2.8922e+004   3.8152e+003    0.0000    0.0000    0.0000   -0.0000    0.0000
                1.7510  -1.0932e-003   4.3377e-004   1.4855e-004  -2.7515e+005   3.0234e+004   2.9710e+003    0.0000    0.0000    0.0000   -0.0000    0.0000
                1.8709  -1.1309e-003   4.4873e-004   1.0963e-004  -2.8464e+005   3.1277e+004   2.1926e+003    0.0000    0.0000    0.0000   -0.0000    0.0000
                1.9576  -1.1582e-003   4.5959e-004   7.5382e-005  -2.9153e+005   3.2034e+004   1.5076e+003    0.0000    0.0000    0.0000   -0.0000    0.0000
                2.0076  -1.1746e-003   4.6610e-004   4.7168e-005  -2.9566e+005   3.2488e+004   9.4337e+002    0.0000    0.0000    0.0000   -0.0000    0.0000
                2.0209  -1.1794e-003   4.6798e-004   2.6158e-005  -2.9685e+005   3.2621e+004   5.2316e+002    0.0000    0.0000    0.0000   -0.0000    0.0000

               lamina:  3     
              matName:  (blade-shell)
                     s           e11           e22           e12           s11           s22           s12   s11_fcT   s11_fcC   s22_fcT   s22_fcC   s12_fcS
                   (m)         (m/m)         (m/m)         (rad)          (Pa)          (Pa)          (Pa)       (-)       (-)       (-)       (-)       (-)
                0.0000  -5.6839e-004   2.2553e-004   4.0748e-004  -1.5926e+007  -2.7740e+004   2.8524e+006    0.0000    0.0748    0.0000    0.0000    0.0475
                0.1215  -6.0235e-004   2.3901e-004   3.8412e-004  -1.6878e+007  -2.9390e+004   2.6888e+006    0.0000    0.0792    0.0000    0.0000    0.0448
                0.4289  -6.8960e-004   2.7363e-004   3.8139e-004  -1.9322e+007  -3.3631e+004   2.6697e+006    0.0000    0.0907    0.0000    0.0000    0.0445
                0.7143  -7.7278e-004   3.0664e-004   3.6629e-004  -2.1653e+007  -3.7671e+004   2.5640e+006    0.0000    0.1017    0.0000    0.0000    0.0427
                0.9752  -8.5094e-004   3.3765e-004   3.2414e-004  -2.3843e+007  -4.1464e+004   2.2690e+006    0.0000    0.1119    0.0000    0.0000    0.0378
                1.2104  -9.2307e-004   3.6628e-004   2.7987e-004  -2.5864e+007  -4.4963e+004   1.9591e+006    0.0000    0.1214    0.0000    0.0000    0.0327
                1.4189  -9.8809e-004   3.9208e-004   2.3496e-004  -2.7686e+007  -4.8116e+004   1.6447e+006    0.0000    0.1300    0.0000    0.0000    0.0274
                1.5997  -1.0451e-003   4.1468e-004   1.9076e-004  -2.9282e+007  -5.0879e+004   1.3353e+006    0.0000    0.1375    0.0000    0.0000    0.0223
                1.7510  -1.0929e-003   4.3367e-004   1.4855e-004  -3.0623e+007  -5.3200e+004   1.0398e+006    0.0000    0.1438    0.0000    0.0000    0.0173
                1.8709  -1.1308e-003   4.4871e-004   1.0963e-004  -3.1685e+007  -5.5041e+004   7.6741e+005    0.0000    0.1488    0.0000    0.0000    0.0128
                1.9576  -1.1583e-003   4.5960e-004   7.5382e-005  -3.2454e+007  -5.6373e+004   5.2768e+005    0.0000    0.1524    0.0000    0.0000    0.0088
                2.0076  -1.1732e-003   4.6554e-004   4.7168e-005  -3.2874e+007  -5.7132e+004   3.3018e+005    0.0000    0.1543    0.0000    0.0000    0.0055
                2.0209  -1.1740e-003   4.6585e-004   2.6158e-005  -3.2895e+007  -5.7247e+004   1.8311e+005    0.0000    0.1544    0.0000    0.0000    0.0031

     Web:  panel  nNode   nLam     xc_St    xc_End         b         t         E_eff         G_eff      nu_eff     density  buckleCrit
            (-)    (-)    (-)       (-)       (-)       (m)       (m)          (Pa)          (Pa)         (-)    (kg/m^3)         (-)
              1     10      3    0.2618    0.2618    1.3916    0.0830   7.6445e+008   4.5301e+008      0.4420    257.1084      0.0000
              2     10      3    0.4889    0.4889    1.2997    0.0830   7.6445e+008   4.5301e+008      0.4420    257.1084      0.0000
              3     10      3    0.6851    0.6851    0.6730    0.0830   7.6445e+008   4.5301e+008      0.4420    257.1084      0.0000

            panel:  1     
           lam_num    nPlies        tPly      fibAng     matID  matName
               (-)       (-)         (m)       (deg)       (-)  (-)
                 1         1    0.001500      0.0000         7  (web-shell)
                 2         1    0.080000      0.0000         8  (web-core)
                 3         1    0.001500      0.0000         7  (web-shell)

               lamina:  1     
              matName:  (web-shell)
                     s           e11           e22           e12           s11           s22           s12   s11_fcT   s11_fcC   s22_fcT   s22_fcC   s12_fcS
                   (m)         (m/m)         (m/m)         (rad)          (Pa)          (Pa)          (Pa)       (-)       (-)       (-)       (-)       (-)
                0.0000   2.8501e-004  -1.2540e-004   1.2566e-004   4.1498e+006   3.1929e+005   1.5080e+006    0.0288   -0.0000    0.0000   -0.0000    0.0168
                0.1546   2.7742e-004  -1.2204e-004   1.2973e-004   4.0394e+006   3.1108e+005   1.5568e+006    0.0281   -0.0000    0.0000   -0.0000    0.0173
                0.3092   2.6983e-004  -1.1869e-004   1.3370e-004   3.9290e+006   3.0287e+005   1.6044e+006    0.0273   -0.0000    0.0000   -0.0000    0.0178
                0.4639   2.6224e-004  -1.1533e-004   1.3756e-004   3.8187e+006   2.9466e+005   1.6507e+006    0.0265   -0.0000    0.0000   -0.0000    0.0183
                0.6185   2.5465e-004  -1.1198e-004   1.4132e-004   3.7083e+006   2.8644e+005   1.6958e+006    0.0258   -0.0000    0.0000   -0.0000    0.0188
                0.7731   2.4706e-004  -1.0863e-004   1.4497e-004   3.5980e+006   2.7823e+005   1.7396e+006    0.0250   -0.0000    0.0000   -0.0000    0.0193
                0.9277   2.3947e-004  -1.0527e-004   1.4852e-004   3.4876e+006   2.7002e+005   1.7822e+006    0.0242   -0.0000    0.0000   -0.0000    0.0198
                1.0824   2.3188e-004  -1.0192e-004   1.5196e-004   3.3772e+006   2.6180e+005   1.8236e+006    0.0235   -0.0000    0.0000   -0.0000    0.0203
                1.2370   2.2429e-004  -9.8561e-005   1.5531e-004   3.2669e+006   2.5359e+005   1.8637e+006    0.0227   -0.0000    0.0000   -0.0000    0.0207
                1.3916   2.1670e-004  -9.5206e-005   1.5855e-004   3.1565e+006   2.4538e+005   1.9026e+006    0.0219   -0.0000    0.0000   -0.0000    0.0211

               lamina:  2     
              matName:  (web-core)
                     s           e11           e22           e12           s11           s22           s12   s11_fcT   s11_fcC   s22_fcT   s22_fcC   s12_fcS
                   (m)         (m/m)         (m/m)         (rad)          (Pa)          (Pa)          (Pa)       (-)       (-)       (-)       (-)       (-)
                0.0000   3.1851e-004  -1.4137e-004   1.2566e-004   7.8885e+004  -1.3092e+004   2.5133e+003    0.0000   -0.0000    0.0000    0.0000    0.0000
                0.1546   3.1092e-004  -1.3802e-004   1.2973e-004   7.7004e+004  -1.2784e+004   2.5947e+003    0.0000   -0.0000    0.0000    0.0000    0.0000
                0.3092   3.0333e-004  -1.3466e-004   1.3370e-004   7.5123e+004  -1.2476e+004   2.6739e+003    0.0000   -0.0000    0.0000    0.0000    0.0000
                0.4639   2.9574e-004  -1.3131e-004   1.3756e-004   7.3242e+004  -1.2168e+004   2.7512e+003    0.0000   -0.0000    0.0000    0.0000    0.0000
                0.6185   2.8815e-004  -1.2795e-004   1.4132e-004   7.1361e+004  -1.1860e+004   2.8263e+003    0.0000   -0.0000    0.0000    0.0000    0.0000
                0.7731   2.8056e-004  -1.2460e-004   1.4497e-004   6.9481e+004  -1.1552e+004   2.8994e+003    0.0000   -0.0000    0.0000    0.0000    0.0000
                0.9277   2.7297e-004  -1.2124e-004   1.4852e-004   6.7600e+004  -1.1244e+004   2.9704e+003    0.0000   -0.0000    0.0000    0.0000    0.0000
                1.0824   2.6538e-004  -1.1789e-004   1.5196e-004   6.5719e+004  -1.0936e+004   3.0393e+003    0.0000   -0.0000    0.0000    0.0000    0.0000
                1.2370   2.5779e-004  -1.1453e-004   1.5531e-004   6.3838e+004  -1.0628e+004   3.1062e+003    0.0000   -0.0000    0.0000    0.0000    0.0000
                1.3916   2.5020e-004  -1.1118e-004   1.5855e-004   6.1957e+004  -1.0320e+004   3.1709e+003    0.0000   -0.0000    0.0000    0.0000    0.0000

               lamina:  3     
              matName:  (web-shell)
                     s           e11           e22           e12           s11           s22           s12   s11_fcT   s11_fcC   s22_fcT   s22_fcC   s12_fcS
                   (m)         (m/m)         (m/m)         (rad)          (Pa)          (Pa)          (Pa)       (-)       (-)       (-)       (-)       (-)
                0.0000   3.1914e-004  -1.4167e-004   1.2566e-004   4.6350e+006   3.3406e+005   1.5080e+006    0.0322   -0.0000    0.0000   -0.0000    0.0168
                0.1546   3.1155e-004  -1.3832e-004   1.2973e-004   4.5246e+006   3.2585e+005   1.5568e+006    0.0314   -0.0000    0.0000   -0.0000    0.0173
                0.3092   3.0396e-004  -1.3496e-004   1.3370e-004   4.4142e+006   3.1763e+005   1.6044e+006    0.0307   -0.0000    0.0000   -0.0000    0.0178
                0.4639   2.9637e-004  -1.3161e-004   1.3756e-004   4.3039e+006   3.0942e+005   1.6507e+006    0.0299   -0.0000    0.0000   -0.0000    0.0183
                0.6185   2.8878e-004  -1.2825e-004   1.4132e-004   4.1935e+006   3.0121e+005   1.6958e+006    0.0291   -0.0000    0.0000   -0.0000    0.0188
                0.7731   2.8119e-004  -1.2490e-004   1.4497e-004   4.0832e+006   2.9300e+005   1.7396e+006    0.0284   -0.0000    0.0000   -0.0000    0.0193
                0.9277   2.7360e-004  -1.2154e-004   1.4852e-004   3.9728e+006   2.8478e+005   1.7822e+006    0.0276   -0.0000    0.0000   -0.0000    0.0198
                1.0824   2.6601e-004  -1.1819e-004   1.5196e-004   3.8624e+006   2.7657e+005   1.8236e+006    0.0268   -0.0000    0.0000   -0.0000    0.0203
                1.2370   2.5842e-004  -1.1483e-004   1.5531e-004   3.7521e+006   2.6836e+005   1.8637e+006    0.0261   -0.0000    0.0000   -0.0000    0.0207
                1.3916   2.5083e-004  -1.1148e-004   1.5855e-004   3.6417e+006   2.6014e+005   1.9026e+006    0.0253   -0.0000    0.0000   -0.0000    0.0211

            panel:  2     
           lam_num    nPlies        tPly      fibAng     matID  matName
               (-)       (-)         (m)       (deg)       (-)  (-)
                 1         1    0.001500      0.0000         7  (web-shell)
                 2         1    0.080000      0.0000         8  (web-core)
                 3         1    0.001500      0.0000         7  (web-shell)

               lamina:  1     
              matName:  (web-shell)
                     s           e11           e22           e12           s11           s22           s12   s11_fcT   s11_fcC   s22_fcT   s22_fcC   s12_fcS
                   (m)         (m/m)         (m/m)         (rad)          (Pa)          (Pa)          (Pa)       (-)       (-)       (-)       (-)       (-)
                0.0000  -1.5672e-004   6.9880e-005   6.5827e-005  -2.2733e+006  -1.5831e+005   7.8993e+005    0.0000    0.0107    0.0000    0.0000    0.0088
                0.1444  -1.6390e-004   7.3051e-005   6.4005e-005  -2.3776e+006  -1.6607e+005   7.6806e+005    0.0000    0.0112    0.0000    0.0000    0.0085
                0.2888  -1.7107e-004   7.6223e-005   6.2091e-005  -2.4819e+006  -1.7384e+005   7.4510e+005    0.0000    0.0117    0.0000    0.0000    0.0083
                0.4332  -1.7824e-004   7.9394e-005   6.0086e-005  -2.5862e+006  -1.8160e+005   7.2103e+005    0.0000    0.0121    0.0000    0.0000    0.0080
                0.5777  -1.8542e-004   8.2565e-005   5.7989e-005  -2.6905e+006  -1.8936e+005   6.9587e+005    0.0000    0.0126    0.0000    0.0000    0.0077
                0.7221  -1.9259e-004   8.5736e-005   5.5801e-005  -2.7949e+006  -1.9713e+005   6.6962e+005    0.0000    0.0131    0.0000    0.0000    0.0074
                0.8665  -1.9977e-004   8.8907e-005   5.3522e-005  -2.8992e+006  -2.0489e+005   6.4226e+005    0.0000    0.0136    0.0000    0.0000    0.0071
                1.0109  -2.0694e-004   9.2078e-005   5.1151e-005  -3.0035e+006  -2.1265e+005   6.1381e+005    0.0000    0.0141    0.0000    0.0000    0.0068
                1.1553  -2.1411e-004   9.5249e-005   4.8688e-005  -3.1078e+006  -2.2042e+005   5.8426e+005    0.0000    0.0146    0.0000    0.0000    0.0065
                1.2997  -2.2129e-004   9.8421e-005   4.6134e-005  -3.2121e+006  -2.2818e+005   5.5361e+005    0.0000    0.0151    0.0000    0.0000    0.0062

               lamina:  2     
              matName:  (web-core)
                     s           e11           e22           e12           s11           s22           s12   s11_fcT   s11_fcC   s22_fcT   s22_fcC   s12_fcS
                   (m)         (m/m)         (m/m)         (rad)          (Pa)          (Pa)          (Pa)       (-)       (-)       (-)       (-)       (-)
                0.0000  -1.5609e-004   6.9581e-005   6.5827e-005  -3.8634e+004   6.5007e+003   1.3165e+003    0.0000    0.0000    0.0000   -0.0000    0.0000
                0.1444  -1.6327e-004   7.2752e-005   6.4005e-005  -4.0412e+004   6.7918e+003   1.2801e+003    0.0000    0.0000    0.0000   -0.0000    0.0000
                0.2888  -1.7044e-004   7.5923e-005   6.2091e-005  -4.2190e+004   7.0830e+003   1.2418e+003    0.0000    0.0000    0.0000   -0.0000    0.0000
                0.4332  -1.7762e-004   7.9094e-005   6.0086e-005  -4.3968e+004   7.3741e+003   1.2017e+003    0.0000    0.0000    0.0000   -0.0000    0.0000
                0.5777  -1.8479e-004   8.2265e-005   5.7989e-005  -4.5746e+004   7.6652e+003   1.1598e+003    0.0000    0.0000    0.0000   -0.0000    0.0000
                0.7221  -1.9196e-004   8.5437e-005   5.5801e-005  -4.7524e+004   7.9563e+003   1.1160e+003    0.0000    0.0000    0.0000   -0.0000    0.0000
                0.8665  -1.9914e-004   8.8608e-005   5.3522e-005  -4.9302e+004   8.2475e+003   1.0704e+003    0.0000    0.0000    0.0000   -0.0000    0.0000
                1.0109  -2.0631e-004   9.1779e-005   5.1151e-005  -5.1080e+004   8.5386e+003   1.0230e+003    0.0000    0.0000    0.0000   -0.0000    0.0000
                1.1553  -2.1349e-004   9.4950e-005   4.8688e-005  -5.2858e+004   8.8297e+003   9.7376e+002    0.0000    0.0000    0.0000   -0.0000    0.0000
                1.2997  -2.2066e-004   9.8121e-005   4.6134e-005  -5.4636e+004   9.1208e+003   9.2268e+002    0.0000    0.0000    0.0000   -0.0000    0.0000

               lamina:  3     
              matName:  (web-shell)
                     s           e11           e22           e12           s11           s22           s12   s11_fcT   s11_fcC   s22_fcT   s22_fcC   s12_fcS
                   (m)         (m/m)         (m/m)         (rad)          (Pa)          (Pa)          (Pa)       (-)       (-)       (-)       (-)       (-)
                0.0000  -1.2260e-004   5.3612e-005   6.5827e-005  -1.7882e+006  -1.4355e+005   7.8993e+005    0.0000    0.0084    0.0000    0.0000    0.0088
                0.1444  -1.2978e-004   5.6783e-005   6.4005e-005  -1.8925e+006  -1.5131e+005   7.6806e+005    0.0000    0.0089    0.0000    0.0000    0.0085
                0.2888  -1.3695e-004   5.9954e-005   6.2091e-005  -1.9969e+006  -1.5907e+005   7.4510e+005    0.0000    0.0094    0.0000    0.0000    0.0083
                0.4332  -1.4413e-004   6.3125e-005   6.0086e-005  -2.1012e+006  -1.6684e+005   7.2103e+005    0.0000    0.0099    0.0000    0.0000    0.0080
                0.5777  -1.5130e-004   6.6296e-005   5.7989e-005  -2.2055e+006  -1.7460e+005   6.9587e+005    0.0000    0.0104    0.0000    0.0000    0.0077
                0.7221  -1.5847e-004   6.9467e-005   5.5801e-005  -2.3098e+006  -1.8236e+005   6.6962e+005    0.0000    0.0108    0.0000    0.0000    0.0074
                0.8665  -1.6565e-004   7.2639e-005   5.3522e-005  -2.4141e+006  -1.9013e+005   6.4226e+005    0.0000    0.0113    0.0000    0.0000    0.0071
                1.0109  -1.7282e-004   7.5810e-005   5.1151e-005  -2.5185e+006  -1.9789e+005   6.1381e+005    0.0000    0.0118    0.0000    0.0000    0.0068
                1.1553  -1.8000e-004   7.8981e-005   4.8688e-005  -2.6228e+006  -2.0565e+005   5.8426e+005    0.0000    0.0123    0.0000    0.0000    0.0065
                1.2997  -1.8717e-004   8.2152e-005   4.6134e-005  -2.7271e+006  -2.1342e+005   5.5361e+005    0.0000    0.0128    0.0000    0.0000    0.0062

            panel:  3     
           lam_num    nPlies        tPly      fibAng     matID  matName
               (-)       (-)         (m)       (deg)       (-)  (-)
                 1         1    0.001500      0.0000         7  (web-shell)
                 2         1    0.080000      0.0000         8  (web-core)
                 3         1    0.001500      0.0000         7  (web-shell)

               lamina:  1     
              matName:  (web-shell)
                     s           e11           e22           e12           s11           s22           s12   s11_fcT   s11_fcC   s22_fcT   s22_fcC   s12_fcS
                   (m)         (m/m)         (m/m)         (rad)          (Pa)          (Pa)          (Pa)       (-)       (-)       (-)       (-)       (-)
                0.0000  -5.5263e-004   2.4488e-004   2.7693e-005  -8.0302e+006  -5.8673e+005   3.3232e+005    0.0000    0.0377    0.0000    0.0000    0.0037
                0.0748  -5.5630e-004   2.4651e-004   2.4147e-005  -8.0836e+006  -5.9070e+005   2.8977e+005    0.0000    0.0380    0.0000    0.0000    0.0032
                0.1496  -5.5997e-004   2.4813e-004   2.0577e-005  -8.1370e+006  -5.9467e+005   2.4692e+005    0.0000    0.0382    0.0000    0.0000    0.0027
                0.2243  -5.6364e-004   2.4975e-004   1.6982e-005  -8.1903e+006  -5.9864e+005   2.0379e+005    0.0000    0.0385    0.0000    0.0000    0.0023
                0.2991  -5.6731e-004   2.5137e-004   1.3364e-005  -8.2437e+006  -6.0262e+005   1.6036e+005    0.0000    0.0387    0.0000    0.0000    0.0018
                0.3739  -5.7098e-004   2.5299e-004   9.7207e-006  -8.2970e+006  -6.0659e+005   1.1665e+005    0.0000    0.0390    0.0000    0.0000    0.0013
                0.4487  -5.7465e-004   2.5462e-004   6.0535e-006  -8.3504e+006  -6.1056e+005   7.2642e+004    0.0000    0.0392    0.0000    0.0000    0.0008
                0.5235  -5.7832e-004   2.5624e-004   2.3621e-006  -8.4038e+006  -6.1453e+005   2.8345e+004    0.0000    0.0395    0.0000    0.0000    0.0003
                0.5983  -5.8199e-004   2.5786e-004   1.3536e-006  -8.4571e+006  -6.1850e+005   1.6243e+004    0.0000    0.0397    0.0000    0.0000    0.0002
                0.6730  -5.8566e-004   2.5948e-004   5.0935e-006  -8.5105e+006  -6.2247e+005   6.1122e+004    0.0000    0.0400    0.0000    0.0000    0.0007

               lamina:  2     
              matName:  (web-core)
                     s           e11           e22           e12           s11           s22           s12   s11_fcT   s11_fcC   s22_fcT   s22_fcC   s12_fcS
                   (m)         (m/m)         (m/m)         (rad)          (Pa)          (Pa)          (Pa)       (-)       (-)       (-)       (-)       (-)
                0.0000  -5.5201e-004   2.4459e-004   2.7693e-005  -1.3675e+005   2.2567e+004   5.5387e+002    0.0000    0.0000    0.0000   -0.0000    0.0000
                0.0748  -5.5567e-004   2.4621e-004   2.4147e-005  -1.3766e+005   2.2716e+004   4.8295e+002    0.0000    0.0000    0.0000   -0.0000    0.0000
                0.1496  -5.5934e-004   2.4783e-004   2.0577e-005  -1.3857e+005   2.2865e+004   4.1154e+002    0.0000    0.0000    0.0000   -0.0000    0.0000
                0.2243  -5.6301e-004   2.4945e-004   1.6982e-005  -1.3948e+005   2.3013e+004   3.3965e+002    0.0000    0.0000    0.0000   -0.0000    0.0000
                0.2991  -5.6668e-004   2.5107e-004   1.3364e-005  -1.4039e+005   2.3162e+004   2.6727e+002    0.0000    0.0000    0.0000   -0.0000    0.0000
                0.3739  -5.7035e-004   2.5270e-004   9.7207e-006  -1.4130e+005   2.3311e+004   1.9441e+002    0.0000    0.0000    0.0000   -0.0000    0.0000
                0.4487  -5.7402e-004   2.5432e-004   6.0535e-006  -1.4221e+005   2.3460e+004   1.2107e+002    0.0000    0.0000    0.0000   -0.0000    0.0000
                0.5235  -5.7769e-004   2.5594e-004   2.3621e-006  -1.4312e+005   2.3609e+004   4.7241e+001    0.0000    0.0000    0.0000   -0.0000    0.0000
                0.5983  -5.8136e-004   2.5756e-004   1.3536e-006  -1.4403e+005   2.3758e+004   2.7072e+001    0.0000    0.0000    0.0000   -0.0000    0.0000
                0.6730  -5.8503e-004   2.5918e-004   5.0935e-006  -1.4494e+005   2.3907e+004   1.0187e+002    0.0000    0.0000    0.0000   -0.0000    0.0000

               lamina:  3     
              matName:  (web-shell)
                     s           e11           e22           e12           s11           s22           s12   s11_fcT   s11_fcC   s22_fcT   s22_fcC   s12_fcS
                   (m)         (m/m)         (m/m)         (rad)          (Pa)          (Pa)          (Pa)       (-)       (-)       (-)       (-)       (-)
                0.0000  -5.1850e-004   2.2861e-004   2.7693e-005  -7.5450e+006  -5.7197e+005   3.3232e+005    0.0000    0.0354    0.0000    0.0000    0.0037
                0.0748  -5.2217e-004   2.3023e-004   2.4147e-005  -7.5984e+006  -5.7594e+005   2.8977e+005    0.0000    0.0357    0.0000    0.0000    0.0032
                0.1496  -5.2584e-004   2.3186e-004   2.0577e-005  -7.6518e+006  -5.7991e+005   2.4692e+005    0.0000    0.0359    0.0000    0.0000    0.0027
                0.2243  -5.2951e-004   2.3348e-004   1.6982e-005  -7.7051e+006  -5.8388e+005   2.0379e+005    0.0000    0.0362    0.0000    0.0000    0.0023
                0.2991  -5.3318e-004   2.3510e-004   1.3364e-005  -7.7585e+006  -5.8785e+005   1.6036e+005    0.0000    0.0364    0.0000    0.0000    0.0018
                0.3739  -5.3685e-004   2.3672e-004   9.7207e-006  -7.8118e+006  -5.9182e+005   1.1665e+005    0.0000    0.0367    0.0000    0.0000    0.0013
                0.4487  -5.4052e-004   2.3834e-004   6.0535e-006  -7.8652e+006  -5.9579e+005   7.2642e+004    0.0000    0.0369    0.0000    0.0000    0.0008
                0.5235  -5.4419e-004   2.3997e-004   2.3621e-006  -7.9186e+006  -5.9976e+005   2.8345e+004    0.0000    0.0372    0.0000    0.0000    0.0003
                0.5983  -5.4786e-004   2.4159e-004   1.3536e-006  -7.9719e+006  -6.0373e+005   1.6243e+004    0.0000    0.0374    0.0000    0.0000    0.0002
                0.6730  -5.5153e-004   2.4321e-004   5.0935e-006  -8.0253e+006  -6.0770e+005   6.1122e+004    0.0000    0.0377    0.0000    0.0000    0.0007

================================================================================
sec        =  23     
zSec       =  52.0000  (m)
nPanelsTop =  5      
nPanelsBot =  5      
nWebs      =  3      

    Top:  panel  nNode   nLam     xc_St    xc_End         b         t         E_eff         G_eff      nu_eff     density  buckleCrit
            (-)    (-)    (-)       (-)       (-)       (m)       (m)          (Pa)          (Pa)         (-)    (kg/m^3)         (-)
              1     12      3    0.0000    0.2551    1.6942    0.0700   4.2251e+009   1.0171e+009      0.3899    435.7143      0.0000
              2      6      5    0.2551    0.4949    1.4093    0.1070   4.0710e+010   3.3737e+009      0.2918   1913.4275      0.0000
              3      2      3    0.4949    0.4956    0.0041    0.0257   1.1057e+010   2.7364e+009      0.3971    842.1190      0.0000
              4      6      3    0.4956    0.6835    1.1297    0.0257   1.1057e+010   2.7364e+009      0.3971    842.1190      0.1103
              5     13      3    0.6835    1.0000    1.9286    0.0257   1.1057e+010   2.7364e+009      0.3971    842.1190      0.7194

            panel:  1     
           lam_num    nPlies        tPly      fibAng     matID  matName
               (-)       (-)         (m)       (deg)       (-)  (-)
                 1         1    0.005000      0.0000         2  (blade-shell)
                 2         1    0.060000      0.0000         5  (LEP-core)
                 3         1    0.005000      0.0000         2  (blade-shell)

               lamina:  1     
              matName:  (blade-shell)
                     s           e11           e22           e12           s11           s22           s12   s11_fcT   s11_fcC   s22_fcT   s22_fcC   s12_fcS
                   (m)         (m/m)         (m/m)         (rad)          (Pa)          (Pa)          (Pa)       (-)       (-)       (-)       (-)       (-)
                0.0000   6.4203e-004  -2.5039e-004   7.9424e-005   1.8016e+007   9.7695e+004   5.5597e+005    0.1251   -0.0000    0.0000   -0.0000    0.0093
                0.0705   6.4005e-004  -2.4962e-004   6.8641e-005   1.7960e+007   9.7433e+004   4.8048e+005    0.1247   -0.0000    0.0000   -0.0000    0.0080
                0.1495   6.2916e-004  -2.4536e-004   5.6664e-005   1.7655e+007   9.5912e+004   3.9665e+005    0.1226   -0.0000    0.0000   -0.0000    0.0066
                0.2527   6.0970e-004  -2.3777e-004   4.1362e-005   1.7109e+007   9.3058e+004   2.8954e+005    0.1188   -0.0000    0.0000   -0.0000    0.0048
                0.3845   5.8207e-004  -2.2699e-004   2.2538e-005   1.6334e+007   8.8905e+004   1.5776e+005    0.1134   -0.0000    0.0000   -0.0000    0.0026
                0.5429   5.4650e-004  -2.1311e-004   1.0930e-006   1.5336e+007   8.3515e+004   7.6509e+003    0.1065   -0.0000    0.0000   -0.0000    0.0001
                0.7257   5.0328e-004  -1.9625e-004   2.1940e-005   1.4122e+007   7.6935e+004   1.5358e+005    0.0981   -0.0000    0.0000   -0.0000    0.0026
                0.9315   4.5283e-004  -1.7658e-004   4.5565e-005   1.2707e+007   6.9235e+004   3.1895e+005    0.0882   -0.0000    0.0000   -0.0000    0.0053
                1.1582   3.9567e-004  -1.5429e-004   6.8667e-005   1.1103e+007   6.0498e+004   4.8067e+005    0.0771   -0.0000    0.0000   -0.0000    0.0080
                1.4032   3.3232e-004  -1.2959e-004   9.0094e-005   9.3254e+006   5.0808e+004   6.3066e+005    0.0648   -0.0000    0.0000   -0.0000    0.0105
                1.6655   2.6349e-004  -1.0275e-004   1.0885e-004   7.3937e+006   4.0243e+004   7.6194e+005    0.0513   -0.0000    0.0000   -0.0000    0.0127
                1.6942   2.5535e-004  -9.9574e-005   1.1063e-004   7.1654e+006   3.9048e+004   7.7442e+005    0.0498   -0.0000    0.0000   -0.0000    0.0129

               lamina:  2     
              matName:  (LEP-core)
                     s           e11           e22           e12           s11           s22           s12   s11_fcT   s11_fcC   s22_fcT   s22_fcC   s12_fcS
                   (m)         (m/m)         (m/m)         (rad)          (Pa)          (Pa)          (Pa)       (-)       (-)       (-)       (-)       (-)
                0.0000   6.4040e-004  -2.4974e-004   7.9424e-005   1.6156e+005  -1.6464e+004   1.5885e+003    0.0000   -0.0000    0.0000    0.0000    0.0000
                0.0705   6.3848e-004  -2.4899e-004   6.8641e-005   1.6108e+005  -1.6414e+004   1.3728e+003    0.0000   -0.0000    0.0000    0.0000    0.0000
                0.1495   6.2779e-004  -2.4482e-004   5.6664e-005   1.5839e+005  -1.6137e+004   1.1333e+003    0.0000   -0.0000    0.0000    0.0000    0.0000
                0.2527   6.0853e-004  -2.3730e-004   4.1362e-005   1.5352e+005  -1.5640e+004   8.2725e+002    0.0000   -0.0000    0.0000    0.0000    0.0000
                0.3845   5.8104e-004  -2.2658e-004   2.2538e-005   1.4659e+005  -1.4933e+004   4.5076e+002    0.0000   -0.0000    0.0000    0.0000    0.0000
                0.5429   5.4559e-004  -2.1275e-004   1.0930e-006   1.3765e+005  -1.4021e+004   2.1860e+001    0.0000   -0.0000    0.0000    0.0000    0.0000
                0.7257   5.0247e-004  -1.9593e-004   2.1940e-005   1.2677e+005  -1.2912e+004   4.3880e+002    0.0000   -0.0000    0.0000    0.0000    0.0000
                0.9315   4.5212e-004  -1.7630e-004   4.5565e-005   1.1407e+005  -1.1618e+004   9.1130e+002    0.0000   -0.0000    0.0000    0.0000    0.0000
                1.1582   3.9505e-004  -1.5405e-004   6.8667e-005   9.9668e+004  -1.0152e+004   1.3733e+003    0.0000   -0.0000    0.0000    0.0000    0.0000
                1.4032   3.3180e-004  -1.2938e-004   9.0094e-005   8.3709e+004  -8.5264e+003   1.8019e+003    0.0000   -0.0000    0.0000    0.0000    0.0000
                1.6655   2.6302e-004  -1.0256e-004   1.0885e-004   6.6356e+004  -6.7596e+003   2.1770e+003    0.0000   -0.0000    0.0000    0.0000    0.0000
                1.6942   2.5496e-004  -9.9418e-005   1.1063e-004   6.4323e+004  -6.5517e+003   2.2126e+003    0.0000   -0.0000    0.0000    0.0000    0.0000

               lamina:  3     
              matName:  (blade-shell)
                     s           e11           e22           e12           s11           s22           s12   s11_fcT   s11_fcC   s22_fcT   s22_fcC   s12_fcS
                   (m)         (m/m)         (m/m)         (rad)          (Pa)          (Pa)          (Pa)       (-)       (-)       (-)       (-)       (-)
                0.0000   6.2077e-004  -2.4196e-004   7.9424e-005   1.7420e+007   9.6694e+004   5.5597e+005    0.1210   -0.0000    0.0000   -0.0000    0.0093
                0.0705   6.1956e-004  -2.4148e-004   6.8641e-005   1.7386e+007   9.6469e+004   4.8048e+005    0.1207   -0.0000    0.0000   -0.0000    0.0080
                0.1495   6.1138e-004  -2.3831e-004   5.6664e-005   1.7157e+007   9.5075e+004   3.9665e+005    0.1191   -0.0000    0.0000   -0.0000    0.0066
                0.2527   5.9442e-004  -2.3170e-004   4.1362e-005   1.6681e+007   9.2338e+004   2.8954e+005    0.1158   -0.0000    0.0000   -0.0000    0.0048
                0.3845   5.6860e-004  -2.2164e-004   2.2538e-005   1.5956e+007   8.8271e+004   1.5776e+005    0.1108   -0.0000    0.0000   -0.0000    0.0026
                0.5429   5.3459e-004  -2.0838e-004   1.0930e-006   1.5002e+007   8.2954e+004   7.6509e+003    0.1042   -0.0000    0.0000   -0.0000    0.0001
                0.7257   4.9276e-004  -1.9208e-004   2.1940e-005   1.3828e+007   7.6440e+004   1.5358e+005    0.0960   -0.0000    0.0000   -0.0000    0.0026
                0.9315   4.4356e-004  -1.7290e-004   4.5565e-005   1.2447e+007   6.8798e+004   3.1895e+005    0.0864   -0.0000    0.0000   -0.0000    0.0053
                1.1582   3.8762e-004  -1.5110e-004   6.8667e-005   1.0877e+007   6.0119e+004   4.8067e+005    0.0755   -0.0000    0.0000   -0.0000    0.0080
                1.4032   3.2550e-004  -1.2688e-004   9.0094e-005   9.1341e+006   5.0487e+004   6.3066e+005    0.0634   -0.0000    0.0000   -0.0000    0.0105
                1.6655   2.5736e-004  -1.0032e-004   1.0885e-004   7.2221e+006   3.9955e+004   7.6194e+005    0.0502   -0.0000    0.0000   -0.0000    0.0127
                1.6942   2.5024e-004  -9.7547e-005   1.1063e-004   7.0224e+006   3.8808e+004   7.7442e+005    0.0488   -0.0000    0.0000   -0.0000    0.0129

            panel:  2     
           lam_num    nPlies        tPly      fibAng     matID  matName
               (-)       (-)         (m)       (deg)       (-)  (-)
                 1         1    0.005000      0.0000         2  (blade-shell)
                 2         1    0.048513      0.0000         3  (spar-uni)
                 3         1    0.000002      0.0000         4  (spar-core)
                 4         1    0.048513      0.0000         3  (spar-uni)
                 5         1    0.005000      0.0000         2  (blade-shell)

               lamina:  1     
              matName:  (blade-shell)
                     s           e11           e22           e12           s11           s22           s12   s11_fcT   s11_fcC   s22_fcT   s22_fcC   s12_fcS
                   (m)         (m/m)         (m/m)         (rad)          (Pa)          (Pa)          (Pa)       (-)       (-)       (-)       (-)       (-)
                0.0000   2.6248e-004  -7.6815e-005   1.2124e-005   7.5209e+006   4.2877e+005   8.4867e+004    0.0522   -0.0000    0.0000   -0.0000    0.0014
                0.2453   1.9579e-004  -5.7321e-005   5.0002e-005   5.6099e+006   3.1949e+005   3.5001e+005    0.0390   -0.0000    0.0000   -0.0000    0.0058
                0.5310   1.1605e-004  -3.3993e-005   7.9836e-005   3.3249e+006   1.8908e+005   5.5885e+005    0.0231   -0.0000    0.0000   -0.0000    0.0093
                0.8265   3.3048e-005  -9.7169e-006   9.4324e-005   9.4667e+005   5.3298e+004   6.6027e+005    0.0066   -0.0000    0.0000   -0.0000    0.0110
                1.1299  -5.2260e-005   1.5229e-005   9.1770e-005  -1.4978e+006  -8.6363e+004   6.4239e+005    0.0000    0.0070    0.0000    0.0000    0.0107
                1.4093  -1.2961e-004   3.7820e-005   7.3748e-005  -3.7143e+006  -2.1338e+005   5.1624e+005    0.0000    0.0174    0.0000    0.0000    0.0086

               lamina:  2     
              matName:  (spar-uni)
                     s           e11           e22           e12           s11           s22           s12   s11_fcT   s11_fcC   s22_fcT   s22_fcC   s12_fcS
                   (m)         (m/m)         (m/m)         (rad)          (Pa)          (Pa)          (Pa)       (-)       (-)       (-)       (-)       (-)
                0.0000   2.6144e-004  -7.6492e-005   1.2124e-005   1.0967e+007  -4.7270e+004   3.6372e+004    0.0113   -0.0000    0.0000    0.0000    0.0012
                0.2453   1.9491e-004  -5.7048e-005   5.0002e-005   8.1764e+006  -3.5536e+004   1.5001e+005    0.0084   -0.0000    0.0000    0.0000    0.0050
                0.5310   1.1544e-004  -3.3804e-005   7.9836e-005   4.8426e+006  -2.1288e+004   2.3951e+005    0.0050   -0.0000    0.0000    0.0000    0.0080
                0.8265   3.2708e-005  -9.6107e-006   9.4324e-005   1.3719e+006  -6.5054e+003   2.8297e+005    0.0014   -0.0000    0.0000    0.0000    0.0094
                1.1299  -5.3307e-005   1.5555e-005   9.1770e-005  -2.2364e+006   9.0458e+003   2.7531e+005    0.0000    0.0032    0.0000   -0.0000    0.0092
                1.4093  -1.2960e-004   3.7819e-005   7.3748e-005  -5.4371e+006   2.2003e+004   2.2124e+005    0.0000    0.0077    0.0000   -0.0000    0.0074

               lamina:  3     
              matName:  (spar-core)
                     s           e11           e22           e12           s11           s22           s12   s11_fcT   s11_fcC   s22_fcT   s22_fcC   s12_fcS
                   (m)         (m/m)         (m/m)         (rad)          (Pa)          (Pa)          (Pa)       (-)       (-)       (-)       (-)       (-)
                0.0000   2.5139e-004  -7.3357e-005   1.2124e-005   6.5539e+004   5.8867e+002   2.4248e+002    0.0000   -0.0000    0.0000   -0.0000    0.0000
                0.2453   1.8640e-004  -5.4392e-005   5.0002e-005   4.8595e+004   4.3648e+002   1.0000e+003    0.0000   -0.0000    0.0000   -0.0000    0.0000
                0.5310   1.0956e-004  -3.1971e-005   7.9836e-005   2.8564e+004   2.5656e+002   1.5967e+003    0.0000   -0.0000    0.0000   -0.0000    0.0000
                0.8265   2.9403e-005  -8.5799e-006   9.4324e-005   7.6654e+003   6.8851e+001   1.8865e+003    0.0000   -0.0000    0.0000   -0.0000    0.0000
                1.1299  -5.3307e-005   1.5555e-005   9.1770e-005  -1.3897e+004  -1.2483e+002   1.8354e+003    0.0000    0.0000    0.0000    0.0000    0.0000
                1.4093  -1.2957e-004   3.7809e-005   7.3748e-005  -3.3779e+004  -3.0340e+002   1.4750e+003    0.0000    0.0000    0.0000    0.0000    0.0000

               lamina:  4     
              matName:  (spar-uni)
                     s           e11           e22           e12           s11           s22           s12   s11_fcT   s11_fcC   s22_fcT   s22_fcC   s12_fcS
                   (m)         (m/m)         (m/m)         (rad)          (Pa)          (Pa)          (Pa)       (-)       (-)       (-)       (-)       (-)
                0.0000   2.5139e-004  -7.3357e-005   1.2124e-005   1.0547e+007  -4.2660e+004   3.6372e+004    0.0109   -0.0000    0.0000    0.0000    0.0012
                0.2453   1.8640e-004  -5.4392e-005   5.0002e-005   7.8199e+006  -3.1631e+004   1.5001e+005    0.0080   -0.0000    0.0000    0.0000    0.0050
                0.5310   1.0956e-004  -3.1971e-005   7.9836e-005   4.5965e+006  -1.8592e+004   2.3951e+005    0.0047   -0.0000    0.0000    0.0000    0.0080
                0.8265   2.9403e-005  -8.5799e-006   9.4324e-005   1.2335e+006  -4.9895e+003   2.8297e+005    0.0013   -0.0000    0.0000    0.0000    0.0094
                1.1299  -5.4354e-005   1.5882e-005   9.1770e-005  -2.2802e+006   9.5262e+003   2.7531e+005    0.0000    0.0032    0.0000   -0.0000    0.0092
                1.4093  -1.2957e-004   3.7809e-005   7.3748e-005  -5.4357e+006   2.1987e+004   2.2124e+005    0.0000    0.0077    0.0000   -0.0000    0.0074

               lamina:  5     
              matName:  (blade-shell)
                     s           e11           e22           e12           s11           s22           s12   s11_fcT   s11_fcC   s22_fcT   s22_fcC   s12_fcS
                   (m)         (m/m)         (m/m)         (rad)          (Pa)          (Pa)          (Pa)       (-)       (-)       (-)       (-)       (-)
                0.0000   2.4134e-004  -7.0222e-005   1.2124e-005   6.9177e+006   4.0043e+005   8.4867e+004    0.0480   -0.0000    0.0000   -0.0000    0.0014
                0.2453   1.7789e-004  -5.1736e-005   5.0002e-005   5.0990e+006   2.9548e+005   3.5001e+005    0.0354   -0.0000    0.0000   -0.0000    0.0058
                0.5310   1.0369e-004  -3.0138e-005   7.9836e-005   2.9722e+006   1.7251e+005   5.5885e+005    0.0206   -0.0000    0.0000   -0.0000    0.0093
                0.8265   2.6098e-005  -7.5491e-006   9.4324e-005   7.4834e+005   4.3980e+004   6.6027e+005    0.0052   -0.0000    0.0000   -0.0000    0.0110
                1.1299  -5.4462e-005   1.5916e-005   9.1770e-005  -1.5607e+006  -8.9316e+004   6.4239e+005    0.0000    0.0073    0.0000    0.0000    0.0107
                1.4093  -1.2953e-004   3.7798e-005   7.3748e-005  -3.7123e+006  -2.1328e+005   5.1624e+005    0.0000    0.0174    0.0000    0.0000    0.0086

            panel:  3     
           lam_num    nPlies        tPly      fibAng     matID  matName
               (-)       (-)         (m)       (deg)       (-)  (-)
                 1         1    0.005000      0.0000         2  (blade-shell)
                 2         1    0.015696      0.0000         6  (TEP-core)
                 3         1    0.005000      0.0000         2  (blade-shell)

               lamina:  1     
              matName:  (blade-shell)
                     s           e11           e22           e12           s11           s22           s12   s11_fcT   s11_fcC   s22_fcT   s22_fcC   s12_fcS
                   (m)         (m/m)         (m/m)         (rad)          (Pa)          (Pa)          (Pa)       (-)       (-)       (-)       (-)       (-)
                0.0000  -1.2958e-004   5.1462e-005   3.7871e-004  -3.6305e+006  -5.6447e+003   2.6510e+006    0.0000    0.0170    0.0000    0.0000    0.0442
                0.0041  -1.3069e-004   5.1901e-005   3.7859e-004  -3.6615e+006  -5.6929e+003   2.6501e+006    0.0000    0.0172    0.0000    0.0000    0.0442

               lamina:  2     
              matName:  (TEP-core)
                     s           e11           e22           e12           s11           s22           s12   s11_fcT   s11_fcC   s22_fcT   s22_fcC   s12_fcS
                   (m)         (m/m)         (m/m)         (rad)          (Pa)          (Pa)          (Pa)       (-)       (-)       (-)       (-)       (-)
                0.0000  -1.2958e-004   5.1461e-005   3.7871e-004  -3.2612e+004   3.5963e+003   7.5742e+003    0.0000    0.0000    0.0000   -0.0000    0.0000
                0.0041  -1.3069e-004   5.1900e-005   3.7859e-004  -3.2890e+004   3.6270e+003   7.5717e+003    0.0000    0.0000    0.0000   -0.0000    0.0000

               lamina:  3     
              matName:  (blade-shell)
                     s           e11           e22           e12           s11           s22           s12   s11_fcT   s11_fcC   s22_fcT   s22_fcC   s12_fcS
                   (m)         (m/m)         (m/m)         (rad)          (Pa)          (Pa)          (Pa)       (-)       (-)       (-)       (-)       (-)
                0.0000  -1.2957e-004   5.1459e-005   3.7871e-004  -3.6303e+006  -5.6447e+003   2.6510e+006    0.0000    0.0170    0.0000    0.0000    0.0442
                0.0041  -1.3068e-004   5.1898e-005   3.7859e-004  -3.6613e+006  -5.6928e+003   2.6501e+006    0.0000    0.0172    0.0000    0.0000    0.0442

            panel:  4     
           lam_num    nPlies        tPly      fibAng     matID  matName
               (-)       (-)         (m)       (deg)       (-)  (-)
                 1         1    0.005000      0.0000         2  (blade-shell)
                 2         1    0.015696      0.0000         6  (TEP-core)
                 3         1    0.005000      0.0000         2  (blade-shell)

               lamina:  1     
              matName:  (blade-shell)
                     s           e11           e22           e12           s11           s22           s12   s11_fcT   s11_fcC   s22_fcT   s22_fcC   s12_fcS
                   (m)         (m/m)         (m/m)         (rad)          (Pa)          (Pa)          (Pa)       (-)       (-)       (-)       (-)       (-)
                0.0000  -1.3069e-004   5.1901e-005   3.7183e-004  -3.6615e+006  -5.6929e+003   2.6028e+006    0.0000    0.0172    0.0000    0.0000    0.0434
                0.0259  -1.3793e-004   5.4778e-005   3.7171e-004  -3.8645e+006  -6.0019e+003   2.6019e+006    0.0000    0.0181    0.0000    0.0000    0.0434
                0.3385  -2.2328e-004   8.8672e-005   3.7171e-004  -6.2556e+006  -9.7166e+003   2.6019e+006    0.0000    0.0294    0.0000    0.0000    0.0434
                0.6491  -3.0799e-004   1.2231e-004   3.7089e-004  -8.6290e+006  -1.3402e+004   2.5962e+006    0.0000    0.0405    0.0000    0.0000    0.0433
                0.9541  -3.9102e-004   1.5529e-004   3.5757e-004  -1.0955e+007  -1.7016e+004   2.5030e+006    0.0000    0.0514    0.0000    0.0000    0.0417
                1.1297  -4.3874e-004   1.7424e-004   3.3810e-004  -1.2292e+007  -1.9094e+004   2.3667e+006    0.0000    0.0577    0.0000    0.0000    0.0394

               lamina:  2     
              matName:  (TEP-core)
                     s           e11           e22           e12           s11           s22           s12   s11_fcT   s11_fcC   s22_fcT   s22_fcC   s12_fcS
                   (m)         (m/m)         (m/m)         (rad)          (Pa)          (Pa)          (Pa)       (-)       (-)       (-)       (-)       (-)
                0.0000  -1.3069e-004   5.1900e-005   3.7183e-004  -3.2890e+004   3.6270e+003   7.4366e+003    0.0000    0.0000    0.0000   -0.0000    0.0000
                0.0259  -1.3786e-004   5.4749e-005   3.7171e-004  -3.4695e+004   3.8261e+003   7.4341e+003    0.0000    0.0000    0.0000   -0.0000    0.0000
                0.3385  -2.2317e-004   8.8628e-005   3.7171e-004  -5.6165e+004   6.1938e+003   7.4341e+003    0.0000    0.0000    0.0000   -0.0000    0.0000
                0.6491  -3.0783e-004   1.2225e-004   3.7089e-004  -7.7472e+004   8.5435e+003   7.4177e+003    0.0000    0.0000    0.0000   -0.0000    0.0000
                0.9541  -3.9083e-004   1.5521e-004   3.5757e-004  -9.8361e+004   1.0847e+004   7.1514e+003    0.0000    0.0000    0.0000   -0.0000    0.0000
                1.1297  -4.3853e-004   1.7416e-004   3.3810e-004  -1.1037e+005   1.2171e+004   6.7621e+003    0.0000    0.0000    0.0000   -0.0000    0.0000

               lamina:  3     
              matName:  (blade-shell)
                     s           e11           e22           e12           s11           s22           s12   s11_fcT   s11_fcC   s22_fcT   s22_fcC   s12_fcS
                   (m)         (m/m)         (m/m)         (rad)          (Pa)          (Pa)          (Pa)       (-)       (-)       (-)       (-)       (-)
                0.0000  -1.3068e-004   5.1898e-005   3.7183e-004  -3.6613e+006  -5.6928e+003   2.6028e+006    0.0000    0.0172    0.0000    0.0000    0.0434
                0.0259  -1.3762e-004   5.4655e-005   3.7171e-004  -3.8559e+006  -5.9993e+003   2.6019e+006    0.0000    0.0181    0.0000    0.0000    0.0434
                0.3385  -2.2282e-004   8.8491e-005   3.7171e-004  -6.2429e+006  -9.7127e+003   2.6019e+006    0.0000    0.0293    0.0000    0.0000    0.0434
                0.6491  -3.0733e-004   1.2205e-004   3.7089e-004  -8.6106e+006  -1.3397e+004   2.5962e+006    0.0000    0.0404    0.0000    0.0000    0.0433
                0.9541  -3.9023e-004   1.5497e-004   3.5757e-004  -1.0933e+007  -1.7010e+004   2.5030e+006    0.0000    0.0513    0.0000    0.0000    0.0417
                1.1297  -4.3787e-004   1.7390e-004   3.3810e-004  -1.2268e+007  -1.9086e+004   2.3667e+006    0.0000    0.0576    0.0000    0.0000    0.0394

            panel:  5     
           lam_num    nPlies        tPly      fibAng     matID  matName
               (-)       (-)         (m)       (deg)       (-)  (-)
                 1         1    0.005000      0.0000         2  (blade-shell)
                 2         1    0.015696      0.0000         6  (TEP-core)
                 3         1    0.005000      0.0000         2  (blade-shell)

               lamina:  1     
              matName:  (blade-shell)
                     s           e11           e22           e12           s11           s22           s12   s11_fcT   s11_fcC   s22_fcT   s22_fcC   s12_fcS
                   (m)         (m/m)         (m/m)         (rad)          (Pa)          (Pa)          (Pa)       (-)       (-)       (-)       (-)       (-)
                0.0000  -4.3874e-004   1.7424e-004   3.1295e-004  -1.2292e+007  -1.9094e+004   2.1906e+006    0.0000    0.0577    0.0000    0.0000    0.0365
                0.1202  -4.7141e-004   1.8722e-004   2.9576e-004  -1.3208e+007  -2.0516e+004   2.0703e+006    0.0000    0.0620    0.0000    0.0000    0.0345
                0.4032  -5.4823e-004   2.1772e-004   3.0065e-004  -1.5360e+007  -2.3861e+004   2.1046e+006    0.0000    0.0721    0.0000    0.0000    0.0351
                0.6700  -6.2057e-004   2.4645e-004   2.8775e-004  -1.7387e+007  -2.7011e+004   2.0142e+006    0.0000    0.0816    0.0000    0.0000    0.0336
                0.9177  -6.8768e-004   2.7311e-004   2.5370e-004  -1.9267e+007  -2.9933e+004   1.7759e+006    0.0000    0.0905    0.0000    0.0000    0.0296
                1.1432  -7.4874e-004   2.9736e-004   2.1691e-004  -2.0978e+007  -3.2593e+004   1.5184e+006    0.0000    0.0985    0.0000    0.0000    0.0253
                1.3441  -8.0312e-004   3.1895e-004   1.7867e-004  -2.2501e+007  -3.4961e+004   1.2507e+006    0.0000    0.1056    0.0000    0.0000    0.0208
                1.5181  -8.5021e-004   3.3765e-004   1.4045e-004  -2.3821e+007  -3.7012e+004   9.8316e+005    0.0000    0.1118    0.0000    0.0000    0.0164
                1.6632  -8.8947e-004   3.5324e-004   1.0366e-004  -2.4921e+007  -3.8721e+004   7.2564e+005    0.0000    0.1170    0.0000    0.0000    0.0121
                1.7780  -9.2052e-004   3.6558e-004   6.9708e-005  -2.5791e+007  -4.0072e+004   4.8796e+005    0.0000    0.1211    0.0000    0.0000    0.0081
                1.8611  -9.4296e-004   3.7449e-004   3.9919e-005  -2.6419e+007  -4.1049e+004   2.7943e+005    0.0000    0.1240    0.0000    0.0000    0.0047
                1.9090  -9.5684e-004   3.8000e-004   1.5390e-005  -2.6808e+007  -4.1620e+004   1.0773e+005    0.0000    0.1259    0.0000    0.0000    0.0018
                1.9286  -9.6245e-004   3.8223e-004   2.8957e-006  -2.6965e+007  -4.1801e+004   2.0270e+004    0.0000    0.1266    0.0000    0.0000    0.0003

               lamina:  2     
              matName:  (TEP-core)
                     s           e11           e22           e12           s11           s22           s12   s11_fcT   s11_fcC   s22_fcT   s22_fcC   s12_fcS
                   (m)         (m/m)         (m/m)         (rad)          (Pa)          (Pa)          (Pa)       (-)       (-)       (-)       (-)       (-)
                0.0000  -4.3853e-004   1.7416e-004   3.1295e-004  -1.1037e+005   1.2171e+004   6.2590e+003    0.0000    0.0000    0.0000   -0.0000    0.0000
                0.1202  -4.7119e-004   1.8713e-004   2.9576e-004  -1.1859e+005   1.3077e+004   5.9152e+003    0.0000    0.0000    0.0000   -0.0000    0.0000
                0.4032  -5.4799e-004   2.1763e-004   3.0065e-004  -1.3791e+005   1.5209e+004   6.0131e+003    0.0000    0.0000    0.0000   -0.0000    0.0000
                0.6700  -6.2032e-004   2.4635e-004   2.8775e-004  -1.5612e+005   1.7216e+004   5.7550e+003    0.0000    0.0000    0.0000   -0.0000    0.0000
                0.9177  -6.8742e-004   2.7300e-004   2.5370e-004  -1.7301e+005   1.9079e+004   5.0739e+003    0.0000    0.0000    0.0000   -0.0000    0.0000
                1.1432  -7.4848e-004   2.9725e-004   2.1691e-004  -1.8837e+005   2.0773e+004   4.3381e+003    0.0000    0.0000    0.0000   -0.0000    0.0000
                1.3441  -8.0285e-004   3.1884e-004   1.7867e-004  -2.0206e+005   2.2282e+004   3.5733e+003    0.0000    0.0000    0.0000   -0.0000    0.0000
                1.5181  -8.4993e-004   3.3754e-004   1.4045e-004  -2.1390e+005   2.3589e+004   2.8090e+003    0.0000    0.0000    0.0000   -0.0000    0.0000
                1.6632  -8.8918e-004   3.5313e-004   1.0366e-004  -2.2378e+005   2.4678e+004   2.0733e+003    0.0000    0.0000    0.0000   -0.0000    0.0000
                1.7780  -9.2021e-004   3.6545e-004   6.9708e-005  -2.3159e+005   2.5539e+004   1.3942e+003    0.0000    0.0000    0.0000   -0.0000    0.0000
                1.8611  -9.4264e-004   3.7436e-004   3.9919e-005  -2.3724e+005   2.6162e+004   7.9838e+002    0.0000    0.0000    0.0000   -0.0000    0.0000
                1.9090  -9.5615e-004   3.7973e-004   1.5390e-005  -2.4064e+005   2.6537e+004   3.0780e+002    0.0000    0.0000    0.0000   -0.0000    0.0000
                1.9286  -9.6106e-004   3.8168e-004   2.8957e-006  -2.4187e+005   2.6674e+004   5.7914e+001    0.0000    0.0000    0.0000   -0.0000    0.0000

               lamina:  3     
              matName:  (blade-shell)
                     s           e11           e22           e12           s11           s22           s12   s11_fcT   s11_fcC   s22_fcT   s22_fcC   s12_fcS
                   (m)         (m/m)         (m/m)         (rad)          (Pa)          (Pa)          (Pa)       (-)       (-)       (-)       (-)       (-)
                0.0000  -4.3787e-004   1.7390e-004   3.1295e-004  -1.2268e+007  -1.9086e+004   2.1906e+006    0.0000    0.0576    0.0000    0.0000    0.0365
                0.1202  -4.7048e-004   1.8684e-004   2.9576e-004  -1.3182e+007  -2.0508e+004   2.0703e+006    0.0000    0.0619    0.0000    0.0000    0.0345
                0.4032  -5.4724e-004   2.1733e-004   3.0065e-004  -1.5332e+007  -2.3852e+004   2.1046e+006    0.0000    0.0720    0.0000    0.0000    0.0351
                0.6700  -6.1954e-004   2.4604e-004   2.8775e-004  -1.7358e+007  -2.7002e+004   2.0142e+006    0.0000    0.0815    0.0000    0.0000    0.0336
                0.9177  -6.8660e-004   2.7267e-004   2.5370e-004  -1.9237e+007  -2.9924e+004   1.7759e+006    0.0000    0.0903    0.0000    0.0000    0.0296
                1.1432  -7.4764e-004   2.9692e-004   2.1691e-004  -2.0947e+007  -3.2584e+004   1.5184e+006    0.0000    0.0983    0.0000    0.0000    0.0253
                1.3441  -8.0199e-004   3.1850e-004   1.7867e-004  -2.2470e+007  -3.4952e+004   1.2507e+006    0.0000    0.1055    0.0000    0.0000    0.0208
                1.5181  -8.4904e-004   3.3719e-004   1.4045e-004  -2.3788e+007  -3.7002e+004   9.8316e+005    0.0000    0.1117    0.0000    0.0000    0.0164
                1.6632  -8.8826e-004   3.5276e-004   1.0366e-004  -2.4887e+007  -3.8711e+004   7.2564e+005    0.0000    0.1168    0.0000    0.0000    0.0121
                1.7780  -9.1922e-004   3.6506e-004   6.9708e-005  -2.5754e+007  -4.0061e+004   4.8796e+005    0.0000    0.1209    0.0000    0.0000    0.0081
                1.8611  -9.4163e-004   3.7396e-004   3.9919e-005  -2.6382e+007  -4.1038e+004   2.7943e+005    0.0000    0.1239    0.0000    0.0000    0.0047
                1.9090  -9.5398e-004   3.7886e-004   1.5390e-005  -2.6728e+007  -4.1596e+004   1.0773e+005    0.0000    0.1255    0.0000    0.0000    0.0018
                1.9286  -9.5671e-004   3.7994e-004   2.8957e-006  -2.6805e+007  -4.1753e+004   2.0270e+004    0.0000    0.1258    0.0000    0.0000    0.0003

  Bottom:  panel  nNode   nLam     xc_St    xc_End         b         t         E_eff         G_eff      nu_eff     density  buckleCrit
            (-)    (-)    (-)       (-)       (-)       (m)       (m)          (Pa)          (Pa)         (-)    (kg/m^3)         (-)
              1     12      3    0.0000    0.2551    1.6559    0.0700   4.2251e+009   1.0171e+009      0.3899    435.7143      0.0002
              2      6      5    0.2551    0.4949    1.4149    0.1070   4.0710e+010   3.3737e+009      0.2918   1913.4275      0.0000
              3      2      3    0.4949    0.4956    0.0041    0.0257   1.1057e+010   2.7364e+009      0.3971    842.1190      0.0000
              4      6      3    0.4956    0.6835    1.1511    0.0257   1.1057e+010   2.7364e+009      0.3971    842.1190      0.1324
              5     13      3    0.6835    1.0000    1.8964    0.0257   1.1057e+010   2.7364e+009      0.3971    842.1190      0.1672

            panel:  1     
           lam_num    nPlies        tPly      fibAng     matID  matName
               (-)       (-)         (m)       (deg)       (-)  (-)
                 1         1    0.005000      0.0000         2  (blade-shell)
                 2         1    0.060000      0.0000         5  (LEP-core)
                 3         1    0.005000      0.0000         2  (blade-shell)

               lamina:  1     
              matName:  (blade-shell)
                     s           e11           e22           e12           s11           s22           s12   s11_fcT   s11_fcC   s22_fcT   s22_fcC   s12_fcS
                   (m)         (m/m)         (m/m)         (rad)          (Pa)          (Pa)          (Pa)       (-)       (-)       (-)       (-)       (-)
                0.0000   6.4193e-004  -2.5035e-004   7.9424e-005   1.8013e+007   9.7746e+004   5.5597e+005    0.1251   -0.0000    0.0000   -0.0000    0.0093
                0.0652   6.3508e-004  -2.4767e-004   8.9372e-005   1.7821e+007   9.6794e+004   6.2560e+005    0.1238   -0.0000    0.0000   -0.0000    0.0104
                0.1435   6.1918e-004  -2.4146e-004   1.0112e-004   1.7375e+007   9.4573e+004   7.0786e+005    0.1207   -0.0000    0.0000   -0.0000    0.0118
                0.2455   5.9475e-004  -2.3192e-004   1.1600e-004   1.6689e+007   9.1008e+004   8.1197e+005    0.1159   -0.0000    0.0000   -0.0000    0.0135
                0.3732   5.6210e-004  -2.1918e-004   1.3378e-004   1.5773e+007   8.6129e+004   9.3643e+005    0.1095   -0.0000    0.0000   -0.0000    0.0156
                0.5265   5.2156e-004  -2.0337e-004   1.5380e-004   1.4636e+007   8.0005e+004   1.0766e+006    0.1016   -0.0000    0.0000   -0.0000    0.0179
                0.7040   4.7364e-004  -1.8468e-004   1.7513e-004   1.3291e+007   7.2721e+004   1.2259e+006    0.0923   -0.0000    0.0000   -0.0000    0.0204
                0.9050   4.1884e-004  -1.6331e-004   1.9682e-004   1.1753e+007   6.4360e+004   1.3777e+006    0.0816   -0.0000    0.0000   -0.0000    0.0230
                1.1271   3.5779e-004  -1.3950e-004   2.1770e-004   1.0040e+007   5.5037e+004   1.5239e+006    0.0697   -0.0000    0.0000   -0.0000    0.0254
                1.3683   2.9127e-004  -1.1356e-004   2.3669e-004   8.1734e+006   4.4867e+004   1.6568e+006    0.0568   -0.0000    0.0000   -0.0000    0.0276
                1.6277   2.2013e-004  -8.5819e-005   2.5280e-004   6.1771e+006   3.3946e+004   1.7696e+006    0.0429   -0.0000    0.0000   -0.0000    0.0295
                1.6559   2.1191e-004  -8.2612e-005   2.5428e-004   5.9466e+006   3.2741e+004   1.7800e+006    0.0413   -0.0000    0.0000   -0.0000    0.0297

               lamina:  2     
              matName:  (LEP-core)
                     s           e11           e22           e12           s11           s22           s12   s11_fcT   s11_fcC   s22_fcT   s22_fcC   s12_fcS
                   (m)         (m/m)         (m/m)         (rad)          (Pa)          (Pa)          (Pa)       (-)       (-)       (-)       (-)       (-)
                0.0000   6.4038e-004  -2.4973e-004   7.9424e-005   1.6156e+005  -1.6463e+004   1.5885e+003    0.0000   -0.0000    0.0000    0.0000    0.0000
                0.0652   6.3367e-004  -2.4711e-004   8.9372e-005   1.5987e+005  -1.6289e+004   1.7874e+003    0.0000   -0.0000    0.0000    0.0000    0.0000
                0.1435   6.1808e-004  -2.4102e-004   1.0112e-004   1.5594e+005  -1.5885e+004   2.0225e+003    0.0000   -0.0000    0.0000    0.0000    0.0000
                0.2455   5.9392e-004  -2.3159e-004   1.1600e-004   1.4984e+005  -1.5261e+004   2.3199e+003    0.0000   -0.0000    0.0000    0.0000    0.0000
                0.3732   5.6146e-004  -2.1893e-004   1.3378e-004   1.4165e+005  -1.4425e+004   2.6755e+003    0.0000   -0.0000    0.0000    0.0000    0.0000
                0.5265   5.2109e-004  -2.0318e-004   1.5380e-004   1.3147e+005  -1.3387e+004   3.0760e+003    0.0000   -0.0000    0.0000    0.0000    0.0000
                0.7040   4.7330e-004  -1.8454e-004   1.7513e-004   1.1941e+005  -1.2158e+004   3.5026e+003    0.0000   -0.0000    0.0000    0.0000    0.0000
                0.9050   4.1861e-004  -1.6321e-004   1.9682e-004   1.0561e+005  -1.0752e+004   3.9363e+003    0.0000   -0.0000    0.0000    0.0000    0.0000
                1.1271   3.5767e-004  -1.3945e-004   2.1770e-004   9.0238e+004  -9.1859e+003   4.3540e+003    0.0000   -0.0000    0.0000    0.0000    0.0000
                1.3683   2.9125e-004  -1.1355e-004   2.3669e-004   7.3482e+004  -7.4791e+003   4.7337e+003    0.0000   -0.0000    0.0000    0.0000    0.0000
                1.6277   2.2071e-004  -8.6050e-005   2.5280e-004   5.5683e+004  -5.6680e+003   5.0560e+003    0.0000   -0.0000    0.0000    0.0000    0.0000
                1.6559   2.1362e-004  -8.3292e-005   2.5428e-004   5.3895e+004  -5.4872e+003   5.0856e+003    0.0000   -0.0000    0.0000    0.0000    0.0000

               lamina:  3     
              matName:  (blade-shell)
                     s           e11           e22           e12           s11           s22           s12   s11_fcT   s11_fcC   s22_fcT   s22_fcC   s12_fcS
                   (m)         (m/m)         (m/m)         (rad)          (Pa)          (Pa)          (Pa)       (-)       (-)       (-)       (-)       (-)
                0.0000   6.2185e-004  -2.4238e-004   7.9424e-005   1.7451e+007   9.6801e+004   5.5597e+005    0.1212   -0.0000    0.0000   -0.0000    0.0093
                0.0652   6.1679e-004  -2.4041e-004   8.9372e-005   1.7308e+007   9.5933e+004   6.2560e+005    0.1202   -0.0000    0.0000   -0.0000    0.0104
                0.1435   6.0485e-004  -2.3577e-004   1.0112e-004   1.6973e+007   9.3898e+004   7.0786e+005    0.1179   -0.0000    0.0000   -0.0000    0.0118
                0.2455   5.8387e-004  -2.2760e-004   1.1600e-004   1.6384e+007   9.0495e+004   8.1197e+005    0.1138   -0.0000    0.0000   -0.0000    0.0135
                0.3732   5.5385e-004  -2.1591e-004   1.3378e-004   1.5542e+007   8.5740e+004   9.3643e+005    0.1079   -0.0000    0.0000   -0.0000    0.0156
                0.5265   5.1544e-004  -2.0094e-004   1.5380e-004   1.4464e+007   7.9717e+004   1.0766e+006    0.1004   -0.0000    0.0000   -0.0000    0.0179
                0.7040   4.6924e-004  -1.8293e-004   1.7513e-004   1.3168e+007   7.2514e+004   1.2259e+006    0.0914   -0.0000    0.0000   -0.0000    0.0204
                0.9050   4.1588e-004  -1.6213e-004   1.9682e-004   1.1670e+007   6.4221e+004   1.3777e+006    0.0810   -0.0000    0.0000   -0.0000    0.0230
                1.1271   3.5625e-004  -1.3889e-004   2.1770e-004   9.9971e+006   5.4964e+004   1.5239e+006    0.0694   -0.0000    0.0000   -0.0000    0.0254
                1.3683   2.9111e-004  -1.1350e-004   2.3669e-004   8.1691e+006   4.4860e+004   1.6568e+006    0.0567   -0.0000    0.0000   -0.0000    0.0276
                1.6277   2.2075e-004  -8.6069e-005   2.5280e-004   6.1947e+006   3.3976e+004   1.7696e+006    0.0430   -0.0000    0.0000   -0.0000    0.0295
                1.6559   2.1376e-004  -8.3348e-005   2.5428e-004   5.9985e+006   3.2828e+004   1.7800e+006    0.0417   -0.0000    0.0000   -0.0000    0.0297

            panel:  2     
           lam_num    nPlies        tPly      fibAng     matID  matName
               (-)       (-)         (m)       (deg)       (-)  (-)
                 1         1    0.005000      0.0000         2  (blade-shell)
                 2         1    0.048513      0.0000         3  (spar-uni)
                 3         1    0.000002      0.0000         4  (spar-core)
                 4         1    0.048513      0.0000         3  (spar-uni)
                 5         1    0.005000      0.0000         2  (blade-shell)

               lamina:  1     
              matName:  (blade-shell)
                     s           e11           e22           e12           s11           s22           s12   s11_fcT   s11_fcC   s22_fcT   s22_fcC   s12_fcS
                   (m)         (m/m)         (m/m)         (rad)          (Pa)          (Pa)          (Pa)       (-)       (-)       (-)       (-)       (-)
                0.0000   2.0955e-004  -6.1075e-005   6.2625e-005   6.0060e+006   3.4614e+005   4.3837e+005    0.0417   -0.0000    0.0000   -0.0000    0.0073
                0.2438   1.4185e-004  -4.1291e-005   9.3595e-005   4.0659e+006   2.3511e+005   6.5516e+005    0.0282   -0.0000    0.0000   -0.0000    0.0109
                0.5296   6.2330e-005  -1.8038e-005   1.1545e-004   1.7872e+006   1.0491e+005   8.0813e+005    0.0124   -0.0000    0.0000   -0.0000    0.0135
                0.8264  -2.0297e-005   6.1395e-006   1.2176e-004  -5.8035e+005  -3.0118e+004   8.5234e+005    0.0000    0.0027    0.0000    0.0000    0.0142
                1.1321  -1.0331e-004   3.0412e-005   1.1103e-004  -2.9591e+006  -1.6605e+005   7.7720e+005    0.0000    0.0139    0.0000    0.0000    0.0130
                1.4149  -1.7788e-004   5.2198e-005   8.5754e-005  -5.0960e+006  -2.8843e+005   6.0028e+005    0.0000    0.0239    0.0000    0.0000    0.0100

               lamina:  2     
              matName:  (spar-uni)
                     s           e11           e22           e12           s11           s22           s12   s11_fcT   s11_fcC   s22_fcT   s22_fcC   s12_fcS
                   (m)         (m/m)         (m/m)         (rad)          (Pa)          (Pa)          (Pa)       (-)       (-)       (-)       (-)       (-)
                0.0000   2.1320e-004  -6.2214e-005   6.2625e-005   8.9444e+006  -3.6179e+004   1.8787e+005    0.0092   -0.0000    0.0000    0.0000    0.0063
                0.2438   1.4692e-004  -4.2873e-005   9.3595e-005   6.1638e+006  -2.4932e+004   2.8078e+005    0.0063   -0.0000    0.0000    0.0000    0.0094
                0.5296   6.9794e-005  -2.0366e-005   1.1545e-004   2.9280e+006  -1.1844e+004   3.4634e+005    0.0030   -0.0000    0.0000    0.0000    0.0115
                0.8264  -1.9289e-005   5.8251e-006   1.2176e-004  -8.0842e+005   6.0993e+003   3.6529e+005    0.0000    0.0012    0.0000   -0.0000    0.0122
                1.1321  -1.0207e-004   3.0026e-005   1.1103e-004  -4.2812e+006   2.0786e+004   3.3309e+005    0.0000    0.0061    0.0000   -0.0000    0.0111
                1.4149  -1.7652e-004   5.1775e-005   8.5754e-005  -7.4046e+006   3.3756e+004   2.5726e+005    0.0000    0.0105    0.0000   -0.0000    0.0086

               lamina:  3     
              matName:  (spar-core)
                     s           e11           e22           e12           s11           s22           s12   s11_fcT   s11_fcC   s22_fcT   s22_fcC   s12_fcS
                   (m)         (m/m)         (m/m)         (rad)          (Pa)          (Pa)          (Pa)       (-)       (-)       (-)       (-)       (-)
                0.0000   2.1320e-004  -6.2214e-005   6.2625e-005   5.5583e+004   4.9925e+002   1.2525e+003    0.0000   -0.0000    0.0000   -0.0000    0.0000
                0.2438   1.4692e-004  -4.2873e-005   9.3595e-005   3.8303e+004   3.4404e+002   1.8719e+003    0.0000   -0.0000    0.0000   -0.0000    0.0000
                0.5296   6.9794e-005  -2.0366e-005   1.1545e-004   1.8196e+004   1.6343e+002   2.3089e+003    0.0000   -0.0000    0.0000   -0.0000    0.0000
                0.8264  -9.5094e-006   2.7749e-006   1.2176e-004  -2.4791e+003  -2.2268e+001   2.4353e+003    0.0000    0.0000    0.0000    0.0000    0.0000
                1.1321  -9.0081e-005   2.6286e-005   1.1103e-004  -2.3484e+004  -2.1094e+002   2.2206e+003    0.0000    0.0000    0.0000    0.0000    0.0000
                1.4149  -1.6337e-004   4.7672e-005   8.5754e-005  -4.2591e+004  -3.8256e+002   1.7151e+003    0.0000    0.0000    0.0000    0.0000    0.0000

               lamina:  4     
              matName:  (spar-uni)
                     s           e11           e22           e12           s11           s22           s12   s11_fcT   s11_fcC   s22_fcT   s22_fcC   s12_fcS
                   (m)         (m/m)         (m/m)         (rad)          (Pa)          (Pa)          (Pa)       (-)       (-)       (-)       (-)       (-)
                0.0000   2.1686e-004  -6.3353e-005   6.2625e-005   9.0973e+006  -3.7854e+004   1.8787e+005    0.0094   -0.0000    0.0000    0.0000    0.0063
                0.2438   1.5199e-004  -4.4454e-005   9.3595e-005   6.3761e+006  -2.7258e+004   2.8078e+005    0.0066   -0.0000    0.0000    0.0000    0.0094
                0.5296   7.7258e-005  -2.2694e-005   1.1545e-004   3.2406e+006  -1.5267e+004   3.4634e+005    0.0033   -0.0000    0.0000    0.0000    0.0115
                0.8264  -9.5090e-006   2.7748e-006   1.2176e-004  -3.9893e+005  -2.8720e+003   3.6529e+005    0.0000    0.0006    0.0000    0.0000    0.0122
                1.1321  -9.0081e-005   2.6286e-005   1.1103e-004  -3.7791e+006   1.5286e+004   3.3309e+005    0.0000    0.0054    0.0000   -0.0000    0.0111
                1.4149  -1.6337e-004   4.7672e-005   8.5754e-005  -6.8538e+006   2.7723e+004   2.5726e+005    0.0000    0.0098    0.0000   -0.0000    0.0086

               lamina:  5     
              matName:  (blade-shell)
                     s           e11           e22           e12           s11           s22           s12   s11_fcT   s11_fcC   s22_fcT   s22_fcC   s12_fcS
                   (m)         (m/m)         (m/m)         (rad)          (Pa)          (Pa)          (Pa)       (-)       (-)       (-)       (-)       (-)
                0.0000   2.1723e-004  -6.3470e-005   6.2625e-005   6.2251e+006   3.5643e+005   4.3837e+005    0.0432   -0.0000    0.0000   -0.0000    0.0073
                0.2438   1.5252e-004  -4.4617e-005   9.3595e-005   4.3702e+006   2.4940e+005   6.5516e+005    0.0303   -0.0000    0.0000   -0.0000    0.0109
                0.5296   7.8027e-005  -2.2934e-005   1.1545e-004   2.2351e+006   1.2595e+005   8.0813e+005    0.0155   -0.0000    0.0000   -0.0000    0.0135
                0.8264   1.2782e-006  -5.8984e-007   1.2176e-004   3.5312e+004  -2.5465e+003   8.5234e+005    0.0002   -0.0000    0.0000    0.0000    0.0142
                1.1321  -7.8089e-005   2.2546e-005   1.1103e-004  -2.2394e+006  -1.3224e+005   7.7720e+005    0.0000    0.0105    0.0000    0.0000    0.0130
                1.4149  -1.5022e-004   4.3570e-005   8.5754e-005  -4.3066e+006  -2.5135e+005   6.0028e+005    0.0000    0.0202    0.0000    0.0000    0.0100

            panel:  3     
           lam_num    nPlies        tPly      fibAng     matID  matName
               (-)       (-)         (m)       (deg)       (-)  (-)
                 1         1    0.005000      0.0000         2  (blade-shell)
                 2         1    0.015696      0.0000         6  (TEP-core)
                 3         1    0.005000      0.0000         2  (blade-shell)

               lamina:  1     
              matName:  (blade-shell)
                     s           e11           e22           e12           s11           s22           s12   s11_fcT   s11_fcC   s22_fcT   s22_fcC   s12_fcS
                   (m)         (m/m)         (m/m)         (rad)          (Pa)          (Pa)          (Pa)       (-)       (-)       (-)       (-)       (-)
                0.0000  -1.6852e-004   6.6931e-005   4.4036e-004  -4.7216e+006  -7.2822e+003   3.0825e+006    0.0000    0.0222    0.0000    0.0000    0.0514
                0.0041  -1.6959e-004   6.7353e-005   4.4020e-004  -4.7514e+006  -7.3285e+003   3.0814e+006    0.0000    0.0223    0.0000    0.0000    0.0514

               lamina:  2     
              matName:  (TEP-core)
                     s           e11           e22           e12           s11           s22           s12   s11_fcT   s11_fcC   s22_fcT   s22_fcC   s12_fcS
                   (m)         (m/m)         (m/m)         (rad)          (Pa)          (Pa)          (Pa)       (-)       (-)       (-)       (-)       (-)
                0.0000  -1.6787e-004   6.6670e-005   4.4036e-004  -4.2248e+004   4.6597e+003   8.8073e+003    0.0000    0.0000    0.0000   -0.0000    0.0000
                0.0041  -1.6893e-004   6.7092e-005   4.4020e-004  -4.2516e+004   4.6892e+003   8.8040e+003    0.0000    0.0000    0.0000   -0.0000    0.0000

               lamina:  3     
              matName:  (blade-shell)
                     s           e11           e22           e12           s11           s22           s12   s11_fcT   s11_fcC   s22_fcT   s22_fcC   s12_fcS
                   (m)         (m/m)         (m/m)         (rad)          (Pa)          (Pa)          (Pa)       (-)       (-)       (-)       (-)       (-)
                0.0000  -1.6582e-004   6.5850e-005   4.4036e-004  -4.6458e+006  -7.2595e+003   3.0825e+006    0.0000    0.0218    0.0000    0.0000    0.0514
                0.0041  -1.6688e-004   6.6273e-005   4.4020e-004  -4.6756e+006  -7.3058e+003   3.0814e+006    0.0000    0.0220    0.0000    0.0000    0.0514

            panel:  4     
           lam_num    nPlies        tPly      fibAng     matID  matName
               (-)       (-)         (m)       (deg)       (-)  (-)
                 1         1    0.005000      0.0000         2  (blade-shell)
                 2         1    0.015696      0.0000         6  (TEP-core)
                 3         1    0.005000      0.0000         2  (blade-shell)

               lamina:  1     
              matName:  (blade-shell)
                     s           e11           e22           e12           s11           s22           s12   s11_fcT   s11_fcC   s22_fcT   s22_fcC   s12_fcS
                   (m)         (m/m)         (m/m)         (rad)          (Pa)          (Pa)          (Pa)       (-)       (-)       (-)       (-)       (-)
                0.0000  -1.6959e-004   6.7353e-005   4.3818e-004  -4.7514e+006  -7.3285e+003   3.0672e+006    0.0000    0.0223    0.0000    0.0000    0.0511
                0.0261  -1.7656e-004   7.0123e-005   4.3801e-004  -4.9468e+006  -7.6252e+003   3.0661e+006    0.0000    0.0232    0.0000    0.0000    0.0511
                0.3440  -2.5780e-004   1.0238e-004   4.3801e-004  -7.2227e+006  -1.1161e+004   3.0661e+006    0.0000    0.0339    0.0000    0.0000    0.0511
                0.6610  -3.3780e-004   1.3416e-004   4.3696e-004  -9.4643e+006  -1.4642e+004   3.0587e+006    0.0000    0.0444    0.0000    0.0000    0.0510
                0.9725  -4.1586e-004   1.6516e-004   4.2079e-004  -1.1651e+007  -1.8041e+004   2.9456e+006    0.0000    0.0547    0.0000    0.0000    0.0491
                1.1511  -4.6067e-004   1.8295e-004   3.9865e-004  -1.2907e+007  -1.9994e+004   2.7905e+006    0.0000    0.0606    0.0000    0.0000    0.0465

               lamina:  2     
              matName:  (TEP-core)
                     s           e11           e22           e12           s11           s22           s12   s11_fcT   s11_fcC   s22_fcT   s22_fcC   s12_fcS
                   (m)         (m/m)         (m/m)         (rad)          (Pa)          (Pa)          (Pa)       (-)       (-)       (-)       (-)       (-)
                0.0000  -1.6893e-004   6.7092e-005   4.3818e-004  -4.2516e+004   4.6892e+003   8.7635e+003    0.0000    0.0000    0.0000   -0.0000    0.0000
                0.0261  -1.7583e-004   6.9831e-005   4.3801e-004  -4.4251e+004   4.8806e+003   8.7603e+003    0.0000    0.0000    0.0000   -0.0000    0.0000
                0.3440  -2.5702e-004   1.0208e-004   4.3801e-004  -6.4686e+004   7.1341e+003   8.7603e+003    0.0000    0.0000    0.0000   -0.0000    0.0000
                0.6610  -3.3698e-004   1.3383e-004   4.3696e-004  -8.4810e+004   9.3534e+003   8.7391e+003    0.0000    0.0000    0.0000   -0.0000    0.0000
                0.9725  -4.1503e-004   1.6483e-004   4.2079e-004  -1.0445e+005   1.1520e+004   8.4159e+003    0.0000    0.0000    0.0000   -0.0000    0.0000
                1.1511  -4.5985e-004   1.8263e-004   3.9865e-004  -1.1573e+005   1.2763e+004   7.9729e+003    0.0000    0.0000    0.0000   -0.0000    0.0000

               lamina:  3     
              matName:  (blade-shell)
                     s           e11           e22           e12           s11           s22           s12   s11_fcT   s11_fcC   s22_fcT   s22_fcC   s12_fcS
                   (m)         (m/m)         (m/m)         (rad)          (Pa)          (Pa)          (Pa)       (-)       (-)       (-)       (-)       (-)
                0.0000  -1.6688e-004   6.6273e-005   4.3818e-004  -4.6756e+006  -7.3058e+003   3.0672e+006    0.0000    0.0220    0.0000    0.0000    0.0511
                0.0261  -1.7353e-004   6.8913e-005   4.3801e-004  -4.8619e+006  -7.5998e+003   3.0661e+006    0.0000    0.0228    0.0000    0.0000    0.0511
                0.3440  -2.5461e-004   1.0111e-004   4.3801e-004  -7.1334e+006  -1.1134e+004   3.0661e+006    0.0000    0.0335    0.0000    0.0000    0.0511
                0.6610  -3.3443e-004   1.3281e-004   4.3696e-004  -9.3698e+006  -1.4613e+004   3.0587e+006    0.0000    0.0440    0.0000    0.0000    0.0510
                0.9725  -4.1244e-004   1.6379e-004   4.2079e-004  -1.1556e+007  -1.8013e+004   2.9456e+006    0.0000    0.0543    0.0000    0.0000    0.0491
                1.1511  -4.5728e-004   1.8160e-004   3.9865e-004  -1.2812e+007  -1.9965e+004   2.7905e+006    0.0000    0.0601    0.0000    0.0000    0.0465

            panel:  5     
           lam_num    nPlies        tPly      fibAng     matID  matName
               (-)       (-)         (m)       (deg)       (-)  (-)
                 1         1    0.005000      0.0000         2  (blade-shell)
                 2         1    0.015696      0.0000         6  (TEP-core)
                 3         1    0.005000      0.0000         2  (blade-shell)

               lamina:  1     
              matName:  (blade-shell)
                     s           e11           e22           e12           s11           s22           s12   s11_fcT   s11_fcC   s22_fcT   s22_fcC   s12_fcS
                   (m)         (m/m)         (m/m)         (rad)          (Pa)          (Pa)          (Pa)       (-)       (-)       (-)       (-)       (-)
                0.0000  -4.6067e-004   1.8295e-004   3.7107e-004  -1.2907e+007  -1.9994e+004   2.5975e+006    0.0000    0.0606    0.0000    0.0000    0.0433
                0.1225  -4.9131e-004   1.9512e-004   3.5267e-004  -1.3765e+007  -2.1332e+004   2.4687e+006    0.0000    0.0646    0.0000    0.0000    0.0411
                0.4076  -5.6359e-004   2.2383e-004   3.3355e-004  -1.5790e+007  -2.4486e+004   2.3348e+006    0.0000    0.0741    0.0000    0.0000    0.0389
                0.6734  -6.3199e-004   2.5099e-004   3.1983e-004  -1.7707e+007  -2.7475e+004   2.2388e+006    0.0000    0.0831    0.0000    0.0000    0.0373
                0.9172  -6.9584e-004   2.7635e-004   2.8444e-004  -1.9496e+007  -3.0269e+004   1.9911e+006    0.0000    0.0915    0.0000    0.0000    0.0332
                1.1373  -7.5444e-004   2.9962e-004   2.4701e-004  -2.1137e+007  -3.2834e+004   1.7291e+006    0.0000    0.0992    0.0000    0.0000    0.0288
                1.3328  -8.0697e-004   3.2048e-004   2.0886e-004  -2.2609e+007  -3.5134e+004   1.4620e+006    0.0000    0.1061    0.0000    0.0000    0.0244
                1.5022  -8.5278e-004   3.3867e-004   1.7119e-004  -2.3893e+007  -3.7140e+004   1.1984e+006    0.0000    0.1122    0.0000    0.0000    0.0200
                1.6438  -8.9120e-004   3.5393e-004   1.3518e-004  -2.4969e+007  -3.8821e+004   9.4625e+005    0.0000    0.1172    0.0000    0.0000    0.0158
                1.7559  -9.2169e-004   3.6604e-004   1.0199e-004  -2.5823e+007  -4.0153e+004   7.1392e+005    0.0000    0.1212    0.0000    0.0000    0.0119
                1.8370  -9.4377e-004   3.7481e-004   7.2826e-005  -2.6442e+007  -4.1116e+004   5.0978e+005    0.0000    0.1241    0.0000    0.0000    0.0085
                1.8838  -9.5739e-004   3.8022e-004   4.8823e-005  -2.6824e+007  -4.1680e+004   3.4176e+005    0.0000    0.1259    0.0000    0.0000    0.0057
                1.8964  -9.6232e-004   3.8218e-004   3.0949e-005  -2.6962e+007  -4.1808e+004   2.1664e+005    0.0000    0.1266    0.0000    0.0000    0.0036

               lamina:  2     
              matName:  (TEP-core)
                     s           e11           e22           e12           s11           s22           s12   s11_fcT   s11_fcC   s22_fcT   s22_fcC   s12_fcS
                   (m)         (m/m)         (m/m)         (rad)          (Pa)          (Pa)          (Pa)       (-)       (-)       (-)       (-)       (-)
                0.0000  -4.5985e-004   1.8263e-004   3.7107e-004  -1.1573e+005   1.2763e+004   7.4214e+003    0.0000    0.0000    0.0000   -0.0000    0.0000
                0.1225  -4.9053e-004   1.9481e-004   3.5267e-004  -1.2345e+005   1.3615e+004   7.0534e+003    0.0000    0.0000    0.0000   -0.0000    0.0000
                0.4076  -5.6287e-004   2.2354e-004   3.3355e-004  -1.4166e+005   1.5622e+004   6.6709e+003    0.0000    0.0000    0.0000   -0.0000    0.0000
                0.6734  -6.3137e-004   2.5074e-004   3.1983e-004  -1.5890e+005   1.7523e+004   6.3967e+003    0.0000    0.0000    0.0000   -0.0000    0.0000
                0.9172  -6.9536e-004   2.7615e-004   2.8444e-004  -1.7500e+005   1.9299e+004   5.6888e+003    0.0000    0.0000    0.0000   -0.0000    0.0000
                1.1373  -7.5409e-004   2.9948e-004   2.4701e-004  -1.8979e+005   2.0929e+004   4.9403e+003    0.0000    0.0000    0.0000   -0.0000    0.0000
                1.3328  -8.0675e-004   3.2039e-004   2.0886e-004  -2.0304e+005   2.2390e+004   4.1771e+003    0.0000    0.0000    0.0000   -0.0000    0.0000
                1.5022  -8.5268e-004   3.3863e-004   1.7119e-004  -2.1460e+005   2.3665e+004   3.4239e+003    0.0000    0.0000    0.0000   -0.0000    0.0000
                1.6438  -8.9118e-004   3.5392e-004   1.3518e-004  -2.2429e+005   2.4733e+004   2.7036e+003    0.0000    0.0000    0.0000   -0.0000    0.0000
                1.7559  -9.2179e-004   3.6608e-004   1.0199e-004  -2.3199e+005   2.5583e+004   2.0398e+003    0.0000    0.0000    0.0000   -0.0000    0.0000
                1.8370  -9.4397e-004   3.7489e-004   7.2826e-005  -2.3757e+005   2.6199e+004   1.4565e+003    0.0000    0.0000    0.0000   -0.0000    0.0000
                1.8838  -9.5710e-004   3.8010e-004   4.8823e-005  -2.4088e+005   2.6563e+004   9.7647e+002    0.0000    0.0000    0.0000   -0.0000    0.0000
                1.8964  -9.6108e-004   3.8168e-004   3.0949e-005  -2.4188e+005   2.6675e+004   6.1898e+002    0.0000    0.0000    0.0000   -0.0000    0.0000

               lamina:  3     
              matName:  (blade-shell)
                     s           e11           e22           e12           s11           s22           s12   s11_fcT   s11_fcC   s22_fcT   s22_fcC   s12_fcS
                   (m)         (m/m)         (m/m)         (rad)          (Pa)          (Pa)          (Pa)       (-)       (-)       (-)       (-)       (-)
                0.0000  -4.5728e-004   1.8160e-004   3.7107e-004  -1.2812e+007  -1.9965e+004   2.5975e+006    0.0000    0.0601    0.0000    0.0000    0.0433
                0.1225  -4.8808e-004   1.9383e-004   3.5267e-004  -1.3675e+007  -2.1305e+004   2.4687e+006    0.0000    0.0642    0.0000    0.0000    0.0411
                0.4076  -5.6061e-004   2.2263e-004   3.3355e-004  -1.5707e+007  -2.4461e+004   2.3348e+006    0.0000    0.0737    0.0000    0.0000    0.0389
                0.6734  -6.2944e-004   2.4997e-004   3.1983e-004  -1.7635e+007  -2.7454e+004   2.2388e+006    0.0000    0.0828    0.0000    0.0000    0.0373
                0.9172  -6.9385e-004   2.7555e-004   2.8444e-004  -1.9440e+007  -3.0252e+004   1.9911e+006    0.0000    0.0913    0.0000    0.0000    0.0332
                1.1373  -7.5300e-004   2.9904e-004   2.4701e-004  -2.1097e+007  -3.2822e+004   1.7291e+006    0.0000    0.0990    0.0000    0.0000    0.0288
                1.3328  -8.0606e-004   3.2012e-004   2.0886e-004  -2.2584e+007  -3.5126e+004   1.4620e+006    0.0000    0.1060    0.0000    0.0000    0.0244
                1.5022  -8.5235e-004   3.3850e-004   1.7119e-004  -2.3881e+007  -3.7136e+004   1.1984e+006    0.0000    0.1121    0.0000    0.0000    0.0200
                1.6438  -8.9112e-004   3.5390e-004   1.3518e-004  -2.4967e+007  -3.8820e+004   9.4625e+005    0.0000    0.1172    0.0000    0.0000    0.0158
                1.7559  -9.2182e-004   3.6609e-004   1.0199e-004  -2.5827e+007  -4.0154e+004   7.1392e+005    0.0000    0.1213    0.0000    0.0000    0.0119
                1.8370  -9.4404e-004   3.7491e-004   7.2826e-005  -2.6449e+007  -4.1119e+004   5.0978e+005    0.0000    0.1242    0.0000    0.0000    0.0085
                1.8838  -9.5617e-004   3.7973e-004   4.8823e-005  -2.6789e+007  -4.1669e+004   3.4176e+005    0.0000    0.1258    0.0000    0.0000    0.0057
                1.8964  -9.5717e-004   3.8012e-004   3.0949e-005  -2.6817e+007  -4.1765e+004   2.1664e+005    0.0000    0.1259    0.0000    0.0000    0.0036

     Web:  panel  nNode   nLam     xc_St    xc_End         b         t         E_eff         G_eff      nu_eff     density  buckleCrit
            (-)    (-)    (-)       (-)       (-)       (m)       (m)          (Pa)          (Pa)         (-)    (kg/m^3)         (-)
              1     10      3    0.2551    0.2551    1.1716    0.0830   7.6445e+008   4.5301e+008      0.4420    257.1084      0.0000
              2     10      3    0.4956    0.4956    1.1190    0.0830   7.6445e+008   4.5301e+008      0.4420    257.1084      0.0000
              3     10      3    0.6835    0.6835    0.6030    0.0830   7.6445e+008   4.5301e+008      0.4420    257.1084      0.0000

            panel:  1     
           lam_num    nPlies        tPly      fibAng     matID  matName
               (-)       (-)         (m)       (deg)       (-)  (-)
                 1         1    0.001500      0.0000         7  (web-shell)
                 2         1    0.080000      0.0000         8  (web-core)
                 3         1    0.001500      0.0000         7  (web-shell)

               lamina:  1     
              matName:  (web-shell)
                     s           e11           e22           e12           s11           s22           s12   s11_fcT   s11_fcC   s22_fcT   s22_fcC   s12_fcS
                   (m)         (m/m)         (m/m)         (rad)          (Pa)          (Pa)          (Pa)       (-)       (-)       (-)       (-)       (-)
                0.0000   2.3574e-004  -1.0369e-004   9.3066e-005   3.4326e+006   2.6457e+005   1.1168e+006    0.0238   -0.0000    0.0000   -0.0000    0.0124
                0.1302   2.3166e-004  -1.0189e-004   9.6255e-005   3.3732e+006   2.6015e+005   1.1551e+006    0.0234   -0.0000    0.0000   -0.0000    0.0128
                0.2604   2.2758e-004  -1.0009e-004   9.9391e-005   3.3139e+006   2.5573e+005   1.1927e+006    0.0230   -0.0000    0.0000   -0.0000    0.0133
                0.3905   2.2350e-004  -9.8284e-005   1.0248e-004   3.2546e+006   2.5132e+005   1.2297e+006    0.0226   -0.0000    0.0000   -0.0000    0.0137
                0.5207   2.1942e-004  -9.6480e-005   1.0551e-004   3.1953e+006   2.4690e+005   1.2661e+006    0.0222   -0.0000    0.0000   -0.0000    0.0141
                0.6509   2.1533e-004  -9.4677e-005   1.0849e-004   3.1359e+006   2.4249e+005   1.3018e+006    0.0218   -0.0000    0.0000   -0.0000    0.0145
                0.7811   2.1125e-004  -9.2873e-005   1.1141e-004   3.0766e+006   2.3807e+005   1.3370e+006    0.0214   -0.0000    0.0000   -0.0000    0.0149
                0.9113   2.0717e-004  -9.1070e-005   1.1429e-004   3.0173e+006   2.3366e+005   1.3715e+006    0.0210   -0.0000    0.0000   -0.0000    0.0152
                1.0414   2.0309e-004  -8.9266e-005   1.1711e-004   2.9579e+006   2.2924e+005   1.4053e+006    0.0205   -0.0000    0.0000   -0.0000    0.0156
                1.1716   1.9901e-004  -8.7463e-005   1.1988e-004   2.8986e+006   2.2483e+005   1.4386e+006    0.0201   -0.0000    0.0000   -0.0000    0.0160

               lamina:  2     
              matName:  (web-core)
                     s           e11           e22           e12           s11           s22           s12   s11_fcT   s11_fcC   s22_fcT   s22_fcC   s12_fcS
                   (m)         (m/m)         (m/m)         (rad)          (Pa)          (Pa)          (Pa)       (-)       (-)       (-)       (-)       (-)
                0.0000   2.6490e-004  -1.1760e-004   9.3066e-005   6.5605e+004  -1.0894e+004   1.8613e+003    0.0000   -0.0000    0.0000    0.0000    0.0000
                0.1302   2.6082e-004  -1.1580e-004   9.6255e-005   6.4594e+004  -1.0729e+004   1.9251e+003    0.0000   -0.0000    0.0000    0.0000    0.0000
                0.2604   2.5674e-004  -1.1399e-004   9.9391e-005   6.3583e+004  -1.0563e+004   1.9878e+003    0.0000   -0.0000    0.0000    0.0000    0.0000
                0.3905   2.5266e-004  -1.1219e-004   1.0248e-004   6.2571e+004  -1.0398e+004   2.0495e+003    0.0000   -0.0000    0.0000    0.0000    0.0000
                0.5207   2.4858e-004  -1.1039e-004   1.0551e-004   6.1560e+004  -1.0232e+004   2.1101e+003    0.0000   -0.0000    0.0000    0.0000    0.0000
                0.6509   2.4450e-004  -1.0858e-004   1.0849e-004   6.0549e+004  -1.0067e+004   2.1697e+003    0.0000   -0.0000    0.0000    0.0000    0.0000
                0.7811   2.4042e-004  -1.0678e-004   1.1141e-004   5.9538e+004  -9.9010e+003   2.2283e+003    0.0000   -0.0000    0.0000    0.0000    0.0000
                0.9113   2.3634e-004  -1.0497e-004   1.1429e-004   5.8527e+004  -9.7354e+003   2.2858e+003    0.0000   -0.0000    0.0000    0.0000    0.0000
                1.0414   2.3226e-004  -1.0317e-004   1.1711e-004   5.7516e+004  -9.5698e+003   2.3422e+003    0.0000   -0.0000    0.0000    0.0000    0.0000
                1.1716   2.2818e-004  -1.0137e-004   1.1988e-004   5.6504e+004  -9.4043e+003   2.3976e+003    0.0000   -0.0000    0.0000    0.0000    0.0000

               lamina:  3     
              matName:  (web-shell)
                     s           e11           e22           e12           s11           s22           s12   s11_fcT   s11_fcC   s22_fcT   s22_fcC   s12_fcS
                   (m)         (m/m)         (m/m)         (rad)          (Pa)          (Pa)          (Pa)       (-)       (-)       (-)       (-)       (-)
                0.0000   2.6544e-004  -1.1786e-004   9.3066e-005   3.8549e+006   2.7742e+005   1.1168e+006    0.0268   -0.0000    0.0000   -0.0000    0.0124
                0.1302   2.6136e-004  -1.1606e-004   9.6255e-005   3.7956e+006   2.7300e+005   1.1551e+006    0.0264   -0.0000    0.0000   -0.0000    0.0128
                0.2604   2.5728e-004  -1.1425e-004   9.9391e-005   3.7363e+006   2.6859e+005   1.1927e+006    0.0259   -0.0000    0.0000   -0.0000    0.0133
                0.3905   2.5320e-004  -1.1245e-004   1.0248e-004   3.6769e+006   2.6417e+005   1.2297e+006    0.0255   -0.0000    0.0000   -0.0000    0.0137
                0.5207   2.4912e-004  -1.1065e-004   1.0551e-004   3.6176e+006   2.5976e+005   1.2661e+006    0.0251   -0.0000    0.0000   -0.0000    0.0141
                0.6509   2.4504e-004  -1.0884e-004   1.0849e-004   3.5583e+006   2.5534e+005   1.3018e+006    0.0247   -0.0000    0.0000   -0.0000    0.0145
                0.7811   2.4096e-004  -1.0704e-004   1.1141e-004   3.4989e+006   2.5093e+005   1.3370e+006    0.0243   -0.0000    0.0000   -0.0000    0.0149
                0.9113   2.3688e-004  -1.0524e-004   1.1429e-004   3.4396e+006   2.4651e+005   1.3715e+006    0.0239   -0.0000    0.0000   -0.0000    0.0152
                1.0414   2.3280e-004  -1.0343e-004   1.1711e-004   3.3803e+006   2.4210e+005   1.4053e+006    0.0235   -0.0000    0.0000   -0.0000    0.0156
                1.1716   2.2872e-004  -1.0163e-004   1.1988e-004   3.3210e+006   2.3768e+005   1.4386e+006    0.0231   -0.0000    0.0000   -0.0000    0.0160

            panel:  2     
           lam_num    nPlies        tPly      fibAng     matID  matName
               (-)       (-)         (m)       (deg)       (-)  (-)
                 1         1    0.001500      0.0000         7  (web-shell)
                 2         1    0.080000      0.0000         8  (web-core)
                 3         1    0.001500      0.0000         7  (web-shell)

               lamina:  1     
              matName:  (web-shell)
                     s           e11           e22           e12           s11           s22           s12   s11_fcT   s11_fcC   s22_fcT   s22_fcC   s12_fcS
                   (m)         (m/m)         (m/m)         (rad)          (Pa)          (Pa)          (Pa)       (-)       (-)       (-)       (-)       (-)
                0.0000  -1.4580e-004   6.4975e-005   1.2632e-005  -2.1152e+006  -1.4795e+005   1.5159e+005    0.0000    0.0099    0.0000    0.0000    0.0017
                0.1243  -1.4982e-004   6.6749e-005   1.1005e-005  -2.1736e+006  -1.5230e+005   1.3206e+005    0.0000    0.0102    0.0000    0.0000    0.0015
                0.2487  -1.5383e-004   6.8524e-005   9.3284e-006  -2.2319e+006  -1.5664e+005   1.1194e+005    0.0000    0.0105    0.0000    0.0000    0.0012
                0.3730  -1.5784e-004   7.0298e-005   7.6025e-006  -2.2903e+006  -1.6099e+005   9.1230e+004    0.0000    0.0108    0.0000    0.0000    0.0010
                0.4973  -1.6186e-004   7.2073e-005   5.8274e-006  -2.3487e+006  -1.6533e+005   6.9928e+004    0.0000    0.0110    0.0000    0.0000    0.0008
                0.6217  -1.6587e-004   7.3847e-005   4.0030e-006  -2.4071e+006  -1.6968e+005   4.8036e+004    0.0000    0.0113    0.0000    0.0000    0.0005
                0.7460  -1.6989e-004   7.5622e-005   2.1294e-006  -2.4654e+006  -1.7402e+005   2.5552e+004    0.0000    0.0116    0.0000    0.0000    0.0003
                0.8704  -1.7390e-004   7.7396e-005   2.0648e-007  -2.5238e+006  -1.7836e+005   2.4777e+003    0.0000    0.0118    0.0000    0.0000    0.0000
                0.9947  -1.7792e-004   7.9171e-005   1.7656e-006  -2.5822e+006  -1.8271e+005   2.1188e+004    0.0000    0.0121    0.0000    0.0000    0.0002
                1.1190  -1.8193e-004   8.0945e-005   3.7870e-006  -2.6406e+006  -1.8705e+005   4.5444e+004    0.0000    0.0124    0.0000    0.0000    0.0005

               lamina:  2     
              matName:  (web-core)
                     s           e11           e22           e12           s11           s22           s12   s11_fcT   s11_fcC   s22_fcT   s22_fcC   s12_fcS
                   (m)         (m/m)         (m/m)         (rad)          (Pa)          (Pa)          (Pa)       (-)       (-)       (-)       (-)       (-)
                0.0000  -1.4525e-004   6.4714e-005   1.2632e-005  -3.5954e+004   6.0393e+003   2.5265e+002    0.0000    0.0000    0.0000   -0.0000    0.0000
                0.1243  -1.4927e-004   6.6488e-005   1.1005e-005  -3.6949e+004   6.2022e+003   2.2010e+002    0.0000    0.0000    0.0000   -0.0000    0.0000
                0.2487  -1.5328e-004   6.8263e-005   9.3284e-006  -3.7944e+004   6.3651e+003   1.8657e+002    0.0000    0.0000    0.0000   -0.0000    0.0000
                0.3730  -1.5730e-004   7.0037e-005   7.6025e-006  -3.8939e+004   6.5280e+003   1.5205e+002    0.0000    0.0000    0.0000   -0.0000    0.0000
                0.4973  -1.6131e-004   7.1812e-005   5.8274e-006  -3.9934e+004   6.6909e+003   1.1655e+002    0.0000    0.0000    0.0000   -0.0000    0.0000
                0.6217  -1.6533e-004   7.3586e-005   4.0030e-006  -4.0929e+004   6.8538e+003   8.0060e+001    0.0000    0.0000    0.0000   -0.0000    0.0000
                0.7460  -1.6934e-004   7.5361e-005   2.1294e-006  -4.1924e+004   7.0167e+003   4.2587e+001    0.0000    0.0000    0.0000   -0.0000    0.0000
                0.8704  -1.7336e-004   7.7135e-005   2.0648e-007  -4.2919e+004   7.1796e+003   4.1295e+000    0.0000    0.0000    0.0000   -0.0000    0.0000
                0.9947  -1.7737e-004   7.8910e-005   1.7656e-006  -4.3914e+004   7.3425e+003   3.5313e+001    0.0000    0.0000    0.0000   -0.0000    0.0000
                1.1190  -1.8138e-004   8.0684e-005   3.7870e-006  -4.4908e+004   7.5054e+003   7.5740e+001    0.0000    0.0000    0.0000   -0.0000    0.0000

               lamina:  3     
              matName:  (web-shell)
                     s           e11           e22           e12           s11           s22           s12   s11_fcT   s11_fcC   s22_fcT   s22_fcC   s12_fcS
                   (m)         (m/m)         (m/m)         (rad)          (Pa)          (Pa)          (Pa)       (-)       (-)       (-)       (-)       (-)
                0.0000  -1.1611e-004   5.0815e-005   1.2632e-005  -1.6930e+006  -1.3511e+005   1.5159e+005    0.0000    0.0079    0.0000    0.0000    0.0017
                0.1243  -1.2012e-004   5.2589e-005   1.1005e-005  -1.7514e+006  -1.3945e+005   1.3206e+005    0.0000    0.0082    0.0000    0.0000    0.0015
                0.2487  -1.2413e-004   5.4364e-005   9.3284e-006  -1.8098e+006  -1.4379e+005   1.1194e+005    0.0000    0.0085    0.0000    0.0000    0.0012
                0.3730  -1.2815e-004   5.6138e-005   7.6025e-006  -1.8682e+006  -1.4814e+005   9.1230e+004    0.0000    0.0088    0.0000    0.0000    0.0010
                0.4973  -1.3216e-004   5.7913e-005   5.8274e-006  -1.9265e+006  -1.5248e+005   6.9928e+004    0.0000    0.0090    0.0000    0.0000    0.0008
                0.6217  -1.3618e-004   5.9687e-005   4.0030e-006  -1.9849e+006  -1.5683e+005   4.8036e+004    0.0000    0.0093    0.0000    0.0000    0.0005
                0.7460  -1.4019e-004   6.1462e-005   2.1294e-006  -2.0433e+006  -1.6117e+005   2.5552e+004    0.0000    0.0096    0.0000    0.0000    0.0003
                0.8704  -1.4421e-004   6.3236e-005   2.0648e-007  -2.1016e+006  -1.6552e+005   2.4777e+003    0.0000    0.0099    0.0000    0.0000    0.0000
                0.9947  -1.4822e-004   6.5011e-005   1.7656e-006  -2.1600e+006  -1.6986e+005   2.1188e+004    0.0000    0.0101    0.0000    0.0000    0.0002
                1.1190  -1.5224e-004   6.6785e-005   3.7870e-006  -2.2184e+006  -1.7420e+005   4.5444e+004    0.0000    0.0104    0.0000    0.0000    0.0005

            panel:  3     
           lam_num    nPlies        tPly      fibAng     matID  matName
               (-)       (-)         (m)       (deg)       (-)  (-)
                 1         1    0.001500      0.0000         7  (web-shell)
                 2         1    0.080000      0.0000         8  (web-core)
                 3         1    0.001500      0.0000         7  (web-shell)

               lamina:  1     
              matName:  (web-shell)
                     s           e11           e22           e12           s11           s22           s12   s11_fcT   s11_fcC   s22_fcT   s22_fcC   s12_fcS
                   (m)         (m/m)         (m/m)         (rad)          (Pa)          (Pa)          (Pa)       (-)       (-)       (-)       (-)       (-)
                0.0000  -4.5297e-004   2.0075e-004   9.1458e-006  -6.5818e+006  -4.8035e+005   1.0975e+005    0.0000    0.0309    0.0000    0.0000    0.0012
                0.0670  -4.5512e-004   2.0170e-004   1.2047e-005  -6.6131e+006  -4.8268e+005   1.4456e+005    0.0000    0.0310    0.0000    0.0000    0.0016
                0.1340  -4.5727e-004   2.0265e-004   1.4962e-005  -6.6443e+006  -4.8500e+005   1.7955e+005    0.0000    0.0312    0.0000    0.0000    0.0020
                0.2010  -4.5942e-004   2.0360e-004   1.7892e-005  -6.6755e+006  -4.8733e+005   2.1470e+005    0.0000    0.0313    0.0000    0.0000    0.0024
                0.2680  -4.6157e-004   2.0455e-004   2.0835e-005  -6.7068e+006  -4.8965e+005   2.5003e+005    0.0000    0.0315    0.0000    0.0000    0.0028
                0.3350  -4.6372e-004   2.0550e-004   2.3793e-005  -6.7380e+006  -4.9198e+005   2.8552e+005    0.0000    0.0316    0.0000    0.0000    0.0032
                0.4020  -4.6586e-004   2.0645e-004   2.6765e-005  -6.7693e+006  -4.9430e+005   3.2119e+005    0.0000    0.0318    0.0000    0.0000    0.0036
                0.4690  -4.6801e-004   2.0740e-004   2.9752e-005  -6.8005e+006  -4.9663e+005   3.5702e+005    0.0000    0.0319    0.0000    0.0000    0.0040
                0.5360  -4.7016e-004   2.0835e-004   3.2752e-005  -6.8317e+006  -4.9895e+005   3.9303e+005    0.0000    0.0321    0.0000    0.0000    0.0044
                0.6030  -4.7231e-004   2.0930e-004   3.5767e-005  -6.8630e+006  -5.0128e+005   4.2920e+005    0.0000    0.0322    0.0000    0.0000    0.0048

               lamina:  2     
              matName:  (web-core)
                     s           e11           e22           e12           s11           s22           s12   s11_fcT   s11_fcC   s22_fcT   s22_fcC   s12_fcS
                   (m)         (m/m)         (m/m)         (rad)          (Pa)          (Pa)          (Pa)       (-)       (-)       (-)       (-)       (-)
                0.0000  -4.5243e-004   2.0049e-004   9.1458e-006  -1.1208e+005   1.8504e+004   1.8292e+002    0.0000    0.0000    0.0000   -0.0000    0.0000
                0.0670  -4.5458e-004   2.0144e-004   1.2047e-005  -1.1261e+005   1.8591e+004   2.4094e+002    0.0000    0.0000    0.0000   -0.0000    0.0000
                0.1340  -4.5672e-004   2.0239e-004   1.4962e-005  -1.1314e+005   1.8679e+004   2.9924e+002    0.0000    0.0000    0.0000   -0.0000    0.0000
                0.2010  -4.5887e-004   2.0334e-004   1.7892e-005  -1.1368e+005   1.8766e+004   3.5783e+002    0.0000    0.0000    0.0000   -0.0000    0.0000
                0.2680  -4.6102e-004   2.0429e-004   2.0835e-005  -1.1421e+005   1.8853e+004   4.1671e+002    0.0000    0.0000    0.0000   -0.0000    0.0000
                0.3350  -4.6317e-004   2.0524e-004   2.3793e-005  -1.1474e+005   1.8940e+004   4.7587e+002    0.0000    0.0000    0.0000   -0.0000    0.0000
                0.4020  -4.6532e-004   2.0619e-004   2.6765e-005  -1.1527e+005   1.9027e+004   5.3531e+002    0.0000    0.0000    0.0000   -0.0000    0.0000
                0.4690  -4.6747e-004   2.0714e-004   2.9752e-005  -1.1581e+005   1.9115e+004   5.9504e+002    0.0000    0.0000    0.0000   -0.0000    0.0000
                0.5360  -4.6961e-004   2.0809e-004   3.2752e-005  -1.1634e+005   1.9202e+004   6.5505e+002    0.0000    0.0000    0.0000   -0.0000    0.0000
                0.6030  -4.7176e-004   2.0904e-004   3.5767e-005  -1.1687e+005   1.9289e+004   7.1534e+002    0.0000    0.0000    0.0000   -0.0000    0.0000

               lamina:  3     
              matName:  (web-shell)
                     s           e11           e22           e12           s11           s22           s12   s11_fcT   s11_fcC   s22_fcT   s22_fcC   s12_fcS
                   (m)         (m/m)         (m/m)         (rad)          (Pa)          (Pa)          (Pa)       (-)       (-)       (-)       (-)       (-)
                0.0000  -4.2328e-004   1.8659e-004   9.1458e-006  -6.1596e+006  -4.6750e+005   1.0975e+005    0.0000    0.0289    0.0000    0.0000    0.0012
                0.0670  -4.2542e-004   1.8754e-004   1.2047e-005  -6.1908e+006  -4.6983e+005   1.4456e+005    0.0000    0.0291    0.0000    0.0000    0.0016
                0.1340  -4.2757e-004   1.8849e-004   1.4962e-005  -6.2221e+006  -4.7215e+005   1.7955e+005    0.0000    0.0292    0.0000    0.0000    0.0020
                0.2010  -4.2972e-004   1.8944e-004   1.7892e-005  -6.2533e+006  -4.7448e+005   2.1470e+005    0.0000    0.0294    0.0000    0.0000    0.0024
                0.2680  -4.3187e-004   1.9039e-004   2.0835e-005  -6.2846e+006  -4.7680e+005   2.5003e+005    0.0000    0.0295    0.0000    0.0000    0.0028
                0.3350  -4.3402e-004   1.9134e-004   2.3793e-005  -6.3158e+006  -4.7913e+005   2.8552e+005    0.0000    0.0297    0.0000    0.0000    0.0032
                0.4020  -4.3617e-004   1.9229e-004   2.6765e-005  -6.3470e+006  -4.8145e+005   3.2119e+005    0.0000    0.0298    0.0000    0.0000    0.0036
                0.4690  -4.3831e-004   1.9324e-004   2.9752e-005  -6.3783e+006  -4.8378e+005   3.5702e+005    0.0000    0.0299    0.0000    0.0000    0.0040
                0.5360  -4.4046e-004   1.9419e-004   3.2752e-005  -6.4095e+006  -4.8610e+005   3.9303e+005    0.0000    0.0301    0.0000    0.0000    0.0044
                0.6030  -4.4261e-004   1.9514e-004   3.5767e-005  -6.4408e+006  -4.8843e+005   4.2920e+005    0.0000    0.0302    0.0000    0.0000    0.0048

================================================================================
sec        =  24     
zSec       =  58.0000  (m)
nPanelsTop =  5      
nPanelsBot =  5      
nWebs      =  3      

    Top:  panel  nNode   nLam     xc_St    xc_End         b         t         E_eff         G_eff      nu_eff     density  buckleCrit
            (-)    (-)    (-)       (-)       (-)       (m)       (m)          (Pa)          (Pa)         (-)    (kg/m^3)         (-)
              1     11      3    0.0000    0.2482    1.5400    0.0700   4.2251e+009   1.0171e+009      0.3899    435.7143      0.0000
              2      8      5    0.2482    0.5018    1.3975    0.0947   4.0541e+010   3.4225e+009      0.2933   1912.5690      0.0000
              3      2      3    0.5018    0.5025    0.0035    0.0238   1.1920e+010   2.9535e+009      0.3975    893.4545      0.0000
              4      5      3    0.5025    0.6800    1.0021    0.0238   1.1920e+010   2.9535e+009      0.3975    893.4545      0.0897
              5     13      3    0.6800    1.0000    1.8293    0.0238   1.1920e+010   2.9535e+009      0.3975    893.4545      0.5780

            panel:  1     
           lam_num    nPlies        tPly      fibAng     matID  matName
               (-)       (-)         (m)       (deg)       (-)  (-)
                 1         1    0.005000      0.0000         2  (blade-shell)
                 2         1    0.060000      0.0000         5  (LEP-core)
                 3         1    0.005000      0.0000         2  (blade-shell)

               lamina:  1     
              matName:  (blade-shell)
                     s           e11           e22           e12           s11           s22           s12   s11_fcT   s11_fcC   s22_fcT   s22_fcC   s12_fcS
                   (m)         (m/m)         (m/m)         (rad)          (Pa)          (Pa)          (Pa)       (-)       (-)       (-)       (-)       (-)
                0.0000   5.0686e-004  -1.9768e-004   6.5341e-005   1.4223e+007   7.7083e+004   4.5739e+005    0.0988   -0.0000    0.0000   -0.0000    0.0076
                0.0646   5.0434e-004  -1.9669e-004   5.6507e-005   1.4152e+007   7.6744e+004   3.9555e+005    0.0983   -0.0000    0.0000   -0.0000    0.0066
                0.1367   4.9481e-004  -1.9297e-004   4.6750e-005   1.3885e+007   7.5428e+004   3.2725e+005    0.0964   -0.0000    0.0000   -0.0000    0.0055
                0.2311   4.7855e-004  -1.8662e-004   3.4278e-005   1.3429e+007   7.3058e+004   2.3995e+005    0.0933   -0.0000    0.0000   -0.0000    0.0040
                0.3525   4.5584e-004  -1.7776e-004   1.8841e-005   1.2791e+007   6.9653e+004   1.3189e+005    0.0888   -0.0000    0.0000   -0.0000    0.0022
                0.4994   4.2690e-004  -1.6647e-004   1.1828e-006   1.1979e+007   6.5270e+004   8.2795e+003    0.0832   -0.0000    0.0000   -0.0000    0.0001
                0.6697   3.9199e-004  -1.5286e-004   1.7823e-005   1.1000e+007   5.9957e+004   1.2476e+005    0.0764   -0.0000    0.0000   -0.0000    0.0021
                0.8620   3.5148e-004  -1.3706e-004   3.7313e-005   9.8629e+006   5.3774e+004   2.6119e+005    0.0685   -0.0000    0.0000   -0.0000    0.0044
                1.0742   3.0578e-004  -1.1924e-004   5.6334e-005   8.5806e+006   4.6790e+004   3.9434e+005    0.0596   -0.0000    0.0000   -0.0000    0.0066
                1.3040   2.5536e-004  -9.9574e-005   7.3917e-005   7.1656e+006   3.9077e+004   5.1742e+005    0.0498   -0.0000    0.0000   -0.0000    0.0086
                1.5400   2.0307e-004  -7.9188e-005   8.8669e-005   5.6984e+006   3.1048e+004   6.2068e+005    0.0396   -0.0000    0.0000   -0.0000    0.0103

               lamina:  2     
              matName:  (LEP-core)
                     s           e11           e22           e12           s11           s22           s12   s11_fcT   s11_fcC   s22_fcT   s22_fcC   s12_fcS
                   (m)         (m/m)         (m/m)         (rad)          (Pa)          (Pa)          (Pa)       (-)       (-)       (-)       (-)       (-)
                0.0000   5.0551e-004  -1.9714e-004   6.5341e-005   1.2753e+005  -1.2997e+004   1.3068e+003    0.0000   -0.0000    0.0000    0.0000    0.0000
                0.0646   5.0306e-004  -1.9618e-004   5.6507e-005   1.2692e+005  -1.2933e+004   1.1301e+003    0.0000   -0.0000    0.0000    0.0000    0.0000
                0.1367   4.9373e-004  -1.9254e-004   4.6750e-005   1.2456e+005  -1.2691e+004   9.3499e+002    0.0000   -0.0000    0.0000    0.0000    0.0000
                0.2311   4.7765e-004  -1.8626e-004   3.4278e-005   1.2051e+005  -1.2276e+004   6.8556e+002    0.0000   -0.0000    0.0000    0.0000    0.0000
                0.3525   4.5507e-004  -1.7745e-004   1.8841e-005   1.1481e+005  -1.1695e+004   3.7683e+002    0.0000   -0.0000    0.0000    0.0000    0.0000
                0.4994   4.2623e-004  -1.6620e-004   1.1828e-006   1.0753e+005  -1.0953e+004   2.3656e+001    0.0000   -0.0000    0.0000    0.0000    0.0000
                0.6697   3.9141e-004  -1.5262e-004   1.7823e-005   9.8749e+004  -1.0058e+004   3.5646e+002    0.0000   -0.0000    0.0000    0.0000    0.0000
                0.8620   3.5097e-004  -1.3686e-004   3.7313e-005   8.8547e+004  -9.0186e+003   7.4626e+002    0.0000   -0.0000    0.0000    0.0000    0.0000
                1.0742   3.0535e-004  -1.1907e-004   5.6334e-005   7.7038e+004  -7.8462e+003   1.1267e+003    0.0000   -0.0000    0.0000    0.0000    0.0000
                1.3040   2.5500e-004  -9.9433e-005   7.3917e-005   6.4334e+004  -6.5523e+003   1.4783e+003    0.0000   -0.0000    0.0000    0.0000    0.0000
                1.5400   2.0275e-004  -7.9062e-005   8.8669e-005   5.1152e+004  -5.2103e+003   1.7734e+003    0.0000   -0.0000    0.0000    0.0000    0.0000

               lamina:  3     
              matName:  (blade-shell)
                     s           e11           e22           e12           s11           s22           s12   s11_fcT   s11_fcC   s22_fcT   s22_fcC   s12_fcS
                   (m)         (m/m)         (m/m)         (rad)          (Pa)          (Pa)          (Pa)       (-)       (-)       (-)       (-)       (-)
                0.0000   4.8933e-004  -1.9072e-004   6.5341e-005   1.3732e+007   7.6258e+004   4.5739e+005    0.0954   -0.0000    0.0000   -0.0000    0.0076
                0.0646   4.8767e-004  -1.9008e-004   5.6507e-005   1.3685e+007   7.5959e+004   3.9555e+005    0.0950   -0.0000    0.0000   -0.0000    0.0066
                0.1367   4.8078e-004  -1.8740e-004   4.6750e-005   1.3492e+007   7.4768e+004   3.2725e+005    0.0937   -0.0000    0.0000   -0.0000    0.0055
                0.2311   4.6688e-004  -1.8199e-004   3.4278e-005   1.3102e+007   7.2509e+004   2.3995e+005    0.0910   -0.0000    0.0000   -0.0000    0.0040
                0.3525   4.4578e-004  -1.7377e-004   1.8841e-005   1.2510e+007   6.9179e+004   1.3189e+005    0.0869   -0.0000    0.0000   -0.0000    0.0022
                0.4994   4.1815e-004  -1.6300e-004   1.1828e-006   1.1734e+007   6.4858e+004   8.2795e+003    0.0815   -0.0000    0.0000   -0.0000    0.0001
                0.6697   3.8439e-004  -1.4984e-004   1.7823e-005   1.0787e+007   5.9599e+004   1.2476e+005    0.0749   -0.0000    0.0000   -0.0000    0.0021
                0.8620   3.4489e-004  -1.3444e-004   3.7313e-005   9.6784e+006   5.3463e+004   2.6119e+005    0.0672   -0.0000    0.0000   -0.0000    0.0044
                1.0742   3.0019e-004  -1.1702e-004   5.6334e-005   8.4240e+006   4.6527e+004   3.9434e+005    0.0585   -0.0000    0.0000   -0.0000    0.0066
                1.3040   2.5074e-004  -9.7741e-005   7.3917e-005   7.0362e+006   3.8860e+004   5.1742e+005    0.0489   -0.0000    0.0000   -0.0000    0.0086
                1.5400   1.9892e-004  -7.7539e-005   8.8669e-005   5.5820e+006   3.0852e+004   6.2068e+005    0.0388   -0.0000    0.0000   -0.0000    0.0103

            panel:  2     
           lam_num    nPlies        tPly      fibAng     matID  matName
               (-)       (-)         (m)       (deg)       (-)  (-)
                 1         1    0.005000      0.0000         2  (blade-shell)
                 2         1    0.042330      0.0000         3  (spar-uni)
                 3         1    0.000002      0.0000         4  (spar-core)
                 4         1    0.042330      0.0000         3  (spar-uni)
                 5         1    0.005000      0.0000         2  (blade-shell)

               lamina:  1     
              matName:  (blade-shell)
                     s           e11           e22           e12           s11           s22           s12   s11_fcT   s11_fcC   s22_fcT   s22_fcC   s12_fcS
                   (m)         (m/m)         (m/m)         (rad)          (Pa)          (Pa)          (Pa)       (-)       (-)       (-)       (-)       (-)
                0.0000   2.0822e-004  -6.1256e-005   1.1930e-005   5.9641e+006   3.3524e+005   8.3512e+004    0.0414   -0.0000    0.0000   -0.0000    0.0014
                0.0080   2.0478e-004  -6.0210e-005   1.3175e-005   5.8659e+006   3.3023e+005   9.2228e+004    0.0407   -0.0000    0.0000   -0.0000    0.0015
                0.2671   1.4589e-004  -4.2912e-005   4.7696e-005   4.1790e+006   2.3503e+005   3.3387e+005    0.0290   -0.0000    0.0000   -0.0000    0.0056
                0.5359   8.3355e-005  -2.4522e-005   7.1017e-005   2.3876e+006   1.3422e+005   4.9712e+005    0.0166   -0.0000    0.0000   -0.0000    0.0083
                0.8137   1.8456e-005  -5.4392e-006   8.1654e-005   5.2859e+005   2.9570e+004   5.7158e+005    0.0037   -0.0000    0.0000   -0.0000    0.0095
                1.0984  -4.8048e-005   1.4112e-005   7.8310e-005  -1.3764e+006  -7.7718e+004   5.4817e+005    0.0000    0.0065    0.0000    0.0000    0.0091
                1.3890  -1.1482e-004   3.3719e-005   6.0014e-005  -3.2892e+006  -1.8577e+005   4.2010e+005    0.0000    0.0154    0.0000    0.0000    0.0070
                1.3975  -1.1806e-004   3.4699e-005   5.9256e-005  -3.3819e+006  -1.9058e+005   4.1479e+005    0.0000    0.0159    0.0000    0.0000    0.0069

               lamina:  2     
              matName:  (spar-uni)
                     s           e11           e22           e12           s11           s22           s12   s11_fcT   s11_fcC   s22_fcT   s22_fcC   s12_fcS
                   (m)         (m/m)         (m/m)         (rad)          (Pa)          (Pa)          (Pa)       (-)       (-)       (-)       (-)       (-)
                0.0000   2.0737e-004  -6.0988e-005   1.1930e-005   8.6976e+006  -4.2054e+004   3.5791e+004    0.0089   -0.0000    0.0000    0.0000    0.0012
                0.0080   2.0411e-004  -5.9998e-005   1.3175e-005   8.5610e+006  -4.0946e+004   3.9526e+004    0.0088   -0.0000    0.0000    0.0000    0.0013
                0.2671   1.4534e-004  -4.2738e-005   4.7696e-005   6.0960e+006  -2.9361e+004   1.4309e+005    0.0063   -0.0000    0.0000    0.0000    0.0048
                0.5359   8.3018e-005  -2.4416e-005   7.1017e-005   3.4820e+006  -1.6829e+004   2.1305e+005    0.0036   -0.0000    0.0000    0.0000    0.0071
                0.8137   1.8335e-005  -5.4011e-006   8.1654e-005   7.6900e+005  -3.8420e+003   2.4496e+005    0.0008   -0.0000    0.0000    0.0000    0.0082
                1.0984  -4.7963e-005   1.4085e-005   7.8310e-005  -2.0118e+006   9.4239e+003   2.3493e+005    0.0000    0.0029    0.0000   -0.0000    0.0078
                1.3890  -1.1463e-004   3.3661e-005   6.0014e-005  -4.8083e+006   2.2479e+004   1.8004e+005    0.0000    0.0068    0.0000   -0.0000    0.0060
                1.3975  -1.1773e-004   3.4597e-005   5.9256e-005  -4.9382e+006   2.3453e+004   1.7777e+005    0.0000    0.0070    0.0000   -0.0000    0.0059

               lamina:  3     
              matName:  (spar-core)
                     s           e11           e22           e12           s11           s22           s12   s11_fcT   s11_fcC   s22_fcT   s22_fcC   s12_fcS
                   (m)         (m/m)         (m/m)         (rad)          (Pa)          (Pa)          (Pa)       (-)       (-)       (-)       (-)       (-)
                0.0000   2.0018e-004  -5.8720e-005   1.1930e-005   5.2161e+004   3.8110e+002   2.3860e+002    0.0000   -0.0000    0.0000   -0.0000    0.0000
                0.0080   1.9843e-004  -5.8206e-005   1.3175e-005   5.1705e+004   3.7777e+002   2.6351e+002    0.0000   -0.0000    0.0000   -0.0000    0.0000
                0.2671   1.4066e-004  -4.1260e-005   4.7696e-005   3.6651e+004   2.6779e+002   9.5392e+002    0.0000   -0.0000    0.0000   -0.0000    0.0000
                0.5359   8.0163e-005  -2.3515e-005   7.1017e-005   2.0888e+004   1.5262e+002   1.4203e+003    0.0000   -0.0000    0.0000   -0.0000    0.0000
                0.8137   1.7312e-005  -5.0783e-006   8.1654e-005   4.5111e+003   3.2960e+001   1.6331e+003    0.0000   -0.0000    0.0000   -0.0000    0.0000
                1.0984  -4.7249e-005   1.3860e-005   7.8310e-005  -1.2312e+004  -8.9953e+001   1.5662e+003    0.0000    0.0000    0.0000    0.0000    0.0000
                1.3890  -1.1306e-004   3.3166e-005   6.0014e-005  -2.9461e+004  -2.1525e+002   1.2003e+003    0.0000    0.0000    0.0000    0.0000    0.0000
                1.3975  -1.1497e-004   3.3726e-005   5.9256e-005  -2.9959e+004  -2.1889e+002   1.1851e+003    0.0000    0.0000    0.0000    0.0000    0.0000

               lamina:  4     
              matName:  (spar-uni)
                     s           e11           e22           e12           s11           s22           s12   s11_fcT   s11_fcC   s22_fcT   s22_fcC   s12_fcS
                   (m)         (m/m)         (m/m)         (rad)          (Pa)          (Pa)          (Pa)       (-)       (-)       (-)       (-)       (-)
                0.0000   2.0018e-004  -5.8720e-005   1.1930e-005   8.3967e+006  -3.8379e+004   3.5791e+004    0.0086   -0.0000    0.0000    0.0000    0.0012
                0.0080   1.9843e-004  -5.8206e-005   1.3175e-005   8.3233e+006  -3.8043e+004   3.9526e+004    0.0086   -0.0000    0.0000    0.0000    0.0013
                0.2671   1.4066e-004  -4.1260e-005   4.7696e-005   5.9000e+006  -2.6967e+004   1.4309e+005    0.0061   -0.0000    0.0000    0.0000    0.0048
                0.5359   8.0163e-005  -2.3515e-005   7.1017e-005   3.3625e+006  -1.5369e+004   2.1305e+005    0.0035   -0.0000    0.0000    0.0000    0.0071
                0.8137   1.7312e-005  -5.0783e-006   8.1654e-005   7.2619e+005  -3.3192e+003   2.4496e+005    0.0007   -0.0000    0.0000    0.0000    0.0082
                1.0984  -4.7249e-005   1.3860e-005   7.8310e-005  -1.9819e+006   9.0587e+003   2.3493e+005    0.0000    0.0028    0.0000   -0.0000    0.0078
                1.3890  -1.1306e-004   3.3166e-005   6.0014e-005  -4.7426e+006   2.1677e+004   1.8004e+005    0.0000    0.0068    0.0000   -0.0000    0.0060
                1.3975  -1.1497e-004   3.3726e-005   5.9256e-005  -4.8227e+006   2.2043e+004   1.7777e+005    0.0000    0.0069    0.0000   -0.0000    0.0059

               lamina:  5     
              matName:  (blade-shell)
                     s           e11           e22           e12           s11           s22           s12   s11_fcT   s11_fcC   s22_fcT   s22_fcC   s12_fcS
                   (m)         (m/m)         (m/m)         (rad)          (Pa)          (Pa)          (Pa)       (-)       (-)       (-)       (-)       (-)
                0.0000   1.9299e-004  -5.6451e-005   1.1930e-005   5.5300e+006   3.1568e+005   8.3512e+004    0.0384   -0.0000    0.0000   -0.0000    0.0014
                0.0080   1.9275e-004  -5.6415e-005   1.3175e-005   5.5229e+006   3.1478e+005   9.2228e+004    0.0384   -0.0000    0.0000   -0.0000    0.0015
                0.2671   1.3597e-004  -3.9782e-005   4.7696e-005   3.8962e+006   2.2229e+005   3.3387e+005    0.0271   -0.0000    0.0000   -0.0000    0.0056
                0.5359   7.7308e-005  -2.2614e-005   7.1017e-005   2.2152e+006   1.2645e+005   4.9712e+005    0.0154   -0.0000    0.0000   -0.0000    0.0083
                0.8137   1.6289e-005  -4.7556e-006   8.1654e-005   4.6682e+005   2.6786e+004   5.7158e+005    0.0032   -0.0000    0.0000   -0.0000    0.0095
                1.0984  -4.6534e-005   1.3634e-005   7.8310e-005  -1.3333e+006  -7.5774e+004   5.4817e+005    0.0000    0.0063    0.0000    0.0000    0.0091
                1.3890  -1.1150e-004   3.2671e-005   6.0014e-005  -3.1945e+006  -1.8150e+005   4.2010e+005    0.0000    0.0150    0.0000    0.0000    0.0070
                1.3975  -1.1222e-004   3.2856e-005   5.9256e-005  -3.2153e+006  -1.8307e+005   4.1479e+005    0.0000    0.0151    0.0000    0.0000    0.0069

            panel:  3     
           lam_num    nPlies        tPly      fibAng     matID  matName
               (-)       (-)         (m)       (deg)       (-)  (-)
                 1         1    0.005000      0.0000         2  (blade-shell)
                 2         1    0.013794      0.0000         6  (TEP-core)
                 3         1    0.005000      0.0000         2  (blade-shell)

               lamina:  1     
              matName:  (blade-shell)
                     s           e11           e22           e12           s11           s22           s12   s11_fcT   s11_fcC   s22_fcT   s22_fcC   s12_fcS
                   (m)         (m/m)         (m/m)         (rad)          (Pa)          (Pa)          (Pa)       (-)       (-)       (-)       (-)       (-)
                0.0000  -1.1608e-004   4.6140e-005   2.7318e-004  -3.2520e+006  -4.4473e+003   1.9123e+006    0.0000    0.0153    0.0000    0.0000    0.0319
                0.0035  -1.1687e-004   4.6454e-005   2.7307e-004  -3.2742e+006  -4.4777e+003   1.9115e+006    0.0000    0.0154    0.0000    0.0000    0.0319

               lamina:  2     
              matName:  (TEP-core)
                     s           e11           e22           e12           s11           s22           s12   s11_fcT   s11_fcC   s22_fcT   s22_fcC   s12_fcS
                   (m)         (m/m)         (m/m)         (rad)          (Pa)          (Pa)          (Pa)       (-)       (-)       (-)       (-)       (-)
                0.0000  -1.1592e-004   4.6075e-005   2.7318e-004  -2.9170e+004   3.2285e+003   5.4636e+003    0.0000    0.0000    0.0000   -0.0000    0.0000
                0.0035  -1.1671e-004   4.6390e-005   2.7307e-004  -2.9370e+004   3.2505e+003   5.4614e+003    0.0000    0.0000    0.0000   -0.0000    0.0000

               lamina:  3     
              matName:  (blade-shell)
                     s           e11           e22           e12           s11           s22           s12   s11_fcT   s11_fcC   s22_fcT   s22_fcC   s12_fcS
                   (m)         (m/m)         (m/m)         (rad)          (Pa)          (Pa)          (Pa)       (-)       (-)       (-)       (-)       (-)
                0.0000  -1.1547e-004   4.5898e-005   2.7318e-004  -3.2350e+006  -4.4431e+003   1.9123e+006    0.0000    0.0152    0.0000    0.0000    0.0319
                0.0035  -1.1627e-004   4.6212e-005   2.7307e-004  -3.2572e+006  -4.4735e+003   1.9115e+006    0.0000    0.0153    0.0000    0.0000    0.0319

            panel:  4     
           lam_num    nPlies        tPly      fibAng     matID  matName
               (-)       (-)         (m)       (deg)       (-)  (-)
                 1         1    0.005000      0.0000         2  (blade-shell)
                 2         1    0.013794      0.0000         6  (TEP-core)
                 3         1    0.005000      0.0000         2  (blade-shell)

               lamina:  1     
              matName:  (blade-shell)
                     s           e11           e22           e12           s11           s22           s12   s11_fcT   s11_fcC   s22_fcT   s22_fcC   s12_fcS
                   (m)         (m/m)         (m/m)         (rad)          (Pa)          (Pa)          (Pa)       (-)       (-)       (-)       (-)       (-)
                0.0000  -1.1687e-004   4.6454e-005   2.8820e-004  -3.2742e+006  -4.4777e+003   2.0174e+006    0.0000    0.0154    0.0000    0.0000    0.0336
                0.2795  -1.8006e-004   7.1571e-005   2.8809e-004  -5.0445e+006  -6.9031e+003   2.0166e+006    0.0000    0.0237    0.0000    0.0000    0.0336
                0.5710  -2.4579e-004   9.7696e-005   2.8809e-004  -6.8859e+006  -9.4248e+003   2.0166e+006    0.0000    0.0323    0.0000    0.0000    0.0336
                0.8573  -3.1013e-004   1.2327e-004   2.7702e-004  -8.6885e+006  -1.1895e+004   1.9391e+006    0.0000    0.0408    0.0000    0.0000    0.0323
                1.0021  -3.4261e-004   1.3618e-004   2.6044e-004  -9.5984e+006  -1.3141e+004   1.8231e+006    0.0000    0.0451    0.0000    0.0000    0.0304

               lamina:  2     
              matName:  (TEP-core)
                     s           e11           e22           e12           s11           s22           s12   s11_fcT   s11_fcC   s22_fcT   s22_fcC   s12_fcS
                   (m)         (m/m)         (m/m)         (rad)          (Pa)          (Pa)          (Pa)       (-)       (-)       (-)       (-)       (-)
                0.0000  -1.1671e-004   4.6390e-005   2.8820e-004  -2.9370e+004   3.2505e+003   5.7640e+003    0.0000    0.0000    0.0000   -0.0000    0.0000
                0.2795  -1.7987e-004   7.1496e-005   2.8809e-004  -4.5264e+004   5.0096e+003   5.7618e+003    0.0000    0.0000    0.0000   -0.0000    0.0000
                0.5710  -2.4555e-004   9.7603e-005   2.8809e-004  -6.1793e+004   6.8389e+003   5.7618e+003    0.0000    0.0000    0.0000   -0.0000    0.0000
                0.8573  -3.0987e-004   1.2317e-004   2.7702e-004  -7.7978e+004   8.6302e+003   5.5403e+003    0.0000    0.0000    0.0000   -0.0000    0.0000
                1.0021  -3.4234e-004   1.3607e-004   2.6044e-004  -8.6147e+004   9.5343e+003   5.2089e+003    0.0000    0.0000    0.0000   -0.0000    0.0000

               lamina:  3     
              matName:  (blade-shell)
                     s           e11           e22           e12           s11           s22           s12   s11_fcT   s11_fcC   s22_fcT   s22_fcC   s12_fcS
                   (m)         (m/m)         (m/m)         (rad)          (Pa)          (Pa)          (Pa)       (-)       (-)       (-)       (-)       (-)
                0.0000  -1.1627e-004   4.6212e-005   2.8820e-004  -3.2572e+006  -4.4735e+003   2.0174e+006    0.0000    0.0153    0.0000    0.0000    0.0336
                0.2795  -1.7935e-004   7.1287e-005   2.8809e-004  -5.0246e+006  -6.8982e+003   2.0166e+006    0.0000    0.0236    0.0000    0.0000    0.0336
                0.5710  -2.4491e-004   9.7345e-005   2.8809e-004  -6.8613e+006  -9.4187e+003   2.0166e+006    0.0000    0.0322    0.0000    0.0000    0.0336
                0.8573  -3.0916e-004   1.2288e-004   2.7702e-004  -8.6612e+006  -1.1888e+004   1.9391e+006    0.0000    0.0407    0.0000    0.0000    0.0323
                1.0021  -3.4157e-004   1.3577e-004   2.6044e-004  -9.5693e+006  -1.3134e+004   1.8231e+006    0.0000    0.0449    0.0000    0.0000    0.0304

            panel:  5     
           lam_num    nPlies        tPly      fibAng     matID  matName
               (-)       (-)         (m)       (deg)       (-)  (-)
                 1         1    0.005000      0.0000         2  (blade-shell)
                 2         1    0.013794      0.0000         6  (TEP-core)
                 3         1    0.005000      0.0000         2  (blade-shell)

               lamina:  1     
              matName:  (blade-shell)
                     s           e11           e22           e12           s11           s22           s12   s11_fcT   s11_fcC   s22_fcT   s22_fcC   s12_fcS
                   (m)         (m/m)         (m/m)         (rad)          (Pa)          (Pa)          (Pa)       (-)       (-)       (-)       (-)       (-)
                0.0000  -3.4261e-004   1.3618e-004   2.3919e-004  -9.5984e+006  -1.3141e+004   1.6743e+006    0.0000    0.0451    0.0000    0.0000    0.0279
                0.1328  -3.7238e-004   1.4801e-004   2.2657e-004  -1.0432e+007  -1.4284e+004   1.5860e+006    0.0000    0.0490    0.0000    0.0000    0.0264
                0.3983  -4.3181e-004   1.7164e-004   2.4524e-004  -1.2097e+007  -1.6566e+004   1.7167e+006    0.0000    0.0568    0.0000    0.0000    0.0286
                0.6485  -4.8777e-004   1.9388e-004   2.3256e-004  -1.3665e+007  -1.8715e+004   1.6279e+006    0.0000    0.0642    0.0000    0.0000    0.0271
                0.8808  -5.3966e-004   2.1450e-004   2.0403e-004  -1.5119e+007  -2.0708e+004   1.4282e+006    0.0000    0.0710    0.0000    0.0000    0.0238
                1.0925  -5.8688e-004   2.3327e-004   1.7329e-004  -1.6442e+007  -2.2521e+004   1.2130e+006    0.0000    0.0772    0.0000    0.0000    0.0202
                1.2809  -6.2890e-004   2.4998e-004   1.4139e-004  -1.7619e+007  -2.4135e+004   9.8971e+005    0.0000    0.0827    0.0000    0.0000    0.0165
                1.4441  -6.6529e-004   2.6444e-004   1.0953e-004  -1.8638e+007  -2.5533e+004   7.6669e+005    0.0000    0.0875    0.0000    0.0000    0.0128
                1.5803  -6.9563e-004   2.7650e-004   7.8907e-005  -1.9488e+007  -2.6697e+004   5.5235e+005    0.0000    0.0915    0.0000    0.0000    0.0092
                1.6880  -7.1961e-004   2.8603e-004   5.0680e-005  -2.0160e+007  -2.7617e+004   3.5476e+005    0.0000    0.0946    0.0000    0.0000    0.0059
                1.7661  -7.3693e-004   2.9291e-004   2.5900e-005  -2.0645e+007  -2.8282e+004   1.8130e+005    0.0000    0.0969    0.0000    0.0000    0.0030
                1.8111  -7.4766e-004   2.9718e-004   5.5275e-006  -2.0946e+007  -2.8671e+004   3.8692e+004    0.0000    0.0983    0.0000    0.0000    0.0006
                1.8293  -7.5183e-004   2.9884e-004   9.6677e-006  -2.1063e+007  -2.8789e+004   6.7674e+004    0.0000    0.0989    0.0000    0.0000    0.0011

               lamina:  2     
              matName:  (TEP-core)
                     s           e11           e22           e12           s11           s22           s12   s11_fcT   s11_fcC   s22_fcT   s22_fcC   s12_fcS
                   (m)         (m/m)         (m/m)         (rad)          (Pa)          (Pa)          (Pa)       (-)       (-)       (-)       (-)       (-)
                0.0000  -3.4234e-004   1.3607e-004   2.3919e-004  -8.6147e+004   9.5343e+003   4.7838e+003    0.0000    0.0000    0.0000   -0.0000    0.0000
                0.1328  -3.7210e-004   1.4790e-004   2.2657e-004  -9.3636e+004   1.0363e+004   4.5313e+003    0.0000    0.0000    0.0000   -0.0000    0.0000
                0.3983  -4.3152e-004   1.7152e-004   2.4524e-004  -1.0859e+005   1.2018e+004   4.9048e+003    0.0000    0.0000    0.0000   -0.0000    0.0000
                0.6485  -4.8747e-004   1.9376e-004   2.3256e-004  -1.2267e+005   1.3576e+004   4.6512e+003    0.0000    0.0000    0.0000   -0.0000    0.0000
                0.8808  -5.3934e-004   2.1438e-004   2.0403e-004  -1.3572e+005   1.5021e+004   4.0807e+003    0.0000    0.0000    0.0000   -0.0000    0.0000
                1.0925  -5.8655e-004   2.3314e-004   1.7329e-004  -1.4760e+005   1.6336e+004   3.4658e+003    0.0000    0.0000    0.0000   -0.0000    0.0000
                1.2809  -6.2857e-004   2.4984e-004   1.4139e-004  -1.5818e+005   1.7506e+004   2.8277e+003    0.0000    0.0000    0.0000   -0.0000    0.0000
                1.4441  -6.6495e-004   2.6430e-004   1.0953e-004  -1.6733e+005   1.8519e+004   2.1905e+003    0.0000    0.0000    0.0000   -0.0000    0.0000
                1.5803  -6.9528e-004   2.7636e-004   7.8907e-005  -1.7496e+005   1.9364e+004   1.5781e+003    0.0000    0.0000    0.0000   -0.0000    0.0000
                1.6880  -7.1924e-004   2.8588e-004   5.0680e-005  -1.8099e+005   2.0031e+004   1.0136e+003    0.0000    0.0000    0.0000   -0.0000    0.0000
                1.7661  -7.3655e-004   2.9276e-004   2.5900e-005  -1.8535e+005   2.0513e+004   5.1800e+002    0.0000    0.0000    0.0000   -0.0000    0.0000
                1.8111  -7.4698e-004   2.9691e-004   5.5275e-006  -1.8797e+005   2.0804e+004   1.1055e+002    0.0000    0.0000    0.0000   -0.0000    0.0000
                1.8293  -7.5059e-004   2.9834e-004   9.6677e-006  -1.8888e+005   2.0905e+004   1.9335e+002    0.0000    0.0000    0.0000   -0.0000    0.0000

               lamina:  3     
              matName:  (blade-shell)
                     s           e11           e22           e12           s11           s22           s12   s11_fcT   s11_fcC   s22_fcT   s22_fcC   s12_fcS
                   (m)         (m/m)         (m/m)         (rad)          (Pa)          (Pa)          (Pa)       (-)       (-)       (-)       (-)       (-)
                0.0000  -3.4157e-004   1.3577e-004   2.3919e-004  -9.5693e+006  -1.3134e+004   1.6743e+006    0.0000    0.0449    0.0000    0.0000    0.0279
                0.1328  -3.7131e-004   1.4758e-004   2.2657e-004  -1.0402e+007  -1.4277e+004   1.5860e+006    0.0000    0.0488    0.0000    0.0000    0.0264
                0.3983  -4.3070e-004   1.7119e-004   2.4524e-004  -1.2066e+007  -1.6559e+004   1.7167e+006    0.0000    0.0566    0.0000    0.0000    0.0286
                0.6485  -4.8661e-004   1.9342e-004   2.3256e-004  -1.3633e+007  -1.8707e+004   1.6279e+006    0.0000    0.0640    0.0000    0.0000    0.0271
                0.8808  -5.3846e-004   2.1402e-004   2.0403e-004  -1.5085e+007  -2.0699e+004   1.4282e+006    0.0000    0.0708    0.0000    0.0000    0.0238
                1.0925  -5.8566e-004   2.3278e-004   1.7329e-004  -1.6407e+007  -2.2513e+004   1.2130e+006    0.0000    0.0770    0.0000    0.0000    0.0202
                1.2809  -6.2767e-004   2.4948e-004   1.4139e-004  -1.7584e+007  -2.4127e+004   9.8971e+005    0.0000    0.0826    0.0000    0.0000    0.0165
                1.4441  -6.6402e-004   2.6393e-004   1.0953e-004  -1.8603e+007  -2.5524e+004   7.6669e+005    0.0000    0.0873    0.0000    0.0000    0.0128
                1.5803  -6.9432e-004   2.7597e-004   7.8907e-005  -1.9452e+007  -2.6688e+004   5.5235e+005    0.0000    0.0913    0.0000    0.0000    0.0092
                1.6880  -7.1823e-004   2.8548e-004   5.0680e-005  -2.0121e+007  -2.7608e+004   3.5476e+005    0.0000    0.0945    0.0000    0.0000    0.0059
                1.7661  -7.3552e-004   2.9235e-004   2.5900e-005  -2.0606e+007  -2.8272e+004   1.8130e+005    0.0000    0.0967    0.0000    0.0000    0.0030
                1.8111  -7.4511e-004   2.9616e-004   5.5275e-006  -2.0875e+007  -2.8654e+004   3.8692e+004    0.0000    0.0980    0.0000    0.0000    0.0006
                1.8293  -7.4716e-004   2.9697e-004   9.6677e-006  -2.0932e+007  -2.8757e+004   6.7674e+004    0.0000    0.0983    0.0000    0.0000    0.0011

  Bottom:  panel  nNode   nLam     xc_St    xc_End         b         t         E_eff         G_eff      nu_eff     density  buckleCrit
            (-)    (-)    (-)       (-)       (-)       (m)       (m)          (Pa)          (Pa)         (-)    (kg/m^3)         (-)
              1     11      3    0.0000    0.2482    1.4732    0.0700   4.2251e+009   1.0171e+009      0.3899    435.7143      0.0001
              2      8      5    0.2482    0.5018    1.4018    0.0947   4.0541e+010   3.4225e+009      0.2933   1912.5690      0.0000
              3      2      3    0.5018    0.5025    0.0035    0.0238   1.1920e+010   2.9535e+009      0.3975    893.4545      0.0000
              4      5      3    0.5025    0.6800    1.0114    0.0238   1.1920e+010   2.9535e+009      0.3975    893.4545      0.1054
              5     13      3    0.6800    1.0000    1.7933    0.0238   1.1920e+010   2.9535e+009      0.3975    893.4545      0.1556

            panel:  1     
           lam_num    nPlies        tPly      fibAng     matID  matName
               (-)       (-)         (m)       (deg)       (-)  (-)
                 1         1    0.005000      0.0000         2  (blade-shell)
                 2         1    0.060000      0.0000         5  (LEP-core)
                 3         1    0.005000      0.0000         2  (blade-shell)

               lamina:  1     
              matName:  (blade-shell)
                     s           e11           e22           e12           s11           s22           s12   s11_fcT   s11_fcC   s22_fcT   s22_fcC   s12_fcS
                   (m)         (m/m)         (m/m)         (rad)          (Pa)          (Pa)          (Pa)       (-)       (-)       (-)       (-)       (-)
                0.0000   5.0680e-004  -1.9765e-004   6.5341e-005   1.4221e+007   7.7115e+004   4.5739e+005    0.0988   -0.0000    0.0000   -0.0000    0.0076
                0.0508   5.0240e-004  -1.9593e-004   7.2288e-005   1.4098e+007   7.6533e+004   5.0601e+005    0.0979   -0.0000    0.0000   -0.0000    0.0084
                0.1138   4.9095e-004  -1.9145e-004   8.0783e-005   1.3777e+007   7.4978e+004   5.6548e+005    0.0957   -0.0000    0.0000   -0.0000    0.0094
                0.2023   4.7284e-004  -1.8438e-004   9.2395e-005   1.3268e+007   7.2352e+004   6.4676e+005    0.0921   -0.0000    0.0000   -0.0000    0.0108
                0.3167   4.4828e-004  -1.7480e-004   1.0678e-004   1.2579e+007   6.8685e+004   7.4746e+005    0.0874   -0.0000    0.0000   -0.0000    0.0125
                0.4565   4.1750e-004  -1.6279e-004   1.2333e-004   1.1716e+007   6.4033e+004   8.6332e+005    0.0814   -0.0000    0.0000   -0.0000    0.0144
                0.6202   3.8085e-004  -1.4850e-004   1.4123e-004   1.0687e+007   5.8459e+004   9.8858e+005    0.0742   -0.0000    0.0000   -0.0000    0.0165
                0.8068   3.3872e-004  -1.3207e-004   1.5963e-004   9.5051e+006   5.2028e+004   1.1174e+006    0.0660   -0.0000    0.0000   -0.0000    0.0186
                1.0140   2.9158e-004  -1.1369e-004   1.7755e-004   8.1821e+006   4.4823e+004   1.2429e+006    0.0568   -0.0000    0.0000   -0.0000    0.0207
                1.2399   2.3997e-004  -9.3560e-005   1.9405e-004   6.7338e+006   3.6926e+004   1.3584e+006    0.0468   -0.0000    0.0000   -0.0000    0.0226
                1.4732   1.8683e-004  -7.2840e-005   2.0774e-004   5.2426e+006   2.8766e+004   1.4542e+006    0.0364   -0.0000    0.0000   -0.0000    0.0242

               lamina:  2     
              matName:  (LEP-core)
                     s           e11           e22           e12           s11           s22           s12   s11_fcT   s11_fcC   s22_fcT   s22_fcC   s12_fcS
                   (m)         (m/m)         (m/m)         (rad)          (Pa)          (Pa)          (Pa)       (-)       (-)       (-)       (-)       (-)
                0.0000   5.0550e-004  -1.9714e-004   6.5341e-005   1.2753e+005  -1.2996e+004   1.3068e+003    0.0000   -0.0000    0.0000    0.0000    0.0000
                0.0508   5.0123e-004  -1.9547e-004   7.2288e-005   1.2645e+005  -1.2885e+004   1.4458e+003    0.0000   -0.0000    0.0000    0.0000    0.0000
                0.1138   4.9006e-004  -1.9110e-004   8.0783e-005   1.2364e+005  -1.2595e+004   1.6157e+003    0.0000   -0.0000    0.0000    0.0000    0.0000
                0.2023   4.7217e-004  -1.8412e-004   9.2395e-005   1.1913e+005  -1.2133e+004   1.8479e+003    0.0000   -0.0000    0.0000    0.0000    0.0000
                0.3167   4.4777e-004  -1.7460e-004   1.0678e-004   1.1297e+005  -1.1504e+004   2.1356e+003    0.0000   -0.0000    0.0000    0.0000    0.0000
                0.4565   4.1711e-004  -1.6264e-004   1.2333e-004   1.0523e+005  -1.0716e+004   2.4666e+003    0.0000   -0.0000    0.0000    0.0000    0.0000
                0.6202   3.8056e-004  -1.4838e-004   1.4123e-004   9.6013e+004  -9.7758e+003   2.8245e+003    0.0000   -0.0000    0.0000    0.0000    0.0000
                0.8068   3.3851e-004  -1.3199e-004   1.5963e-004   8.5404e+004  -8.6951e+003   3.1925e+003    0.0000   -0.0000    0.0000    0.0000    0.0000
                1.0140   2.9144e-004  -1.1363e-004   1.7755e-004   7.3530e+004  -7.4855e+003   3.5511e+003    0.0000   -0.0000    0.0000    0.0000    0.0000
                1.2399   2.3991e-004  -9.3536e-005   1.9405e-004   6.0527e+004  -6.1612e+003   3.8810e+003    0.0000   -0.0000    0.0000    0.0000    0.0000
                1.4732   1.8680e-004  -7.2830e-005   2.0774e-004   4.7129e+004  -4.7971e+003   4.1549e+003    0.0000   -0.0000    0.0000    0.0000    0.0000

               lamina:  3     
              matName:  (blade-shell)
                     s           e11           e22           e12           s11           s22           s12   s11_fcT   s11_fcC   s22_fcT   s22_fcC   s12_fcS
                   (m)         (m/m)         (m/m)         (rad)          (Pa)          (Pa)          (Pa)       (-)       (-)       (-)       (-)       (-)
                0.0000   4.8999e-004  -1.9098e-004   6.5341e-005   1.3750e+007   7.6324e+004   4.5739e+005    0.0955   -0.0000    0.0000   -0.0000    0.0076
                0.0508   4.8726e-004  -1.8992e-004   7.2288e-005   1.3674e+007   7.5821e+004   5.0601e+005    0.0950   -0.0000    0.0000   -0.0000    0.0084
                0.1138   4.7943e-004  -1.8688e-004   8.0783e-005   1.3454e+007   7.4435e+004   5.6548e+005    0.0934   -0.0000    0.0000   -0.0000    0.0094
                0.2023   4.6416e-004  -1.8094e-004   9.2395e-005   1.3025e+007   7.1943e+004   6.4676e+005    0.0905   -0.0000    0.0000   -0.0000    0.0108
                0.3167   4.4164e-004  -1.7216e-004   1.0678e-004   1.2393e+007   6.8372e+004   7.4746e+005    0.0861   -0.0000    0.0000   -0.0000    0.0125
                0.4565   4.1244e-004  -1.6078e-004   1.2333e-004   1.1574e+007   6.3795e+004   8.6332e+005    0.0804   -0.0000    0.0000   -0.0000    0.0144
                0.6202   3.7705e-004  -1.4699e-004   1.4123e-004   1.0581e+007   5.8280e+004   9.8858e+005    0.0735   -0.0000    0.0000   -0.0000    0.0165
                0.8068   3.3596e-004  -1.3097e-004   1.5963e-004   9.4276e+006   5.1898e+004   1.1174e+006    0.0655   -0.0000    0.0000   -0.0000    0.0186
                1.0140   2.8981e-004  -1.1299e-004   1.7755e-004   8.1327e+006   4.4739e+004   1.2429e+006    0.0565   -0.0000    0.0000   -0.0000    0.0207
                1.2399   2.3917e-004  -9.3244e-005   1.9405e-004   6.7115e+006   3.6889e+004   1.3584e+006    0.0466   -0.0000    0.0000   -0.0000    0.0226
                1.4732   1.8650e-004  -7.2712e-005   2.0774e-004   5.2336e+006   2.8751e+004   1.4542e+006    0.0363   -0.0000    0.0000   -0.0000    0.0242

            panel:  2     
           lam_num    nPlies        tPly      fibAng     matID  matName
               (-)       (-)         (m)       (deg)       (-)  (-)
                 1         1    0.005000      0.0000         2  (blade-shell)
                 2         1    0.042330      0.0000         3  (spar-uni)
                 3         1    0.000002      0.0000         4  (spar-core)
                 4         1    0.042330      0.0000         3  (spar-uni)
                 5         1    0.005000      0.0000         2  (blade-shell)

               lamina:  1     
              matName:  (blade-shell)
                     s           e11           e22           e12           s11           s22           s12   s11_fcT   s11_fcC   s22_fcT   s22_fcC   s12_fcS
                   (m)         (m/m)         (m/m)         (rad)          (Pa)          (Pa)          (Pa)       (-)       (-)       (-)       (-)       (-)
                0.0000   1.8723e-004  -5.4934e-005   5.5650e-005   5.3638e+006   3.0368e+005   3.8955e+005    0.0372   -0.0000    0.0000   -0.0000    0.0065
                0.0078   1.8383e-004  -5.3902e-005   5.6789e-005   5.2667e+006   2.9872e+005   3.9753e+005    0.0366   -0.0000    0.0000   -0.0000    0.0066
                0.2653   1.2457e-004  -3.6499e-005   8.8282e-005   3.5691e+006   2.0284e+005   6.1797e+005    0.0248   -0.0000    0.0000   -0.0000    0.0103
                0.5342   6.2294e-005  -1.8196e-005   1.0858e-004   1.7851e+006   1.0228e+005   7.6009e+005    0.0124   -0.0000    0.0000   -0.0000    0.0127
                0.8133  -2.4069e-006   8.2704e-007   1.1613e-004  -6.8219e+004  -2.0653e+003   8.1290e+005    0.0000    0.0003    0.0000    0.0000    0.0135
                1.1000  -6.7941e-005   2.0086e-005   1.0962e-004  -1.9455e+006  -1.0790e+005   7.6731e+005    0.0000    0.0091    0.0000    0.0000    0.0128
                1.3930  -1.3347e-004   3.9328e-005   8.8159e-005  -3.8228e+006  -2.1397e+005   6.1712e+005    0.0000    0.0179    0.0000    0.0000    0.0103
                1.4018  -1.3652e-004   4.0247e-005   8.7286e-005  -3.9100e+006  -2.1854e+005   6.1100e+005    0.0000    0.0184    0.0000    0.0000    0.0102

               lamina:  2     
              matName:  (spar-uni)
                     s           e11           e22           e12           s11           s22           s12   s11_fcT   s11_fcC   s22_fcT   s22_fcC   s12_fcS
                   (m)         (m/m)         (m/m)         (rad)          (Pa)          (Pa)          (Pa)       (-)       (-)       (-)       (-)       (-)
                0.0000   1.8716e-004  -5.4913e-005   5.5650e-005   7.8506e+006  -3.6062e+004   1.6695e+005    0.0081   -0.0000    0.0000    0.0000    0.0056
                0.0078   1.8483e-004  -5.4218e-005   5.6789e-005   7.7530e+006  -3.5436e+004   1.7037e+005    0.0080   -0.0000    0.0000    0.0000    0.0057
                0.2653   1.2647e-004  -3.7099e-005   8.8282e-005   5.3050e+006  -2.4247e+004   2.6484e+005    0.0055   -0.0000    0.0000    0.0000    0.0088
                0.5342   6.5741e-005  -1.9284e-005   1.0858e-004   2.7576e+006  -1.2604e+004   3.2575e+005    0.0028   -0.0000    0.0000    0.0000    0.0109
                0.8133   3.0378e-006  -8.9108e-007   1.1613e-004   1.2742e+005   1.9070e+003   3.4838e+005    0.0001   -0.0000    0.0000   -0.0000    0.0116
                1.1000  -6.7197e-005   1.9851e-005   1.0962e-004  -2.8181e+006   1.4896e+004   3.2885e+005    0.0000    0.0040    0.0000   -0.0000    0.0110
                1.3930  -1.3264e-004   3.9064e-005   8.8159e-005  -5.5630e+006   2.7687e+004   2.6448e+005    0.0000    0.0079    0.0000   -0.0000    0.0088
                1.4018  -1.3557e-004   3.9946e-005   8.7286e-005  -5.6858e+006   2.8571e+004   2.6186e+005    0.0000    0.0081    0.0000   -0.0000    0.0087

               lamina:  3     
              matName:  (spar-core)
                     s           e11           e22           e12           s11           s22           s12   s11_fcT   s11_fcC   s22_fcT   s22_fcC   s12_fcS
                   (m)         (m/m)         (m/m)         (rad)          (Pa)          (Pa)          (Pa)       (-)       (-)       (-)       (-)       (-)
                0.0000   1.8660e-004  -5.4737e-005   5.5650e-005   4.8623e+004   3.5525e+002   1.1130e+003    0.0000   -0.0000    0.0000   -0.0000    0.0000
                0.0078   1.8483e-004  -5.4218e-005   5.6789e-005   4.8162e+004   3.5189e+002   1.1358e+003    0.0000   -0.0000    0.0000   -0.0000    0.0000
                0.2653   1.2647e-004  -3.7099e-005   8.8282e-005   3.2955e+004   2.4078e+002   1.7656e+003    0.0000   -0.0000    0.0000   -0.0000    0.0000
                0.5342   6.5741e-005  -1.9284e-005   1.0858e-004   1.7130e+004   1.2516e+002   2.1717e+003    0.0000   -0.0000    0.0000   -0.0000    0.0000
                0.8133   3.0380e-006  -8.9116e-007   1.1613e-004   7.9161e+002   5.7841e+000   2.3226e+003    0.0000   -0.0000    0.0000   -0.0000    0.0000
                1.1000  -6.0897e-005   1.7863e-005   1.0962e-004  -1.5868e+004  -1.1594e+002   2.1923e+003    0.0000    0.0000    0.0000    0.0000    0.0000
                1.3930  -1.2557e-004   3.6834e-005   8.8159e-005  -3.2720e+004  -2.3906e+002   1.7632e+003    0.0000    0.0000    0.0000    0.0000    0.0000
                1.4018  -1.2749e-004   3.7398e-005   8.7286e-005  -3.3220e+004  -2.4272e+002   1.7457e+003    0.0000    0.0000    0.0000    0.0000    0.0000

               lamina:  4     
              matName:  (spar-uni)
                     s           e11           e22           e12           s11           s22           s12   s11_fcT   s11_fcC   s22_fcT   s22_fcC   s12_fcS
                   (m)         (m/m)         (m/m)         (rad)          (Pa)          (Pa)          (Pa)       (-)       (-)       (-)       (-)       (-)
                0.0000   1.8660e-004  -5.4737e-005   5.5650e-005   7.8272e+006  -3.5776e+004   1.6695e+005    0.0081   -0.0000    0.0000    0.0000    0.0056
                0.0078   1.8583e-004  -5.4534e-005   5.6789e-005   7.7949e+006  -3.5948e+004   1.7037e+005    0.0080   -0.0000    0.0000    0.0000    0.0057
                0.2653   1.2837e-004  -3.7698e-005   8.8282e-005   5.3845e+006  -2.5219e+004   2.6484e+005    0.0055   -0.0000    0.0000    0.0000    0.0088
                0.5342   6.9188e-005  -2.0372e-005   1.0858e-004   2.9019e+006  -1.4366e+004   3.2575e+005    0.0030   -0.0000    0.0000    0.0000    0.0109
                0.8133   7.9075e-006  -2.4278e-006   1.1613e-004   3.3125e+005  -3.0718e+003   3.4838e+005    0.0003   -0.0000    0.0000    0.0000    0.0116
                1.1000  -6.0897e-005   1.7863e-005   1.0962e-004  -2.5544e+006   1.1675e+004   3.2885e+005    0.0000    0.0036    0.0000   -0.0000    0.0110
                1.3930  -1.2557e-004   3.6834e-005   8.8159e-005  -5.2672e+006   2.4074e+004   2.6448e+005    0.0000    0.0075    0.0000   -0.0000    0.0088
                1.4018  -1.2749e-004   3.7397e-005   8.7286e-005  -5.3477e+006   2.4443e+004   2.6186e+005    0.0000    0.0076    0.0000   -0.0000    0.0087

               lamina:  5     
              matName:  (blade-shell)
                     s           e11           e22           e12           s11           s22           s12   s11_fcT   s11_fcC   s22_fcT   s22_fcC   s12_fcS
                   (m)         (m/m)         (m/m)         (rad)          (Pa)          (Pa)          (Pa)       (-)       (-)       (-)       (-)       (-)
                0.0000   1.8604e-004  -5.4561e-005   5.5650e-005   5.3300e+006   3.0216e+005   3.8955e+005    0.0370   -0.0000    0.0000   -0.0000    0.0065
                0.0078   1.8595e-004  -5.4571e-005   5.6789e-005   5.3272e+006   3.0144e+005   3.9753e+005    0.0370   -0.0000    0.0000   -0.0000    0.0066
                0.2653   1.2860e-004  -3.7769e-005   8.8282e-005   3.6839e+006   2.0801e+005   6.1797e+005    0.0256   -0.0000    0.0000   -0.0000    0.0103
                0.5342   6.9595e-005  -2.0500e-005   1.0858e-004   1.9933e+006   1.1166e+005   7.6009e+005    0.0138   -0.0000    0.0000   -0.0000    0.0127
                0.8133   8.4827e-006  -2.6093e-006   1.1613e-004   2.4229e+005   1.1927e+004   8.1290e+005    0.0017   -0.0000    0.0000   -0.0000    0.0135
                1.1000  -5.4597e-005   1.5875e-005   1.0962e-004  -1.5650e+006  -9.0750e+004   7.6731e+005    0.0000    0.0073    0.0000    0.0000    0.0128
                1.3930  -1.1850e-004   3.4604e-005   8.8159e-005  -3.3960e+006  -1.9474e+005   6.1712e+005    0.0000    0.0159    0.0000    0.0000    0.0103
                1.4018  -1.1941e-004   3.4849e-005   8.7286e-005  -3.4222e+006  -1.9656e+005   6.1100e+005    0.0000    0.0161    0.0000    0.0000    0.0102

            panel:  3     
           lam_num    nPlies        tPly      fibAng     matID  matName
               (-)       (-)         (m)       (deg)       (-)  (-)
                 1         1    0.005000      0.0000         2  (blade-shell)
                 2         1    0.013794      0.0000         6  (TEP-core)
                 3         1    0.005000      0.0000         2  (blade-shell)

               lamina:  1     
              matName:  (blade-shell)
                     s           e11           e22           e12           s11           s22           s12   s11_fcT   s11_fcC   s22_fcT   s22_fcC   s12_fcS
                   (m)         (m/m)         (m/m)         (rad)          (Pa)          (Pa)          (Pa)       (-)       (-)       (-)       (-)       (-)
                0.0000  -1.3073e-004   5.1964e-005   4.0240e-004  -3.6624e+006  -4.9867e+003   2.8168e+006    0.0000    0.0172    0.0000    0.0000    0.0469
                0.0035  -1.3150e-004   5.2272e-005   4.0228e-004  -3.6841e+006  -5.0164e+003   2.8159e+006    0.0000    0.0173    0.0000    0.0000    0.0469

               lamina:  2     
              matName:  (TEP-core)
                     s           e11           e22           e12           s11           s22           s12   s11_fcT   s11_fcC   s22_fcT   s22_fcC   s12_fcS
                   (m)         (m/m)         (m/m)         (rad)          (Pa)          (Pa)          (Pa)       (-)       (-)       (-)       (-)       (-)
                0.0000  -1.3026e-004   5.1775e-005   4.0240e-004  -3.2778e+004   3.6281e+003   8.0480e+003    0.0000    0.0000    0.0000   -0.0000    0.0000
                0.0035  -1.3103e-004   5.2083e-005   4.0228e-004  -3.2973e+004   3.6496e+003   8.0456e+003    0.0000    0.0000    0.0000   -0.0000    0.0000

               lamina:  3     
              matName:  (blade-shell)
                     s           e11           e22           e12           s11           s22           s12   s11_fcT   s11_fcC   s22_fcT   s22_fcC   s12_fcS
                   (m)         (m/m)         (m/m)         (rad)          (Pa)          (Pa)          (Pa)       (-)       (-)       (-)       (-)       (-)
                0.0000  -1.2895e-004   5.1255e-005   4.0240e-004  -3.6127e+006  -4.9745e+003   2.8168e+006    0.0000    0.0170    0.0000    0.0000    0.0469
                0.0035  -1.2973e-004   5.1562e-005   4.0228e-004  -3.6344e+006  -5.0042e+003   2.8159e+006    0.0000    0.0171    0.0000    0.0000    0.0469

            panel:  4     
           lam_num    nPlies        tPly      fibAng     matID  matName
               (-)       (-)         (m)       (deg)       (-)  (-)
                 1         1    0.005000      0.0000         2  (blade-shell)
                 2         1    0.013794      0.0000         6  (TEP-core)
                 3         1    0.005000      0.0000         2  (blade-shell)

               lamina:  1     
              matName:  (blade-shell)
                     s           e11           e22           e12           s11           s22           s12   s11_fcT   s11_fcC   s22_fcT   s22_fcC   s12_fcS
                   (m)         (m/m)         (m/m)         (rad)          (Pa)          (Pa)          (Pa)       (-)       (-)       (-)       (-)       (-)
                0.0000  -1.3150e-004   5.2272e-005   3.8009e-004  -3.6841e+006  -5.0164e+003   2.6607e+006    0.0000    0.0173    0.0000    0.0000    0.0443
                0.2821  -1.9327e-004   7.6822e-005   3.7997e-004  -5.4145e+006  -7.3873e+003   2.6598e+006    0.0000    0.0254    0.0000    0.0000    0.0443
                0.5766  -2.5725e-004   1.0225e-004   3.7997e-004  -7.2070e+006  -9.8428e+003   2.6598e+006    0.0000    0.0338    0.0000    0.0000    0.0443
                0.8657  -3.1976e-004   1.2710e-004   3.6780e-004  -8.9581e+006  -1.2243e+004   2.5746e+006    0.0000    0.0421    0.0000    0.0000    0.0429
                1.0114  -3.5128e-004   1.3963e-004   3.5014e-004  -9.8411e+006  -1.3454e+004   2.4510e+006    0.0000    0.0462    0.0000    0.0000    0.0408

               lamina:  2     
              matName:  (TEP-core)
                     s           e11           e22           e12           s11           s22           s12   s11_fcT   s11_fcC   s22_fcT   s22_fcC   s12_fcS
                   (m)         (m/m)         (m/m)         (rad)          (Pa)          (Pa)          (Pa)       (-)       (-)       (-)       (-)       (-)
                0.0000  -1.3103e-004   5.2083e-005   3.8009e-004  -3.2973e+004   3.6496e+003   7.6019e+003    0.0000    0.0000    0.0000   -0.0000    0.0000
                0.2821  -1.9277e-004   7.6623e-005   3.7997e-004  -4.8510e+004   5.3691e+003   7.5994e+003    0.0000    0.0000    0.0000   -0.0000    0.0000
                0.5766  -2.5672e-004   1.0204e-004   3.7997e-004  -6.4603e+004   7.1502e+003   7.5994e+003    0.0000    0.0000    0.0000   -0.0000    0.0000
                0.8657  -3.1922e-004   1.2688e-004   3.6780e-004  -8.0329e+004   8.8907e+003   7.3560e+003    0.0000    0.0000    0.0000   -0.0000    0.0000
                1.0114  -3.5074e-004   1.3941e-004   3.5014e-004  -8.8261e+004   9.7685e+003   7.0028e+003    0.0000    0.0000    0.0000   -0.0000    0.0000

               lamina:  3     
              matName:  (blade-shell)
                     s           e11           e22           e12           s11           s22           s12   s11_fcT   s11_fcC   s22_fcT   s22_fcC   s12_fcS
                   (m)         (m/m)         (m/m)         (rad)          (Pa)          (Pa)          (Pa)       (-)       (-)       (-)       (-)       (-)
                0.0000  -1.2973e-004   5.1562e-005   3.8009e-004  -3.6344e+006  -5.0042e+003   2.6607e+006    0.0000    0.0171    0.0000    0.0000    0.0443
                0.2821  -1.9140e-004   7.6074e-005   3.7997e-004  -5.3621e+006  -7.3744e+003   2.6598e+006    0.0000    0.0252    0.0000    0.0000    0.0443
                0.5766  -2.5525e-004   1.0146e-004   3.7997e-004  -7.1510e+006  -9.8290e+003   2.6598e+006    0.0000    0.0336    0.0000    0.0000    0.0443
                0.8657  -3.1773e-004   1.2629e-004   3.6780e-004  -8.9012e+006  -1.2229e+004   2.5746e+006    0.0000    0.0418    0.0000    0.0000    0.0429
                1.0114  -3.4925e-004   1.3882e-004   3.5014e-004  -9.7845e+006  -1.3440e+004   2.4510e+006    0.0000    0.0459    0.0000    0.0000    0.0408

            panel:  5     
           lam_num    nPlies        tPly      fibAng     matID  matName
               (-)       (-)         (m)       (deg)       (-)  (-)
                 1         1    0.005000      0.0000         2  (blade-shell)
                 2         1    0.013794      0.0000         6  (TEP-core)
                 3         1    0.005000      0.0000         2  (blade-shell)

               lamina:  1     
              matName:  (blade-shell)
                     s           e11           e22           e12           s11           s22           s12   s11_fcT   s11_fcC   s22_fcT   s22_fcC   s12_fcS
                   (m)         (m/m)         (m/m)         (rad)          (Pa)          (Pa)          (Pa)       (-)       (-)       (-)       (-)       (-)
                0.0000  -3.5128e-004   1.3963e-004   3.2792e-004  -9.8411e+006  -1.3454e+004   2.2954e+006    0.0000    0.0462    0.0000    0.0000    0.0383
                0.1338  -3.8014e-004   1.5110e-004   3.1488e-004  -1.0650e+007  -1.4566e+004   2.2042e+006    0.0000    0.0500    0.0000    0.0000    0.0367
                0.3990  -4.3786e-004   1.7404e-004   2.8496e-004  -1.2267e+007  -1.6787e+004   1.9947e+006    0.0000    0.0576    0.0000    0.0000    0.0332
                0.6469  -4.9231e-004   1.9568e-004   2.7191e-004  -1.3792e+007  -1.8884e+004   1.9034e+006    0.0000    0.0648    0.0000    0.0000    0.0317
                0.8750  -5.4291e-004   2.1580e-004   2.4295e-004  -1.5210e+007  -2.0836e+004   1.7007e+006    0.0000    0.0714    0.0000    0.0000    0.0283
                1.0814  -5.8913e-004   2.3416e-004   2.1216e-004  -1.6505e+007  -2.2618e+004   1.4851e+006    0.0000    0.0775    0.0000    0.0000    0.0248
                1.2649  -6.3038e-004   2.5056e-004   1.8061e-004  -1.7660e+007  -2.4210e+004   1.2643e+006    0.0000    0.0829    0.0000    0.0000    0.0211
                1.4238  -6.6620e-004   2.6480e-004   1.4936e-004  -1.8664e+007  -2.5592e+004   1.0456e+006    0.0000    0.0876    0.0000    0.0000    0.0174
                1.5564  -6.9619e-004   2.7672e-004   1.1945e-004  -1.9504e+007  -2.6747e+004   8.3612e+005    0.0000    0.0916    0.0000    0.0000    0.0139
                1.6614  -7.1991e-004   2.8615e-004   9.1882e-005  -2.0169e+007  -2.7660e+004   6.4317e+005    0.0000    0.0947    0.0000    0.0000    0.0107
                1.7374  -7.3706e-004   2.9296e-004   6.7690e-005  -2.0649e+007  -2.8321e+004   4.7383e+005    0.0000    0.0969    0.0000    0.0000    0.0079
                1.7813  -7.4757e-004   2.9714e-004   4.7804e-005  -2.0944e+007  -2.8706e+004   3.3462e+005    0.0000    0.0983    0.0000    0.0000    0.0056
                1.7933  -7.5159e-004   2.9874e-004   3.2978e-005  -2.1056e+007  -2.8801e+004   2.3085e+005    0.0000    0.0989    0.0000    0.0000    0.0038

               lamina:  2     
              matName:  (TEP-core)
                     s           e11           e22           e12           s11           s22           s12   s11_fcT   s11_fcC   s22_fcT   s22_fcC   s12_fcS
                   (m)         (m/m)         (m/m)         (rad)          (Pa)          (Pa)          (Pa)       (-)       (-)       (-)       (-)       (-)
                0.0000  -3.5074e-004   1.3941e-004   3.2792e-004  -8.8261e+004   9.7685e+003   6.5583e+003    0.0000    0.0000    0.0000   -0.0000    0.0000
                0.1338  -3.7964e-004   1.5090e-004   3.1488e-004  -9.5534e+004   1.0573e+004   6.2976e+003    0.0000    0.0000    0.0000   -0.0000    0.0000
                0.3990  -4.3741e-004   1.7386e-004   2.8496e-004  -1.1007e+005   1.2182e+004   5.6991e+003    0.0000    0.0000    0.0000   -0.0000    0.0000
                0.6469  -4.9193e-004   1.9553e-004   2.7191e-004  -1.2379e+005   1.3701e+004   5.4381e+003    0.0000    0.0000    0.0000   -0.0000    0.0000
                0.8750  -5.4263e-004   2.1568e-004   2.4295e-004  -1.3655e+005   1.5113e+004   4.8591e+003    0.0000    0.0000    0.0000   -0.0000    0.0000
                1.0814  -5.8894e-004   2.3409e-004   2.1216e-004  -1.4820e+005   1.6402e+004   4.2432e+003    0.0000    0.0000    0.0000   -0.0000    0.0000
                1.2649  -6.3029e-004   2.5052e-004   1.8061e-004  -1.5861e+005   1.7554e+004   3.6122e+003    0.0000    0.0000    0.0000   -0.0000    0.0000
                1.4238  -6.6619e-004   2.6479e-004   1.4936e-004  -1.6764e+005   1.8553e+004   2.9873e+003    0.0000    0.0000    0.0000   -0.0000    0.0000
                1.5564  -6.9633e-004   2.7677e-004   1.1945e-004  -1.7523e+005   1.9393e+004   2.3889e+003    0.0000    0.0000    0.0000   -0.0000    0.0000
                1.6614  -7.2016e-004   2.8625e-004   9.1882e-005  -1.8122e+005   2.0057e+004   1.8376e+003    0.0000    0.0000    0.0000   -0.0000    0.0000
                1.7374  -7.3741e-004   2.9310e-004   6.7690e-005  -1.8556e+005   2.0537e+004   1.3538e+003    0.0000    0.0000    0.0000   -0.0000    0.0000
                1.7813  -7.4740e-004   2.9707e-004   4.7804e-005  -1.8808e+005   2.0815e+004   9.5607e+002    0.0000    0.0000    0.0000   -0.0000    0.0000
                1.7933  -7.5062e-004   2.9836e-004   3.2978e-005  -1.8889e+005   2.0906e+004   6.5957e+002    0.0000    0.0000    0.0000   -0.0000    0.0000

               lamina:  3     
              matName:  (blade-shell)
                     s           e11           e22           e12           s11           s22           s12   s11_fcT   s11_fcC   s22_fcT   s22_fcC   s12_fcS
                   (m)         (m/m)         (m/m)         (rad)          (Pa)          (Pa)          (Pa)       (-)       (-)       (-)       (-)       (-)
                0.0000  -3.4925e-004   1.3882e-004   3.2792e-004  -9.7845e+006  -1.3440e+004   2.2954e+006    0.0000    0.0459    0.0000    0.0000    0.0383
                0.1338  -3.7824e-004   1.5034e-004   3.1488e-004  -1.0596e+007  -1.4553e+004   2.2042e+006    0.0000    0.0497    0.0000    0.0000    0.0367
                0.3990  -4.3614e-004   1.7335e-004   2.8496e-004  -1.2219e+007  -1.6775e+004   1.9947e+006    0.0000    0.0574    0.0000    0.0000    0.0332
                0.6469  -4.9089e-004   1.9511e-004   2.7191e-004  -1.3752e+007  -1.8875e+004   1.9034e+006    0.0000    0.0646    0.0000    0.0000    0.0317
                0.8750  -5.4186e-004   2.1537e-004   2.4295e-004  -1.5180e+007  -2.0828e+004   1.7007e+006    0.0000    0.0713    0.0000    0.0000    0.0283
                1.0814  -5.8843e-004   2.3389e-004   2.1216e-004  -1.6485e+007  -2.2613e+004   1.4851e+006    0.0000    0.0774    0.0000    0.0000    0.0248
                1.2649  -6.3003e-004   2.5042e-004   1.8061e-004  -1.7651e+007  -2.4207e+004   1.2643e+006    0.0000    0.0829    0.0000    0.0000    0.0211
                1.4238  -6.6617e-004   2.6479e-004   1.4936e-004  -1.8663e+007  -2.5592e+004   1.0456e+006    0.0000    0.0876    0.0000    0.0000    0.0174
                1.5564  -6.9638e-004   2.7679e-004   1.1945e-004  -1.9509e+007  -2.6749e+004   8.3612e+005    0.0000    0.0916    0.0000    0.0000    0.0139
                1.6614  -7.2025e-004   2.8628e-004   9.1882e-005  -2.0178e+007  -2.7662e+004   6.4317e+005    0.0000    0.0947    0.0000    0.0000    0.0107
                1.7374  -7.3753e-004   2.9315e-004   6.7690e-005  -2.0662e+007  -2.8324e+004   4.7383e+005    0.0000    0.0970    0.0000    0.0000    0.0079
                1.7813  -7.4693e-004   2.9689e-004   4.7804e-005  -2.0925e+007  -2.8702e+004   3.3462e+005    0.0000    0.0982    0.0000    0.0000    0.0056
                1.7933  -7.4795e-004   2.9729e-004   3.2978e-005  -2.0954e+007  -2.8776e+004   2.3085e+005    0.0000    0.0984    0.0000    0.0000    0.0038

     Web:  panel  nNode   nLam     xc_St    xc_End         b         t         E_eff         G_eff      nu_eff     density  buckleCrit
            (-)    (-)    (-)       (-)       (-)       (m)       (m)          (Pa)          (Pa)         (-)    (kg/m^3)         (-)
              1     10      3    0.2482    0.2482    0.9741    0.0830   7.6445e+008   4.5301e+008      0.4420    257.1084      0.0000
              2     10      3    0.5025    0.5025    0.9584    0.0830   7.6445e+008   4.5301e+008      0.4420    257.1084      0.0000
              3     10      3    0.6800    0.6800    0.5441    0.0830   7.6445e+008   4.5301e+008      0.4420    257.1084      0.0000

            panel:  1     
           lam_num    nPlies        tPly      fibAng     matID  matName
               (-)       (-)         (m)       (deg)       (-)  (-)
                 1         1    0.001500      0.0000         7  (web-shell)
                 2         1    0.080000      0.0000         8  (web-core)
                 3         1    0.001500      0.0000         7  (web-shell)

               lamina:  1     
              matName:  (web-shell)
                     s           e11           e22           e12           s11           s22           s12   s11_fcT   s11_fcC   s22_fcT   s22_fcC   s12_fcS
                   (m)         (m/m)         (m/m)         (rad)          (Pa)          (Pa)          (Pa)       (-)       (-)       (-)       (-)       (-)
                0.0000   1.8680e-004  -8.2147e-005   6.5108e-005   2.7202e+006   2.1005e+005   7.8129e+005    0.0189   -0.0000    0.0000   -0.0000    0.0087
                0.1082   1.8541e-004  -8.1534e-005   6.7510e-005   2.7001e+006   2.0855e+005   8.1012e+005    0.0188   -0.0000    0.0000   -0.0000    0.0090
                0.2165   1.8403e-004  -8.0922e-005   6.9895e-005   2.6799e+006   2.0705e+005   8.3874e+005    0.0186   -0.0000    0.0000   -0.0000    0.0093
                0.3247   1.8264e-004  -8.0310e-005   7.2263e-005   2.6598e+006   2.0555e+005   8.6716e+005    0.0185   -0.0000    0.0000   -0.0000    0.0096
                0.4329   1.8126e-004  -7.9697e-005   7.4615e-005   2.6396e+006   2.0405e+005   8.9538e+005    0.0183   -0.0000    0.0000   -0.0000    0.0099
                0.5412   1.7987e-004  -7.9085e-005   7.6950e-005   2.6195e+006   2.0255e+005   9.2340e+005    0.0182   -0.0000    0.0000   -0.0000    0.0103
                0.6494   1.7849e-004  -7.8473e-005   7.9268e-005   2.5993e+006   2.0105e+005   9.5122e+005    0.0181   -0.0000    0.0000   -0.0000    0.0106
                0.7577   1.7710e-004  -7.7861e-005   8.1569e-005   2.5792e+006   1.9955e+005   9.7883e+005    0.0179   -0.0000    0.0000   -0.0000    0.0109
                0.8659   1.7572e-004  -7.7248e-005   8.3854e-005   2.5591e+006   1.9806e+005   1.0062e+006    0.0178   -0.0000    0.0000   -0.0000    0.0112
                0.9741   1.7433e-004  -7.6636e-005   8.6122e-005   2.5389e+006   1.9656e+005   1.0335e+006    0.0176   -0.0000    0.0000   -0.0000    0.0115

               lamina:  2     
              matName:  (web-core)
                     s           e11           e22           e12           s11           s22           s12   s11_fcT   s11_fcC   s22_fcT   s22_fcC   s12_fcS
                   (m)         (m/m)         (m/m)         (rad)          (Pa)          (Pa)          (Pa)       (-)       (-)       (-)       (-)       (-)
                0.0000   2.1115e-004  -9.3758e-005   6.5108e-005   5.2292e+004  -8.6894e+003   1.3022e+003    0.0000   -0.0000    0.0000    0.0000    0.0000
                0.1082   2.0976e-004  -9.3145e-005   6.7510e-005   5.1949e+004  -8.6332e+003   1.3502e+003    0.0000   -0.0000    0.0000    0.0000    0.0000
                0.2165   2.0838e-004  -9.2533e-005   6.9895e-005   5.1605e+004  -8.5770e+003   1.3979e+003    0.0000   -0.0000    0.0000    0.0000    0.0000
                0.3247   2.0699e-004  -9.1921e-005   7.2263e-005   5.1262e+004  -8.5208e+003   1.4453e+003    0.0000   -0.0000    0.0000    0.0000    0.0000
                0.4329   2.0561e-004  -9.1309e-005   7.4615e-005   5.0919e+004  -8.4646e+003   1.4923e+003    0.0000   -0.0000    0.0000    0.0000    0.0000
                0.5412   2.0422e-004  -9.0696e-005   7.6950e-005   5.0576e+004  -8.4084e+003   1.5390e+003    0.0000   -0.0000    0.0000    0.0000    0.0000
                0.6494   2.0284e-004  -9.0084e-005   7.9268e-005   5.0232e+004  -8.3522e+003   1.5854e+003    0.0000   -0.0000    0.0000    0.0000    0.0000
                0.7577   2.0145e-004  -8.9472e-005   8.1569e-005   4.9889e+004  -8.2960e+003   1.6314e+003    0.0000   -0.0000    0.0000    0.0000    0.0000
                0.8659   2.0007e-004  -8.8860e-005   8.3854e-005   4.9546e+004  -8.2397e+003   1.6771e+003    0.0000   -0.0000    0.0000    0.0000    0.0000
                0.9741   1.9868e-004  -8.8247e-005   8.6122e-005   4.9203e+004  -8.1835e+003   1.7224e+003    0.0000   -0.0000    0.0000    0.0000    0.0000

               lamina:  3     
              matName:  (web-shell)
                     s           e11           e22           e12           s11           s22           s12   s11_fcT   s11_fcC   s22_fcT   s22_fcC   s12_fcS
                   (m)         (m/m)         (m/m)         (rad)          (Pa)          (Pa)          (Pa)       (-)       (-)       (-)       (-)       (-)
                0.0000   2.1161e-004  -9.3975e-005   6.5108e-005   3.0729e+006   2.2078e+005   7.8129e+005    0.0213   -0.0000    0.0000   -0.0000    0.0087
                0.1082   2.1022e-004  -9.3363e-005   6.7510e-005   3.0527e+006   2.1928e+005   8.1012e+005    0.0212   -0.0000    0.0000   -0.0000    0.0090
                0.2165   2.0884e-004  -9.2751e-005   6.9895e-005   3.0326e+006   2.1778e+005   8.3874e+005    0.0211   -0.0000    0.0000   -0.0000    0.0093
                0.3247   2.0745e-004  -9.2139e-005   7.2263e-005   3.0124e+006   2.1628e+005   8.6716e+005    0.0209   -0.0000    0.0000   -0.0000    0.0096
                0.4329   2.0607e-004  -9.1526e-005   7.4615e-005   2.9923e+006   2.1478e+005   8.9538e+005    0.0208   -0.0000    0.0000   -0.0000    0.0099
                0.5412   2.0468e-004  -9.0914e-005   7.6950e-005   2.9722e+006   2.1329e+005   9.2340e+005    0.0206   -0.0000    0.0000   -0.0000    0.0103
                0.6494   2.0330e-004  -9.0302e-005   7.9268e-005   2.9520e+006   2.1179e+005   9.5122e+005    0.0205   -0.0000    0.0000   -0.0000    0.0106
                0.7577   2.0191e-004  -8.9690e-005   8.1569e-005   2.9319e+006   2.1029e+005   9.7883e+005    0.0204   -0.0000    0.0000   -0.0000    0.0109
                0.8659   2.0052e-004  -8.9077e-005   8.3854e-005   2.9117e+006   2.0879e+005   1.0062e+006    0.0202   -0.0000    0.0000   -0.0000    0.0112
                0.9741   1.9914e-004  -8.8465e-005   8.6122e-005   2.8916e+006   2.0729e+005   1.0335e+006    0.0201   -0.0000    0.0000   -0.0000    0.0115

            panel:  2     
           lam_num    nPlies        tPly      fibAng     matID  matName
               (-)       (-)         (m)       (deg)       (-)  (-)
                 1         1    0.001500      0.0000         7  (web-shell)
                 2         1    0.080000      0.0000         8  (web-core)
                 3         1    0.001500      0.0000         7  (web-shell)

               lamina:  1     
              matName:  (web-shell)
                     s           e11           e22           e12           s11           s22           s12   s11_fcT   s11_fcC   s22_fcT   s22_fcC   s12_fcS
                   (m)         (m/m)         (m/m)         (rad)          (Pa)          (Pa)          (Pa)       (-)       (-)       (-)       (-)       (-)
                0.0000  -1.2887e-004   5.7405e-005   2.8276e-005  -1.8699e+006  -1.3126e+005   3.3931e+005    0.0000    0.0088    0.0000    0.0000    0.0038
                0.1065  -1.3036e-004   5.8064e-005   2.9670e-005  -1.8915e+006  -1.3287e+005   3.5604e+005    0.0000    0.0089    0.0000    0.0000    0.0040
                0.2130  -1.3186e-004   5.8724e-005   3.1082e-005  -1.9132e+006  -1.3448e+005   3.7298e+005    0.0000    0.0090    0.0000    0.0000    0.0041
                0.3195  -1.3335e-004   5.9383e-005   3.2511e-005  -1.9349e+006  -1.3610e+005   3.9013e+005    0.0000    0.0091    0.0000    0.0000    0.0043
                0.4259  -1.3484e-004   6.0042e-005   3.3958e-005  -1.9566e+006  -1.3771e+005   4.0750e+005    0.0000    0.0092    0.0000    0.0000    0.0045
                0.5324  -1.3633e-004   6.0702e-005   3.5423e-005  -1.9783e+006  -1.3933e+005   4.2508e+005    0.0000    0.0093    0.0000    0.0000    0.0047
                0.6389  -1.3782e-004   6.1361e-005   3.6906e-005  -2.0000e+006  -1.4094e+005   4.4288e+005    0.0000    0.0094    0.0000    0.0000    0.0049
                0.7454  -1.3931e-004   6.2020e-005   3.8407e-005  -2.0217e+006  -1.4255e+005   4.6088e+005    0.0000    0.0095    0.0000    0.0000    0.0051
                0.8519  -1.4081e-004   6.2680e-005   3.9925e-005  -2.0434e+006  -1.4417e+005   4.7910e+005    0.0000    0.0096    0.0000    0.0000    0.0053
                0.9584  -1.4230e-004   6.3339e-005   4.1462e-005  -2.0651e+006  -1.4578e+005   4.9754e+005    0.0000    0.0097    0.0000    0.0000    0.0055

               lamina:  2     
              matName:  (web-core)
                     s           e11           e22           e12           s11           s22           s12   s11_fcT   s11_fcC   s22_fcT   s22_fcC   s12_fcS
                   (m)         (m/m)         (m/m)         (rad)          (Pa)          (Pa)          (Pa)       (-)       (-)       (-)       (-)       (-)
                0.0000  -1.2842e-004   5.7188e-005   2.8276e-005  -3.1789e+004   5.3321e+003   5.6552e+002    0.0000    0.0000    0.0000   -0.0000    0.0000
                0.1065  -1.2991e-004   5.7847e-005   2.9670e-005  -3.2158e+004   5.3927e+003   5.9340e+002    0.0000    0.0000    0.0000   -0.0000    0.0000
                0.2130  -1.3140e-004   5.8506e-005   3.1082e-005  -3.2528e+004   5.4532e+003   6.2163e+002    0.0000    0.0000    0.0000   -0.0000    0.0000
                0.3195  -1.3289e-004   5.9165e-005   3.2511e-005  -3.2898e+004   5.5137e+003   6.5022e+002    0.0000    0.0000    0.0000   -0.0000    0.0000
                0.4259  -1.3438e-004   5.9825e-005   3.3958e-005  -3.3267e+004   5.5742e+003   6.7917e+002    0.0000    0.0000    0.0000   -0.0000    0.0000
                0.5324  -1.3587e-004   6.0484e-005   3.5423e-005  -3.3637e+004   5.6348e+003   7.0847e+002    0.0000    0.0000    0.0000   -0.0000    0.0000
                0.6389  -1.3737e-004   6.1143e-005   3.6906e-005  -3.4007e+004   5.6953e+003   7.3813e+002    0.0000    0.0000    0.0000   -0.0000    0.0000
                0.7454  -1.3886e-004   6.1803e-005   3.8407e-005  -3.4376e+004   5.7558e+003   7.6814e+002    0.0000    0.0000    0.0000   -0.0000    0.0000
                0.8519  -1.4035e-004   6.2462e-005   3.9925e-005  -3.4746e+004   5.8163e+003   7.9851e+002    0.0000    0.0000    0.0000   -0.0000    0.0000
                0.9584  -1.4184e-004   6.3121e-005   4.1462e-005  -3.5116e+004   5.8769e+003   8.2923e+002    0.0000    0.0000    0.0000   -0.0000    0.0000

               lamina:  3     
              matName:  (web-shell)
                     s           e11           e22           e12           s11           s22           s12   s11_fcT   s11_fcC   s22_fcT   s22_fcC   s12_fcS
                   (m)         (m/m)         (m/m)         (rad)          (Pa)          (Pa)          (Pa)       (-)       (-)       (-)       (-)       (-)
                0.0000  -1.0407e-004   4.5580e-005   2.8276e-005  -1.5173e+006  -1.2053e+005   3.3931e+005    0.0000    0.0071    0.0000    0.0000    0.0038
                0.1065  -1.0556e-004   4.6239e-005   2.9670e-005  -1.5390e+006  -1.2214e+005   3.5604e+005    0.0000    0.0072    0.0000    0.0000    0.0040
                0.2130  -1.0706e-004   4.6899e-005   3.1082e-005  -1.5607e+006  -1.2375e+005   3.7298e+005    0.0000    0.0073    0.0000    0.0000    0.0041
                0.3195  -1.0855e-004   4.7558e-005   3.2511e-005  -1.5824e+006  -1.2537e+005   3.9013e+005    0.0000    0.0074    0.0000    0.0000    0.0043
                0.4259  -1.1004e-004   4.8217e-005   3.3958e-005  -1.6040e+006  -1.2698e+005   4.0750e+005    0.0000    0.0075    0.0000    0.0000    0.0045
                0.5324  -1.1153e-004   4.8876e-005   3.5423e-005  -1.6257e+006  -1.2860e+005   4.2508e+005    0.0000    0.0076    0.0000    0.0000    0.0047
                0.6389  -1.1302e-004   4.9536e-005   3.6906e-005  -1.6474e+006  -1.3021e+005   4.4288e+005    0.0000    0.0077    0.0000    0.0000    0.0049
                0.7454  -1.1451e-004   5.0195e-005   3.8407e-005  -1.6691e+006  -1.3182e+005   4.6088e+005    0.0000    0.0078    0.0000    0.0000    0.0051
                0.8519  -1.1601e-004   5.0854e-005   3.9925e-005  -1.6908e+006  -1.3344e+005   4.7910e+005    0.0000    0.0079    0.0000    0.0000    0.0053
                0.9584  -1.1750e-004   5.1514e-005   4.1462e-005  -1.7125e+006  -1.3505e+005   4.9754e+005    0.0000    0.0080    0.0000    0.0000    0.0055

            panel:  3     
           lam_num    nPlies        tPly      fibAng     matID  matName
               (-)       (-)         (m)       (deg)       (-)  (-)
                 1         1    0.001500      0.0000         7  (web-shell)
                 2         1    0.080000      0.0000         8  (web-core)
                 3         1    0.001500      0.0000         7  (web-shell)

               lamina:  1     
              matName:  (web-shell)
                     s           e11           e22           e12           s11           s22           s12   s11_fcT   s11_fcC   s22_fcT   s22_fcC   s12_fcS
                   (m)         (m/m)         (m/m)         (rad)          (Pa)          (Pa)          (Pa)       (-)       (-)       (-)       (-)       (-)
                0.0000  -3.5417e-004   1.5699e-004   3.4899e-005  -5.1459e+006  -3.7505e+005   4.1878e+005    0.0000    0.0242    0.0000    0.0000    0.0047
                0.0605  -3.5502e-004   1.5737e-004   3.7212e-005  -5.1582e+006  -3.7597e+005   4.4654e+005    0.0000    0.0242    0.0000    0.0000    0.0050
                0.1209  -3.5587e-004   1.5774e-004   3.9531e-005  -5.1706e+006  -3.7689e+005   4.7438e+005    0.0000    0.0243    0.0000    0.0000    0.0053
                0.1814  -3.5672e-004   1.5812e-004   4.1856e-005  -5.1829e+006  -3.7781e+005   5.0228e+005    0.0000    0.0243    0.0000    0.0000    0.0056
                0.2418  -3.5757e-004   1.5849e-004   4.4187e-005  -5.1953e+006  -3.7873e+005   5.3024e+005    0.0000    0.0244    0.0000    0.0000    0.0059
                0.3023  -3.5842e-004   1.5887e-004   4.6524e-005  -5.2077e+006  -3.7965e+005   5.5828e+005    0.0000    0.0244    0.0000    0.0000    0.0062
                0.3627  -3.5927e-004   1.5925e-004   4.8866e-005  -5.2200e+006  -3.8057e+005   5.8639e+005    0.0000    0.0245    0.0000    0.0000    0.0065
                0.4232  -3.6012e-004   1.5962e-004   5.1214e-005  -5.2324e+006  -3.8149e+005   6.1457e+005    0.0000    0.0246    0.0000    0.0000    0.0068
                0.4836  -3.6097e-004   1.6000e-004   5.3568e-005  -5.2447e+006  -3.8241e+005   6.4281e+005    0.0000    0.0246    0.0000    0.0000    0.0071
                0.5441  -3.6182e-004   1.6037e-004   5.5927e-005  -5.2571e+006  -3.8333e+005   6.7112e+005    0.0000    0.0247    0.0000    0.0000    0.0075

               lamina:  2     
              matName:  (web-core)
                     s           e11           e22           e12           s11           s22           s12   s11_fcT   s11_fcC   s22_fcT   s22_fcC   s12_fcS
                   (m)         (m/m)         (m/m)         (rad)          (Pa)          (Pa)          (Pa)       (-)       (-)       (-)       (-)       (-)
                0.0000  -3.5371e-004   1.5677e-004   3.4899e-005  -8.7622e+004   1.4474e+004   6.9797e+002    0.0000    0.0000    0.0000   -0.0000    0.0000
                0.0605  -3.5456e-004   1.5715e-004   3.7212e-005  -8.7833e+004   1.4509e+004   7.4424e+002    0.0000    0.0000    0.0000   -0.0000    0.0000
                0.1209  -3.5541e-004   1.5753e-004   3.9531e-005  -8.8044e+004   1.4543e+004   7.9063e+002    0.0000    0.0000    0.0000   -0.0000    0.0000
                0.1814  -3.5626e-004   1.5790e-004   4.1856e-005  -8.8254e+004   1.4578e+004   8.3713e+002    0.0000    0.0000    0.0000   -0.0000    0.0000
                0.2418  -3.5711e-004   1.5828e-004   4.4187e-005  -8.8465e+004   1.4612e+004   8.8374e+002    0.0000    0.0000    0.0000   -0.0000    0.0000
                0.3023  -3.5796e-004   1.5865e-004   4.6524e-005  -8.8676e+004   1.4647e+004   9.3047e+002    0.0000    0.0000    0.0000   -0.0000    0.0000
                0.3627  -3.5881e-004   1.5903e-004   4.8866e-005  -8.8886e+004   1.4681e+004   9.7732e+002    0.0000    0.0000    0.0000   -0.0000    0.0000
                0.4232  -3.5966e-004   1.5940e-004   5.1214e-005  -8.9097e+004   1.4716e+004   1.0243e+003    0.0000    0.0000    0.0000   -0.0000    0.0000
                0.4836  -3.6051e-004   1.5978e-004   5.3568e-005  -8.9307e+004   1.4750e+004   1.0714e+003    0.0000    0.0000    0.0000   -0.0000    0.0000
                0.5441  -3.6136e-004   1.6015e-004   5.5927e-005  -8.9518e+004   1.4785e+004   1.1185e+003    0.0000    0.0000    0.0000   -0.0000    0.0000

               lamina:  3     
              matName:  (web-shell)
                     s           e11           e22           e12           s11           s22           s12   s11_fcT   s11_fcC   s22_fcT   s22_fcC   s12_fcS
                   (m)         (m/m)         (m/m)         (rad)          (Pa)          (Pa)          (Pa)       (-)       (-)       (-)       (-)       (-)
                0.0000  -3.2937e-004   1.4517e-004   3.4899e-005  -4.7933e+006  -3.6432e+005   4.1878e+005    0.0000    0.0225    0.0000    0.0000    0.0047
                0.0605  -3.3022e-004   1.4554e-004   3.7212e-005  -4.8057e+006  -3.6524e+005   4.4654e+005    0.0000    0.0226    0.0000    0.0000    0.0050
                0.1209  -3.3107e-004   1.4592e-004   3.9531e-005  -4.8180e+006  -3.6616e+005   4.7438e+005    0.0000    0.0226    0.0000    0.0000    0.0053
                0.1814  -3.3192e-004   1.4629e-004   4.1856e-005  -4.8304e+006  -3.6708e+005   5.0228e+005    0.0000    0.0227    0.0000    0.0000    0.0056
                0.2418  -3.3277e-004   1.4667e-004   4.4187e-005  -4.8427e+006  -3.6800e+005   5.3024e+005    0.0000    0.0227    0.0000    0.0000    0.0059
                0.3023  -3.3362e-004   1.4704e-004   4.6524e-005  -4.8551e+006  -3.6892e+005   5.5828e+005    0.0000    0.0228    0.0000    0.0000    0.0062
                0.3627  -3.3447e-004   1.4742e-004   4.8866e-005  -4.8675e+006  -3.6984e+005   5.8639e+005    0.0000    0.0229    0.0000    0.0000    0.0065
                0.4232  -3.3532e-004   1.4780e-004   5.1214e-005  -4.8798e+006  -3.7076e+005   6.1457e+005    0.0000    0.0229    0.0000    0.0000    0.0068
                0.4836  -3.3617e-004   1.4817e-004   5.3568e-005  -4.8922e+006  -3.7168e+005   6.4281e+005    0.0000    0.0230    0.0000    0.0000    0.0071
                0.5441  -3.3702e-004   1.4855e-004   5.5927e-005  -4.9045e+006  -3.7260e+005   6.7112e+005    0.0000    0.0230    0.0000    0.0000    0.0075

================================================================================
sec        =  25     
zSec       =  63.3000  (m)
nPanelsTop =  4      
nPanelsBot =  4      
nWebs      =  2      

    Top:  panel  nNode   nLam     xc_St    xc_End         b         t         E_eff         G_eff      nu_eff     density  buckleCrit
            (-)    (-)    (-)       (-)       (-)       (m)       (m)          (Pa)          (Pa)         (-)    (kg/m^3)         (-)
              1     11      3    0.0000    0.2411    1.4095    0.0700   4.2251e+009   1.0171e+009      0.3899    435.7143      0.0000
              2      8      5    0.2411    0.5089    1.3919    0.0837   4.0350e+010   3.4776e+009      0.2951   1911.5998      0.0000
              3      2      3    0.5089    0.5094    0.0030    0.0221   1.2806e+010   3.1764e+009      0.3978    946.1468      0.0000
              4     16      3    0.5094    1.0000    2.6293    0.0221   1.2806e+010   3.1764e+009      0.3978    946.1468      0.5560

            panel:  1     
           lam_num    nPlies        tPly      fibAng     matID  matName
               (-)       (-)         (m)       (deg)       (-)  (-)
                 1         1    0.005000      0.0000         2  (blade-shell)
                 2         1    0.060000      0.0000         5  (LEP-core)
                 3         1    0.005000      0.0000         2  (blade-shell)

               lamina:  1     
              matName:  (blade-shell)
                     s           e11           e22           e12           s11           s22           s12   s11_fcT   s11_fcC   s22_fcT   s22_fcC   s12_fcS
                   (m)         (m/m)         (m/m)         (rad)          (Pa)          (Pa)          (Pa)       (-)       (-)       (-)       (-)       (-)
                0.0000   3.9824e-004  -1.5532e-004   5.3399e-005   1.1175e+007   6.0531e+004   3.7379e+005    0.0776   -0.0000    0.0000   -0.0000    0.0062
                0.0663   3.9526e-004  -1.5415e-004   4.5318e-005   1.1091e+007   6.0126e+004   3.1722e+005    0.0770   -0.0000    0.0000   -0.0000    0.0053
                0.1306   3.8681e-004  -1.5085e-004   3.7564e-005   1.0854e+007   5.8980e+004   2.6295e+005    0.0754   -0.0000    0.0000   -0.0000    0.0044
                0.2181   3.7316e-004  -1.4552e-004   2.7291e-005   1.0471e+007   5.6998e+004   1.9103e+005    0.0727   -0.0000    0.0000   -0.0000    0.0032
                0.3315   3.5447e-004  -1.3823e-004   1.4523e-005   9.9469e+006   5.4198e+004   1.0166e+005    0.0691   -0.0000    0.0000   -0.0000    0.0017
                0.4691   3.3090e-004  -1.2903e-004   1.0030e-007   9.2853e+006   5.0631e+004   7.0210e+002    0.0645   -0.0000    0.0000   -0.0000    0.0000
                0.6287   3.0269e-004  -1.1803e-004   1.5786e-005   8.4938e+006   4.6342e+004   1.1050e+005    0.0590   -0.0000    0.0000   -0.0000    0.0018
                0.8091   2.7016e-004  -1.0535e-004   3.1837e-005   7.5811e+006   4.1379e+004   2.2286e+005    0.0526   -0.0000    0.0000   -0.0000    0.0037
                1.0086   2.3366e-004  -9.1111e-005   4.7453e-005   6.5568e+006   3.5802e+004   3.3217e+005    0.0455   -0.0000    0.0000   -0.0000    0.0055
                1.2248   1.9360e-004  -7.5488e-005   6.1809e-005   5.4325e+006   2.9673e+004   4.3266e+005    0.0377   -0.0000    0.0000   -0.0000    0.0072
                1.4095   1.5916e-004  -6.2060e-005   7.1938e-005   4.4662e+006   2.4391e+004   5.0357e+005    0.0310   -0.0000    0.0000   -0.0000    0.0084

               lamina:  2     
              matName:  (LEP-core)
                     s           e11           e22           e12           s11           s22           s12   s11_fcT   s11_fcC   s22_fcT   s22_fcC   s12_fcS
                   (m)         (m/m)         (m/m)         (rad)          (Pa)          (Pa)          (Pa)       (-)       (-)       (-)       (-)       (-)
                0.0000   3.9714e-004  -1.5488e-004   5.3399e-005   1.0019e+005  -1.0211e+004   1.0680e+003    0.0000   -0.0000    0.0000    0.0000    0.0000
                0.0663   3.9423e-004  -1.5374e-004   4.5318e-005   9.9459e+004  -1.0136e+004   9.0636e+002    0.0000   -0.0000    0.0000    0.0000    0.0000
                0.1306   3.8599e-004  -1.5052e-004   3.7564e-005   9.7380e+004  -9.9215e+003   7.5128e+002    0.0000   -0.0000    0.0000    0.0000    0.0000
                0.2181   3.7250e-004  -1.4526e-004   2.7291e-005   9.3979e+004  -9.5733e+003   5.4581e+002    0.0000   -0.0000    0.0000    0.0000    0.0000
                0.3315   3.5392e-004  -1.3801e-004   1.4523e-005   8.9290e+004  -9.0948e+003   2.9045e+002    0.0000   -0.0000    0.0000    0.0000    0.0000
                0.4691   3.3043e-004  -1.2884e-004   1.0030e-007   8.3364e+004  -8.4906e+003   2.0060e+000    0.0000   -0.0000    0.0000    0.0000    0.0000
                0.6287   3.0230e-004  -1.1787e-004   1.5786e-005   7.6267e+004  -7.7673e+003   3.1571e+002    0.0000   -0.0000    0.0000    0.0000    0.0000
                0.8091   2.6983e-004  -1.0522e-004   3.1837e-005   6.8077e+004  -6.9329e+003   6.3675e+002    0.0000   -0.0000    0.0000    0.0000    0.0000
                1.0086   2.3339e-004  -9.1006e-005   4.7453e-005   5.8884e+004  -5.9965e+003   9.4905e+002    0.0000   -0.0000    0.0000    0.0000    0.0000
                1.2248   1.9339e-004  -7.5406e-005   6.1809e-005   4.8791e+004  -4.9684e+003   1.2362e+003    0.0000   -0.0000    0.0000    0.0000    0.0000
                1.4095   1.5898e-004  -6.1991e-005   7.1938e-005   4.0110e+004  -4.0846e+003   1.4388e+003    0.0000   -0.0000    0.0000    0.0000    0.0000

               lamina:  3     
              matName:  (blade-shell)
                     s           e11           e22           e12           s11           s22           s12   s11_fcT   s11_fcC   s22_fcT   s22_fcC   s12_fcS
                   (m)         (m/m)         (m/m)         (rad)          (Pa)          (Pa)          (Pa)       (-)       (-)       (-)       (-)       (-)
                0.0000   3.8390e-004  -1.4963e-004   5.3399e-005   1.0773e+007   5.9856e+004   3.7379e+005    0.0748   -0.0000    0.0000   -0.0000    0.0062
                0.0663   3.8185e-004  -1.4883e-004   4.5318e-005   1.0716e+007   5.9494e+004   3.1722e+005    0.0744   -0.0000    0.0000   -0.0000    0.0053
                0.1306   3.7611e-004  -1.4660e-004   3.7564e-005   1.0554e+007   5.8476e+004   2.6295e+005    0.0733   -0.0000    0.0000   -0.0000    0.0044
                0.2181   3.6456e-004  -1.4210e-004   2.7291e-005   1.0230e+007   5.6593e+004   1.9103e+005    0.0710   -0.0000    0.0000   -0.0000    0.0032
                0.3315   3.4725e-004  -1.3536e-004   1.4523e-005   9.7445e+006   5.3858e+004   1.0166e+005    0.0677   -0.0000    0.0000   -0.0000    0.0017
                0.4691   3.2480e-004  -1.2661e-004   1.0030e-007   9.1145e+006   5.0343e+004   7.0210e+002    0.0633   -0.0000    0.0000   -0.0000    0.0000
                0.6287   2.9759e-004  -1.1601e-004   1.5786e-005   8.3510e+006   4.6102e+004   1.1050e+005    0.0580   -0.0000    0.0000   -0.0000    0.0018
                0.8091   2.6590e-004  -1.0365e-004   3.1837e-005   7.4617e+006   4.1178e+004   2.2286e+005    0.0518   -0.0000    0.0000   -0.0000    0.0037
                1.0086   2.3021e-004  -8.9743e-005   4.7453e-005   6.4602e+006   3.5640e+004   3.3217e+005    0.0449   -0.0000    0.0000   -0.0000    0.0055
                1.2248   1.9091e-004  -7.4424e-005   6.1809e-005   5.3574e+006   2.9547e+004   4.3266e+005    0.0372   -0.0000    0.0000   -0.0000    0.0072
                1.4095   1.5689e-004  -6.1161e-005   7.1938e-005   4.4027e+006   2.4285e+004   5.0357e+005    0.0306   -0.0000    0.0000   -0.0000    0.0084

            panel:  2     
           lam_num    nPlies        tPly      fibAng     matID  matName
               (-)       (-)         (m)       (deg)       (-)  (-)
                 1         1    0.005000      0.0000         2  (blade-shell)
                 2         1    0.036869      0.0000         3  (spar-uni)
                 3         1    0.000002      0.0000         4  (spar-core)
                 4         1    0.036869      0.0000         3  (spar-uni)
                 5         1    0.005000      0.0000         2  (blade-shell)

               lamina:  1     
              matName:  (blade-shell)
                     s           e11           e22           e12           s11           s22           s12   s11_fcT   s11_fcC   s22_fcT   s22_fcC   s12_fcS
                   (m)         (m/m)         (m/m)         (rad)          (Pa)          (Pa)          (Pa)       (-)       (-)       (-)       (-)       (-)
                0.0000   1.6164e-004  -4.7790e-005   1.3132e-005   4.6286e+006   2.5666e+005   9.1921e+004    0.0321   -0.0000    0.0000   -0.0000    0.0015
                0.0454   1.5223e-004  -4.4989e-005   1.9237e-005   4.3592e+006   2.4201e+005   1.3466e+005    0.0303   -0.0000    0.0000   -0.0000    0.0022
                0.2895   1.0579e-004  -3.1263e-005   4.6269e-005   3.0295e+006   1.6821e+005   3.2388e+005    0.0210   -0.0000    0.0000   -0.0000    0.0054
                0.5429   5.6851e-005  -1.6786e-005   6.4040e-005   1.6281e+006   9.0604e+004   4.4828e+005    0.0113   -0.0000    0.0000   -0.0000    0.0075
                0.8047   6.4022e-006  -1.8671e-006   7.1335e-005   1.8348e+005   1.0557e+004   4.9935e+005    0.0013   -0.0000    0.0000   -0.0000    0.0083
                1.0729  -4.5320e-005   1.3432e-005   6.7165e-005  -1.2975e+006  -7.1454e+004   4.7015e+005    0.0000    0.0061    0.0000    0.0000    0.0078
                1.3463  -9.7006e-005   2.8703e-005   5.0825e-005  -2.7776e+006  -1.5369e+005   3.5577e+005    0.0000    0.0130    0.0000    0.0000    0.0059
                1.3919  -1.0626e-004   3.1453e-005   4.6922e-005  -3.0425e+006  -1.6815e+005   3.2845e+005    0.0000    0.0143    0.0000    0.0000    0.0055

               lamina:  2     
              matName:  (spar-uni)
                     s           e11           e22           e12           s11           s22           s12   s11_fcT   s11_fcC   s22_fcT   s22_fcC   s12_fcS
                   (m)         (m/m)         (m/m)         (rad)          (Pa)          (Pa)          (Pa)       (-)       (-)       (-)       (-)       (-)
                0.0000   1.6118e-004  -4.7641e-005   1.3132e-005   6.7593e+006  -3.6114e+004   3.9395e+004    0.0070   -0.0000    0.0000    0.0000    0.0013
                0.0454   1.5188e-004  -4.4878e-005   1.9237e-005   6.3696e+006  -3.3792e+004   5.7710e+004    0.0066   -0.0000    0.0000    0.0000    0.0019
                0.2895   1.0556e-004  -3.1189e-005   4.6269e-005   4.4269e+006  -2.3465e+004   1.3881e+005    0.0046   -0.0000    0.0000    0.0000    0.0046
                0.5429   5.6794e-005  -1.6768e-005   6.4040e-005   2.3818e+006  -1.2447e+004   1.9212e+005    0.0025   -0.0000    0.0000    0.0000    0.0064
                0.8047   7.2967e-006  -2.1530e-006   7.1335e-005   3.0602e+005  -1.5801e+003   2.1401e+005    0.0003   -0.0000    0.0000    0.0000    0.0071
                1.0729  -4.5027e-005   1.3339e-005   6.7165e-005  -1.8882e+006   1.0512e+004   2.0149e+005    0.0000    0.0027    0.0000   -0.0000    0.0067
                1.3463  -9.6616e-005   2.8578e-005   5.0825e-005  -4.0517e+006   2.1936e+004   1.5247e+005    0.0000    0.0058    0.0000   -0.0000    0.0051
                1.3919  -1.0577e-004   3.1297e-005   4.6922e-005  -4.4355e+006   2.4174e+004   1.4077e+005    0.0000    0.0063    0.0000   -0.0000    0.0047

               lamina:  3     
              matName:  (spar-core)
                     s           e11           e22           e12           s11           s22           s12   s11_fcT   s11_fcC   s22_fcT   s22_fcC   s12_fcS
                   (m)         (m/m)         (m/m)         (rad)          (Pa)          (Pa)          (Pa)       (-)       (-)       (-)       (-)       (-)
                0.0000   1.5774e-004  -4.6543e-005   1.3132e-005   4.1079e+004   2.2246e+002   2.6263e+002    0.0000   -0.0000    0.0000   -0.0000    0.0000
                0.0454   1.4932e-004  -4.4060e-005   1.9237e-005   3.8887e+004   2.1059e+002   3.8473e+002    0.0000   -0.0000    0.0000   -0.0000    0.0000
                0.2895   1.0384e-004  -3.0639e-005   4.6269e-005   2.7042e+004   1.4644e+002   9.2538e+002    0.0000   -0.0000    0.0000   -0.0000    0.0000
                0.5429   5.6373e-005  -1.6634e-005   6.4040e-005   1.4681e+004   7.9501e+001   1.2808e+003    0.0000   -0.0000    0.0000   -0.0000    0.0000
                0.8047   7.2968e-006  -2.1530e-006   7.1335e-005   1.9003e+003   1.0291e+001   1.4267e+003    0.0000   -0.0000    0.0000   -0.0000    0.0000
                1.0729  -4.2864e-005   1.2648e-005   6.7165e-005  -1.1163e+004  -6.0451e+001   1.3433e+003    0.0000    0.0000    0.0000    0.0000    0.0000
                1.3463  -9.3738e-005   2.7659e-005   5.0825e-005  -2.4411e+004  -1.3220e+002   1.0165e+003    0.0000    0.0000    0.0000    0.0000    0.0000
                1.3919  -1.0216e-004   3.0145e-005   4.6922e-005  -2.6606e+004  -1.4408e+002   9.3844e+002    0.0000    0.0000    0.0000    0.0000    0.0000

               lamina:  4     
              matName:  (spar-uni)
                     s           e11           e22           e12           s11           s22           s12   s11_fcT   s11_fcC   s22_fcT   s22_fcC   s12_fcS
                   (m)         (m/m)         (m/m)         (rad)          (Pa)          (Pa)          (Pa)       (-)       (-)       (-)       (-)       (-)
                0.0000   1.5774e-004  -4.6543e-005   1.3132e-005   6.6155e+006  -3.4159e+004   3.9395e+004    0.0068   -0.0000    0.0000    0.0000    0.0013
                0.0454   1.4932e-004  -4.4060e-005   1.9237e-005   6.2625e+006  -3.2337e+004   5.7710e+004    0.0064   -0.0000    0.0000    0.0000    0.0019
                0.2895   1.0384e-004  -3.0639e-005   4.6269e-005   4.3549e+006  -2.2487e+004   1.3881e+005    0.0045   -0.0000    0.0000    0.0000    0.0046
                0.5429   5.6373e-005  -1.6634e-005   6.4040e-005   2.3642e+006  -1.2208e+004   1.9212e+005    0.0024   -0.0000    0.0000    0.0000    0.0064
                0.8047   8.1914e-006  -2.4389e-006   7.1335e-005   3.4345e+005  -2.0888e+003   2.1401e+005    0.0004   -0.0000    0.0000    0.0000    0.0071
                1.0729  -4.2864e-005   1.2648e-005   6.7165e-005  -1.7977e+006   9.2825e+003   2.0149e+005    0.0000    0.0026    0.0000   -0.0000    0.0067
                1.3463  -9.3737e-005   2.7659e-005   5.0825e-005  -3.9313e+006   2.0299e+004   1.5247e+005    0.0000    0.0056    0.0000   -0.0000    0.0051
                1.3919  -1.0216e-004   3.0145e-005   4.6922e-005  -4.2846e+006   2.2124e+004   1.4077e+005    0.0000    0.0061    0.0000   -0.0000    0.0047

               lamina:  5     
              matName:  (blade-shell)
                     s           e11           e22           e12           s11           s22           s12   s11_fcT   s11_fcC   s22_fcT   s22_fcC   s12_fcS
                   (m)         (m/m)         (m/m)         (rad)          (Pa)          (Pa)          (Pa)       (-)       (-)       (-)       (-)       (-)
                0.0000   1.5430e-004  -4.5445e-005   1.3132e-005   4.4195e+006   2.4768e+005   9.1921e+004    0.0307   -0.0000    0.0000   -0.0000    0.0015
                0.0454   1.4676e-004  -4.3242e-005   1.9237e-005   4.2035e+006   2.3531e+005   1.3466e+005    0.0292   -0.0000    0.0000   -0.0000    0.0022
                0.2895   1.0212e-004  -3.0089e-005   4.6269e-005   2.9248e+006   1.6371e+005   3.2388e+005    0.0203   -0.0000    0.0000   -0.0000    0.0054
                0.5429   5.5952e-005  -1.6499e-005   6.4040e-005   1.6024e+006   8.9503e+004   4.4828e+005    0.0111   -0.0000    0.0000   -0.0000    0.0075
                0.8047   8.3127e-006  -2.4777e-006   7.1335e-005   2.3791e+005   1.2895e+004   4.9935e+005    0.0017   -0.0000    0.0000   -0.0000    0.0083
                1.0729  -4.0702e-005   1.1957e-005   6.7165e-005  -1.1660e+006  -6.5801e+004   4.7015e+005    0.0000    0.0055    0.0000    0.0000    0.0078
                1.3463  -9.0859e-005   2.6739e-005   5.0825e-005  -2.6025e+006  -1.4616e+005   3.5577e+005    0.0000    0.0122    0.0000    0.0000    0.0059
                1.3919  -9.8557e-005   2.8992e-005   4.6922e-005  -2.8231e+006  -1.5872e+005   3.2845e+005    0.0000    0.0133    0.0000    0.0000    0.0055

            panel:  3     
           lam_num    nPlies        tPly      fibAng     matID  matName
               (-)       (-)         (m)       (deg)       (-)  (-)
                 1         1    0.005000      0.0000         2  (blade-shell)
                 2         1    0.012114      0.0000         6  (TEP-core)
                 3         1    0.005000      0.0000         2  (blade-shell)

               lamina:  1     
              matName:  (blade-shell)
                     s           e11           e22           e12           s11           s22           s12   s11_fcT   s11_fcC   s22_fcT   s22_fcC   s12_fcS
                   (m)         (m/m)         (m/m)         (rad)          (Pa)          (Pa)          (Pa)       (-)       (-)       (-)       (-)       (-)
                0.0000  -1.0365e-004   4.1230e-005   1.9453e-004  -2.9036e+006  -3.4920e+003   1.3617e+006    0.0000    0.0136    0.0000    0.0000    0.0227
                0.0030  -1.0420e-004   4.1451e-005   1.9444e-004  -2.9191e+006  -3.5108e+003   1.3611e+006    0.0000    0.0137    0.0000    0.0000    0.0227

               lamina:  2     
              matName:  (TEP-core)
                     s           e11           e22           e12           s11           s22           s12   s11_fcT   s11_fcC   s22_fcT   s22_fcC   s12_fcS
                   (m)         (m/m)         (m/m)         (rad)          (Pa)          (Pa)          (Pa)       (-)       (-)       (-)       (-)       (-)
                0.0000  -1.0340e-004   4.1131e-005   1.9453e-004  -2.6018e+004   2.8888e+003   3.8906e+003    0.0000    0.0000    0.0000   -0.0000    0.0000
                0.0030  -1.0396e-004   4.1352e-005   1.9444e-004  -2.6157e+004   2.9043e+003   3.8888e+003    0.0000    0.0000    0.0000   -0.0000    0.0000

               lamina:  3     
              matName:  (blade-shell)
                     s           e11           e22           e12           s11           s22           s12   s11_fcT   s11_fcC   s22_fcT   s22_fcC   s12_fcS
                   (m)         (m/m)         (m/m)         (rad)          (Pa)          (Pa)          (Pa)       (-)       (-)       (-)       (-)       (-)
                0.0000  -1.0280e-004   4.0890e-005   1.9453e-004  -2.8797e+006  -3.4872e+003   1.3617e+006    0.0000    0.0135    0.0000    0.0000    0.0227
                0.0030  -1.0335e-004   4.1111e-005   1.9444e-004  -2.8953e+006  -3.5060e+003   1.3611e+006    0.0000    0.0136    0.0000    0.0000    0.0227

            panel:  4     
           lam_num    nPlies        tPly      fibAng     matID  matName
               (-)       (-)         (m)       (deg)       (-)  (-)
                 1         1    0.005000      0.0000         2  (blade-shell)
                 2         1    0.012114      0.0000         6  (TEP-core)
                 3         1    0.005000      0.0000         2  (blade-shell)

               lamina:  1     
              matName:  (blade-shell)
                     s           e11           e22           e12           s11           s22           s12   s11_fcT   s11_fcC   s22_fcT   s22_fcC   s12_fcS
                   (m)         (m/m)         (m/m)         (rad)          (Pa)          (Pa)          (Pa)       (-)       (-)       (-)       (-)       (-)
                0.0000  -1.0420e-004   4.1451e-005   2.3527e-004  -2.9191e+006  -3.5108e+003   1.6469e+006    0.0000    0.0137    0.0000    0.0000    0.0274
                0.2260  -1.4609e-004   5.8111e-005   2.3517e-004  -4.0924e+006  -4.9264e+003   1.6462e+006    0.0000    0.0192    0.0000    0.0000    0.0274
                0.5004  -1.9663e-004   7.8215e-005   2.3517e-004  -5.5082e+006  -6.6343e+003   1.6462e+006    0.0000    0.0259    0.0000    0.0000    0.0274
                0.7699  -2.4603e-004   9.7866e-005   2.2661e-004  -6.8921e+006  -8.3044e+003   1.5863e+006    0.0000    0.0324    0.0000    0.0000    0.0264
                1.0313  -2.9376e-004   1.1685e-004   2.1237e-004  -8.2292e+006  -9.9183e+003   1.4866e+006    0.0000    0.0386    0.0000    0.0000    0.0248
                1.2815  -3.3930e-004   1.3497e-004   1.9430e-004  -9.5049e+006  -1.1458e+004   1.3601e+006    0.0000    0.0446    0.0000    0.0000    0.0227
                1.5175  -3.8216e-004   1.5201e-004   1.7291e-004  -1.0706e+007  -1.2908e+004   1.2104e+006    0.0000    0.0503    0.0000    0.0000    0.0202
                1.7365  -4.2186e-004   1.6781e-004   1.4889e-004  -1.1818e+007  -1.4251e+004   1.0423e+006    0.0000    0.0555    0.0000    0.0000    0.0174
                1.9361  -4.5799e-004   1.8218e-004   1.2308e-004  -1.2830e+007  -1.5473e+004   8.6153e+005    0.0000    0.0602    0.0000    0.0000    0.0144
                2.1137  -4.9013e-004   1.9496e-004   9.6359e-005  -1.3730e+007  -1.6561e+004   6.7452e+005    0.0000    0.0645    0.0000    0.0000    0.0112
                2.2675  -5.1796e-004   2.0603e-004   6.9727e-005  -1.4510e+007  -1.7502e+004   4.8809e+005    0.0000    0.0681    0.0000    0.0000    0.0081
                2.3959  -5.4115e-004   2.1526e-004   4.4168e-005  -1.5160e+007  -1.8287e+004   3.0918e+005    0.0000    0.0712    0.0000    0.0000    0.0052
                2.4974  -5.5946e-004   2.2254e-004   2.0641e-005  -1.5673e+007  -1.8906e+004   1.4449e+005    0.0000    0.0736    0.0000    0.0000    0.0024
                2.5710  -5.7268e-004   2.2780e-004   6.3074e-009  -1.6043e+007  -1.9353e+004   4.4151e+001    0.0000    0.0753    0.0000    0.0000    0.0000
                2.6140  -5.8081e-004   2.3104e-004   1.6949e-005  -1.6271e+007  -1.9617e+004   1.1864e+005    0.0000    0.0764    0.0000    0.0000    0.0020
                2.6293  -5.8381e-004   2.3223e-004   2.9590e-005  -1.6355e+007  -1.9694e+004   2.0713e+005    0.0000    0.0768    0.0000    0.0000    0.0035

               lamina:  2     
              matName:  (TEP-core)
                     s           e11           e22           e12           s11           s22           s12   s11_fcT   s11_fcC   s22_fcT   s22_fcC   s12_fcS
                   (m)         (m/m)         (m/m)         (rad)          (Pa)          (Pa)          (Pa)       (-)       (-)       (-)       (-)       (-)
                0.0000  -1.0396e-004   4.1352e-005   2.3527e-004  -2.6157e+004   2.9043e+003   4.7053e+003    0.0000    0.0000    0.0000   -0.0000    0.0000
                0.2260  -1.4581e-004   5.8000e-005   2.3517e-004  -3.6688e+004   4.0735e+003   4.7035e+003    0.0000    0.0000    0.0000   -0.0000    0.0000
                0.5004  -1.9631e-004   7.8089e-005   2.3517e-004  -4.9396e+004   5.4844e+003   4.7035e+003    0.0000    0.0000    0.0000   -0.0000    0.0000
                0.7699  -2.4569e-004   9.7729e-005   2.2661e-004  -6.1819e+004   6.8637e+003   4.5323e+003    0.0000    0.0000    0.0000   -0.0000    0.0000
                1.0313  -2.9339e-004   1.1671e-004   2.1237e-004  -7.3824e+004   8.1965e+003   4.2474e+003    0.0000    0.0000    0.0000   -0.0000    0.0000
                1.2815  -3.3892e-004   1.3482e-004   1.9430e-004  -8.5279e+004   9.4683e+003   3.8860e+003    0.0000    0.0000    0.0000   -0.0000    0.0000
                1.5175  -3.8177e-004   1.5186e-004   1.7291e-004  -9.6060e+004   1.0665e+004   3.4582e+003    0.0000    0.0000    0.0000   -0.0000    0.0000
                1.7365  -4.2146e-004   1.6765e-004   1.4889e-004  -1.0605e+005   1.1774e+004   2.9779e+003    0.0000    0.0000    0.0000   -0.0000    0.0000
                1.9361  -4.5758e-004   1.8202e-004   1.2308e-004  -1.1514e+005   1.2783e+004   2.4615e+003    0.0000    0.0000    0.0000   -0.0000    0.0000
                2.1137  -4.8973e-004   1.9480e-004   9.6359e-005  -1.2323e+005   1.3681e+004   1.9272e+003    0.0000    0.0000    0.0000   -0.0000    0.0000
                2.2675  -5.1755e-004   2.0587e-004   6.9727e-005  -1.3022e+005   1.4458e+004   1.3945e+003    0.0000    0.0000    0.0000   -0.0000    0.0000
                2.3959  -5.4073e-004   2.1509e-004   4.4168e-005  -1.3606e+005   1.5106e+004   8.8336e+002    0.0000    0.0000    0.0000   -0.0000    0.0000
                2.4974  -5.5903e-004   2.2237e-004   2.0641e-005  -1.4066e+005   1.5617e+004   4.1282e+002    0.0000    0.0000    0.0000   -0.0000    0.0000
                2.5710  -5.7224e-004   2.2763e-004   6.3074e-009  -1.4399e+005   1.5987e+004   1.2615e-001    0.0000    0.0000    0.0000   -0.0000    0.0000
                2.6140  -5.8021e-004   2.3080e-004   1.6949e-005  -1.4599e+005   1.6209e+004   3.3898e+002    0.0000    0.0000    0.0000   -0.0000    0.0000
                2.6293  -5.8280e-004   2.3183e-004   2.9590e-005  -1.4664e+005   1.6282e+004   5.9180e+002    0.0000    0.0000    0.0000   -0.0000    0.0000

               lamina:  3     
              matName:  (blade-shell)
                     s           e11           e22           e12           s11           s22           s12   s11_fcT   s11_fcC   s22_fcT   s22_fcC   s12_fcS
                   (m)         (m/m)         (m/m)         (rad)          (Pa)          (Pa)          (Pa)       (-)       (-)       (-)       (-)       (-)
                0.0000  -1.0335e-004   4.1111e-005   2.3527e-004  -2.8953e+006  -3.5060e+003   1.6469e+006    0.0000    0.0136    0.0000    0.0000    0.0274
                0.2260  -1.4514e-004   5.7732e-005   2.3517e-004  -4.0658e+006  -4.9210e+003   1.6462e+006    0.0000    0.0191    0.0000    0.0000    0.0274
                0.5004  -1.9555e-004   7.7784e-005   2.3517e-004  -5.4780e+006  -6.6283e+003   1.6462e+006    0.0000    0.0257    0.0000    0.0000    0.0274
                0.7699  -2.4486e-004   9.7397e-005   2.2661e-004  -6.8593e+006  -8.2978e+003   1.5863e+006    0.0000    0.0322    0.0000    0.0000    0.0264
                1.0313  -2.9251e-004   1.1635e-004   2.1237e-004  -8.1943e+006  -9.9113e+003   1.4866e+006    0.0000    0.0385    0.0000    0.0000    0.0248
                1.2815  -3.3800e-004   1.3445e-004   1.9430e-004  -9.4687e+006  -1.1451e+004   1.3601e+006    0.0000    0.0445    0.0000    0.0000    0.0227
                1.5175  -3.8082e-004   1.5148e-004   1.7291e-004  -1.0668e+007  -1.2901e+004   1.2104e+006    0.0000    0.0501    0.0000    0.0000    0.0202
                1.7365  -4.2050e-004   1.6726e-004   1.4889e-004  -1.1780e+007  -1.4244e+004   1.0423e+006    0.0000    0.0553    0.0000    0.0000    0.0174
                1.9361  -4.5661e-004   1.8163e-004   1.2308e-004  -1.2791e+007  -1.5466e+004   8.6153e+005    0.0000    0.0601    0.0000    0.0000    0.0144
                2.1137  -4.8875e-004   1.9441e-004   9.6359e-005  -1.3692e+007  -1.6553e+004   6.7452e+005    0.0000    0.0643    0.0000    0.0000    0.0112
                2.2675  -5.1655e-004   2.0547e-004   6.9727e-005  -1.4470e+007  -1.7495e+004   4.8809e+005    0.0000    0.0679    0.0000    0.0000    0.0081
                2.3959  -5.3971e-004   2.1468e-004   4.4168e-005  -1.5119e+007  -1.8279e+004   3.0918e+005    0.0000    0.0710    0.0000    0.0000    0.0052
                2.4974  -5.5798e-004   2.2195e-004   2.0641e-005  -1.5631e+007  -1.8897e+004   1.4449e+005    0.0000    0.0734    0.0000    0.0000    0.0024
                2.5710  -5.7120e-004   2.2721e-004   6.3074e-009  -1.6001e+007  -1.9344e+004   4.4151e+001    0.0000    0.0751    0.0000    0.0000    0.0000
                2.6140  -5.7874e-004   2.3021e-004   1.6949e-005  -1.6213e+007  -1.9606e+004   1.1864e+005    0.0000    0.0761    0.0000    0.0000    0.0020
                2.6293  -5.8037e-004   2.3086e-004   2.9590e-005  -1.6258e+007  -1.9674e+004   2.0713e+005    0.0000    0.0763    0.0000    0.0000    0.0035

  Bottom:  panel  nNode   nLam     xc_St    xc_End         b         t         E_eff         G_eff      nu_eff     density  buckleCrit
            (-)    (-)    (-)       (-)       (-)       (m)       (m)          (Pa)          (Pa)         (-)    (kg/m^3)         (-)
              1     11      3    0.0000    0.2411    1.3282    0.0700   4.2251e+009   1.0171e+009      0.3899    435.7143      0.0001
              2      8      5    0.2411    0.5089    1.3951    0.0837   4.0350e+010   3.4776e+009      0.2951   1911.5998      0.0000
              3      2      3    0.5089    0.5094    0.0030    0.0221   1.2806e+010   3.1764e+009      0.3978    946.1468      0.0000
              4     16      3    0.5094    1.0000    2.5969    0.0221   1.2806e+010   3.1764e+009      0.3978    946.1468      0.1917

            panel:  1     
           lam_num    nPlies        tPly      fibAng     matID  matName
               (-)       (-)         (m)       (deg)       (-)  (-)
                 1         1    0.005000      0.0000         2  (blade-shell)
                 2         1    0.060000      0.0000         5  (LEP-core)
                 3         1    0.005000      0.0000         2  (blade-shell)

               lamina:  1     
              matName:  (blade-shell)
                     s           e11           e22           e12           s11           s22           s12   s11_fcT   s11_fcC   s22_fcT   s22_fcC   s12_fcS
                   (m)         (m/m)         (m/m)         (rad)          (Pa)          (Pa)          (Pa)       (-)       (-)       (-)       (-)       (-)
                0.0000   3.9821e-004  -1.5531e-004   5.3399e-005   1.1174e+007   6.0543e+004   3.7379e+005    0.0776   -0.0000    0.0000   -0.0000    0.0062
                0.0405   3.9555e-004  -1.5426e-004   5.8346e-005   1.1099e+007   6.0207e+004   4.0842e+005    0.0771   -0.0000    0.0000   -0.0000    0.0068
                0.0967   3.8742e-004  -1.5108e-004   6.5133e-005   1.0871e+007   5.9116e+004   4.5593e+005    0.0755   -0.0000    0.0000   -0.0000    0.0076
                0.1768   3.7408e-004  -1.4587e-004   7.4558e-005   1.0497e+007   5.7197e+004   5.2191e+005    0.0729   -0.0000    0.0000   -0.0000    0.0087
                0.2814   3.5569e-004  -1.3870e-004   8.6405e-005   9.9811e+006   5.4459e+004   6.0483e+005    0.0693   -0.0000    0.0000   -0.0000    0.0101
                0.4111   3.3244e-004  -1.2963e-004   1.0026e-004   9.3286e+006   5.0944e+004   7.0183e+005    0.0648   -0.0000    0.0000   -0.0000    0.0117
                0.5637   3.0455e-004  -1.1875e-004   1.1538e-004   8.5460e+006   4.6701e+004   8.0766e+005    0.0593   -0.0000    0.0000   -0.0000    0.0135
                0.7383   2.7232e-004  -1.0618e-004   1.3106e-004   7.6416e+006   4.1779e+004   9.1741e+005    0.0531   -0.0000    0.0000   -0.0000    0.0153
                0.9329   2.3609e-004  -9.2054e-005   1.4647e-004   6.6249e+006   3.6238e+004   1.0253e+006    0.0460   -0.0000    0.0000   -0.0000    0.0171
                1.1456   1.9625e-004  -7.6519e-005   1.6080e-004   5.5071e+006   3.0138e+004   1.1256e+006    0.0382   -0.0000    0.0000   -0.0000    0.0188
                1.3282   1.6195e-004  -6.3144e-005   1.7099e-004   4.5445e+006   2.4875e+004   1.1970e+006    0.0316   -0.0000    0.0000   -0.0000    0.0199

               lamina:  2     
              matName:  (LEP-core)
                     s           e11           e22           e12           s11           s22           s12   s11_fcT   s11_fcC   s22_fcT   s22_fcC   s12_fcS
                   (m)         (m/m)         (m/m)         (rad)          (Pa)          (Pa)          (Pa)       (-)       (-)       (-)       (-)       (-)
                0.0000   3.9713e-004  -1.5488e-004   5.3399e-005   1.0019e+005  -1.0211e+004   1.0680e+003    0.0000   -0.0000    0.0000    0.0000    0.0000
                0.0405   3.9456e-004  -1.5387e-004   5.8346e-005   9.9544e+004  -1.0144e+004   1.1669e+003    0.0000   -0.0000    0.0000    0.0000    0.0000
                0.0967   3.8665e-004  -1.5078e-004   6.5133e-005   9.7548e+004  -9.9380e+003   1.3027e+003    0.0000   -0.0000    0.0000    0.0000    0.0000
                0.1768   3.7349e-004  -1.4564e-004   7.4558e-005   9.4229e+004  -9.5979e+003   1.4912e+003    0.0000   -0.0000    0.0000    0.0000    0.0000
                0.2814   3.5523e-004  -1.3852e-004   8.6405e-005   8.9622e+004  -9.1274e+003   1.7281e+003    0.0000   -0.0000    0.0000    0.0000    0.0000
                0.4111   3.3207e-004  -1.2948e-004   1.0026e-004   8.3779e+004  -8.5315e+003   2.0052e+003    0.0000   -0.0000    0.0000    0.0000    0.0000
                0.5637   3.0425e-004  -1.1863e-004   1.1538e-004   7.6760e+004  -7.8163e+003   2.3076e+003    0.0000   -0.0000    0.0000    0.0000    0.0000
                0.7383   2.7208e-004  -1.0609e-004   1.3106e-004   6.8644e+004  -6.9895e+003   2.6212e+003    0.0000   -0.0000    0.0000    0.0000    0.0000
                0.9329   2.3591e-004  -9.1981e-005   1.4647e-004   5.9517e+004  -6.0599e+003   2.9293e+003    0.0000   -0.0000    0.0000    0.0000    0.0000
                1.1456   1.9612e-004  -7.6467e-005   1.6080e-004   4.9480e+004  -5.0376e+003   3.2159e+003    0.0000   -0.0000    0.0000    0.0000    0.0000
                1.3282   1.6185e-004  -6.3104e-005   1.7099e-004   4.0833e+004  -4.1572e+003   3.4199e+003    0.0000   -0.0000    0.0000    0.0000    0.0000

               lamina:  3     
              matName:  (blade-shell)
                     s           e11           e22           e12           s11           s22           s12   s11_fcT   s11_fcC   s22_fcT   s22_fcC   s12_fcS
                   (m)         (m/m)         (m/m)         (rad)          (Pa)          (Pa)          (Pa)       (-)       (-)       (-)       (-)       (-)
                0.0000   3.8414e-004  -1.4972e-004   5.3399e-005   1.0780e+007   5.9880e+004   3.7379e+005    0.0749   -0.0000    0.0000   -0.0000    0.0062
                0.0405   3.8277e-004  -1.4919e-004   5.8346e-005   1.0741e+007   5.9605e+004   4.0842e+005    0.0746   -0.0000    0.0000   -0.0000    0.0068
                0.0967   3.7744e-004  -1.4712e-004   6.5133e-005   1.0592e+007   5.8645e+004   4.5593e+005    0.0736   -0.0000    0.0000   -0.0000    0.0076
                0.1768   3.6648e-004  -1.4286e-004   7.4558e-005   1.0284e+007   5.6840e+004   5.2191e+005    0.0714   -0.0000    0.0000   -0.0000    0.0087
                0.2814   3.4974e-004  -1.3634e-004   8.6405e-005   9.8144e+006   5.4179e+004   6.0483e+005    0.0682   -0.0000    0.0000   -0.0000    0.0101
                0.4111   3.2767e-004  -1.2773e-004   1.0026e-004   9.1949e+006   5.0720e+004   7.0183e+005    0.0639   -0.0000    0.0000   -0.0000    0.0117
                0.5637   3.0071e-004  -1.1723e-004   1.1538e-004   8.4386e+006   4.6521e+004   8.0766e+005    0.0586   -0.0000    0.0000   -0.0000    0.0135
                0.7383   2.6925e-004  -1.0496e-004   1.3106e-004   7.5555e+006   4.1635e+004   9.1741e+005    0.0525   -0.0000    0.0000   -0.0000    0.0153
                0.9329   2.3372e-004  -9.1115e-005   1.4647e-004   6.5587e+006   3.6127e+004   1.0253e+006    0.0455   -0.0000    0.0000   -0.0000    0.0171
                1.1456   1.9454e-004  -7.5843e-005   1.6080e-004   5.4593e+006   3.0058e+004   1.1256e+006    0.0379   -0.0000    0.0000   -0.0000    0.0188
                1.3282   1.6063e-004  -6.2620e-005   1.7099e-004   4.5075e+006   2.4813e+004   1.1970e+006    0.0313   -0.0000    0.0000   -0.0000    0.0199

            panel:  2     
           lam_num    nPlies        tPly      fibAng     matID  matName
               (-)       (-)         (m)       (deg)       (-)  (-)
                 1         1    0.005000      0.0000         2  (blade-shell)
                 2         1    0.036869      0.0000         3  (spar-uni)
                 3         1    0.000002      0.0000         4  (spar-core)
                 4         1    0.036869      0.0000         3  (spar-uni)
                 5         1    0.005000      0.0000         2  (blade-shell)

               lamina:  1     
              matName:  (blade-shell)
                     s           e11           e22           e12           s11           s22           s12   s11_fcT   s11_fcC   s22_fcT   s22_fcC   s12_fcS
                   (m)         (m/m)         (m/m)         (rad)          (Pa)          (Pa)          (Pa)       (-)       (-)       (-)       (-)       (-)
                0.0000   1.6340e-004  -4.8268e-005   4.8477e-005   4.6791e+006   2.6007e+005   3.3934e+005    0.0325   -0.0000    0.0000   -0.0000    0.0057
                0.0451   1.5409e-004  -4.5500e-005   5.4665e-005   4.4127e+006   2.4554e+005   3.8266e+005    0.0306   -0.0000    0.0000   -0.0000    0.0064
                0.2876   1.0788e-004  -3.1846e-005   8.2261e-005   3.0894e+006   1.7204e+005   5.7583e+005    0.0215   -0.0000    0.0000   -0.0000    0.0096
                0.5411   5.9261e-005  -1.7474e-005   1.0079e-004   1.6972e+006   9.4813e+004   7.0554e+005    0.0118   -0.0000    0.0000   -0.0000    0.0118
                0.8039   9.0240e-006  -2.6259e-006   1.0888e-004   2.5866e+005   1.4970e+004   7.6213e+005    0.0018   -0.0000    0.0000   -0.0000    0.0127
                1.0738  -4.2705e-005   1.2670e-005   1.0542e-004  -1.2226e+006  -6.7130e+004   7.3792e+005    0.0000    0.0057    0.0000    0.0000    0.0123
                1.3490  -9.4492e-005   2.7967e-005   8.9666e-005  -2.7056e+006  -1.4958e+005   6.2766e+005    0.0000    0.0127    0.0000    0.0000    0.0105
                1.3951  -1.0367e-004   3.0691e-005   8.5825e-005  -2.9684e+006  -1.6399e+005   6.0078e+005    0.0000    0.0139    0.0000    0.0000    0.0100

               lamina:  2     
              matName:  (spar-uni)
                     s           e11           e22           e12           s11           s22           s12   s11_fcT   s11_fcC   s22_fcT   s22_fcC   s12_fcS
                   (m)         (m/m)         (m/m)         (rad)          (Pa)          (Pa)          (Pa)       (-)       (-)       (-)       (-)       (-)
                0.0000   1.6312e-004  -4.8181e-005   4.8477e-005   6.8412e+006  -3.6031e+004   1.4543e+005    0.0070   -0.0000    0.0000    0.0000    0.0048
                0.0451   1.5392e-004  -4.5448e-005   5.4665e-005   6.4554e+006  -3.3763e+004   1.6400e+005    0.0066   -0.0000    0.0000    0.0000    0.0055
                0.2876   1.0781e-004  -3.1823e-005   8.2261e-005   4.5213e+006  -2.3532e+004   2.4678e+005    0.0047   -0.0000    0.0000    0.0000    0.0082
                0.5411   5.9750e-005  -1.7630e-005   1.0079e-004   2.5059e+006  -1.2939e+004   3.0237e+005    0.0026   -0.0000    0.0000    0.0000    0.0101
                0.8039   1.0527e-005  -3.1060e-006   1.0888e-004   4.4148e+005  -2.2796e+003   3.2663e+005    0.0005   -0.0000    0.0000    0.0000    0.0109
                1.0738  -4.2364e-005   1.2562e-005   1.0542e-004  -1.7765e+006   1.0058e+004   3.1625e+005    0.0000    0.0025    0.0000   -0.0000    0.0105
                1.3490  -9.4073e-005   2.7833e-005   8.9666e-005  -3.9451e+006   2.1460e+004   2.6900e+005    0.0000    0.0056    0.0000   -0.0000    0.0090
                1.3951  -1.0317e-004   3.0532e-005   8.5825e-005  -4.3266e+006   2.3634e+004   2.5748e+005    0.0000    0.0062    0.0000   -0.0000    0.0086

               lamina:  3     
              matName:  (spar-core)
                     s           e11           e22           e12           s11           s22           s12   s11_fcT   s11_fcC   s22_fcT   s22_fcC   s12_fcS
                   (m)         (m/m)         (m/m)         (rad)          (Pa)          (Pa)          (Pa)       (-)       (-)       (-)       (-)       (-)
                0.0000   1.6112e-004  -4.7541e-005   4.8477e-005   4.1959e+004   2.2722e+002   9.6953e+002    0.0000   -0.0000    0.0000   -0.0000    0.0000
                0.0451   1.5271e-004  -4.5058e-005   5.4665e-005   3.9768e+004   2.1536e+002   1.0933e+003    0.0000   -0.0000    0.0000   -0.0000    0.0000
                0.2876   1.0728e-004  -3.1654e-005   8.2261e-005   2.7938e+004   1.5129e+002   1.6452e+003    0.0000   -0.0000    0.0000   -0.0000    0.0000
                0.5411   5.9750e-005  -1.7630e-005   1.0079e-004   1.5560e+004   8.4264e+001   2.0158e+003    0.0000   -0.0000    0.0000   -0.0000    0.0000
                0.8039   1.0527e-005  -3.1061e-006   1.0888e-004   2.7414e+003   1.4846e+001   2.1775e+003    0.0000   -0.0000    0.0000   -0.0000    0.0000
                1.0738  -3.9853e-005   1.1759e-005   1.0542e-004  -1.0379e+004  -5.6204e+001   2.1083e+003    0.0000    0.0000    0.0000    0.0000    0.0000
                1.3490  -9.0982e-005   2.6845e-005   8.9666e-005  -2.3694e+004  -1.2831e+002   1.7933e+003    0.0000    0.0000    0.0000    0.0000    0.0000
                1.3951  -9.9505e-005   2.9360e-005   8.5825e-005  -2.5913e+004  -1.4033e+002   1.7165e+003    0.0000    0.0000    0.0000    0.0000    0.0000

               lamina:  4     
              matName:  (spar-uni)
                     s           e11           e22           e12           s11           s22           s12   s11_fcT   s11_fcC   s22_fcT   s22_fcC   s12_fcS
                   (m)         (m/m)         (m/m)         (rad)          (Pa)          (Pa)          (Pa)       (-)       (-)       (-)       (-)       (-)
                0.0000   1.6112e-004  -4.7541e-005   4.8477e-005   6.7573e+006  -3.4892e+004   1.4543e+005    0.0070   -0.0000    0.0000    0.0000    0.0048
                0.0451   1.5271e-004  -4.5058e-005   5.4665e-005   6.4044e+006  -3.3069e+004   1.6400e+005    0.0066   -0.0000    0.0000    0.0000    0.0055
                0.2876   1.0728e-004  -3.1654e-005   8.2261e-005   4.4992e+006  -2.3232e+004   2.4678e+005    0.0046   -0.0000    0.0000    0.0000    0.0082
                0.5411   6.0239e-005  -1.7786e-005   1.0079e-004   2.5263e+006  -1.3217e+004   3.0237e+005    0.0026   -0.0000    0.0000    0.0000    0.0101
                0.8039   1.2029e-005  -3.5862e-006   1.0888e-004   5.0435e+005  -3.1341e+003   3.2663e+005    0.0005   -0.0000    0.0000    0.0000    0.0109
                1.0738  -3.9853e-005   1.1759e-005   1.0542e-004  -1.6714e+006   8.6304e+003   3.1625e+005    0.0000    0.0024    0.0000   -0.0000    0.0105
                1.3490  -9.0981e-005   2.6845e-005   8.9666e-005  -3.8157e+006   1.9703e+004   2.6900e+005    0.0000    0.0054    0.0000   -0.0000    0.0090
                1.3951  -9.9505e-005   2.9360e-005   8.5825e-005  -4.1732e+006   2.1548e+004   2.5748e+005    0.0000    0.0059    0.0000   -0.0000    0.0086

               lamina:  5     
              matName:  (blade-shell)
                     s           e11           e22           e12           s11           s22           s12   s11_fcT   s11_fcC   s22_fcT   s22_fcC   s12_fcS
                   (m)         (m/m)         (m/m)         (rad)          (Pa)          (Pa)          (Pa)       (-)       (-)       (-)       (-)       (-)
                0.0000   1.5912e-004  -4.6900e-005   4.8477e-005   4.5572e+006   2.5483e+005   3.3934e+005    0.0316   -0.0000    0.0000   -0.0000    0.0057
                0.0451   1.5149e-004  -4.4668e-005   5.4665e-005   4.3385e+006   2.4235e+005   3.8266e+005    0.0301   -0.0000    0.0000   -0.0000    0.0064
                0.2876   1.0675e-004  -3.1486e-005   8.2261e-005   3.0573e+006   1.7066e+005   5.7583e+005    0.0212   -0.0000    0.0000   -0.0000    0.0096
                0.5411   6.0306e-005  -1.7808e-005   1.0079e-004   1.7270e+006   9.6092e+004   7.0554e+005    0.0120   -0.0000    0.0000   -0.0000    0.0118
                0.8039   1.2233e-005  -3.6513e-006   1.0888e-004   3.5009e+005   1.8898e+004   7.6213e+005    0.0024   -0.0000    0.0000   -0.0000    0.0127
                1.0738  -3.7342e-005   1.0957e-005   1.0542e-004  -1.0698e+006  -6.0565e+004   7.3792e+005    0.0000    0.0050    0.0000    0.0000    0.0123
                1.3490  -8.7890e-005   2.5858e-005   8.9666e-005  -2.5175e+006  -1.4150e+005   6.2766e+005    0.0000    0.0118    0.0000    0.0000    0.0105
                1.3951  -9.5837e-005   2.8188e-005   8.5825e-005  -2.7452e+006  -1.5440e+005   6.0078e+005    0.0000    0.0129    0.0000    0.0000    0.0100

            panel:  3     
           lam_num    nPlies        tPly      fibAng     matID  matName
               (-)       (-)         (m)       (deg)       (-)  (-)
                 1         1    0.005000      0.0000         2  (blade-shell)
                 2         1    0.012114      0.0000         6  (TEP-core)
                 3         1    0.005000      0.0000         2  (blade-shell)

               lamina:  1     
              matName:  (blade-shell)
                     s           e11           e22           e12           s11           s22           s12   s11_fcT   s11_fcC   s22_fcT   s22_fcC   s12_fcS
                   (m)         (m/m)         (m/m)         (rad)          (Pa)          (Pa)          (Pa)       (-)       (-)       (-)       (-)       (-)
                0.0000  -1.0102e-004   4.0183e-005   3.5582e-004  -2.8298e+006  -3.4027e+003   2.4907e+006    0.0000    0.0133    0.0000    0.0000    0.0415
                0.0030  -1.0158e-004   4.0405e-005   3.5573e-004  -2.8455e+006  -3.4216e+003   2.4901e+006    0.0000    0.0134    0.0000    0.0000    0.0415

               lamina:  2     
              matName:  (TEP-core)
                     s           e11           e22           e12           s11           s22           s12   s11_fcT   s11_fcC   s22_fcT   s22_fcC   s12_fcS
                   (m)         (m/m)         (m/m)         (rad)          (Pa)          (Pa)          (Pa)       (-)       (-)       (-)       (-)       (-)
                0.0000  -1.0076e-004   4.0082e-005   3.5582e-004  -2.5354e+004   2.8151e+003   7.1164e+003    0.0000    0.0000    0.0000   -0.0000    0.0000
                0.0030  -1.0132e-004   4.0304e-005   3.5573e-004  -2.5495e+004   2.8307e+003   7.1146e+003    0.0000    0.0000    0.0000   -0.0000    0.0000

               lamina:  3     
              matName:  (blade-shell)
                     s           e11           e22           e12           s11           s22           s12   s11_fcT   s11_fcC   s22_fcT   s22_fcC   s12_fcS
                   (m)         (m/m)         (m/m)         (rad)          (Pa)          (Pa)          (Pa)       (-)       (-)       (-)       (-)       (-)
                0.0000  -1.0015e-004   3.9837e-005   3.5582e-004  -2.8056e+006  -3.3978e+003   2.4907e+006    0.0000    0.0132    0.0000    0.0000    0.0415
                0.0030  -1.0071e-004   4.0059e-005   3.5573e-004  -2.8212e+006  -3.4167e+003   2.4901e+006    0.0000    0.0132    0.0000    0.0000    0.0415

            panel:  4     
           lam_num    nPlies        tPly      fibAng     matID  matName
               (-)       (-)         (m)       (deg)       (-)  (-)
                 1         1    0.005000      0.0000         2  (blade-shell)
                 2         1    0.012114      0.0000         6  (TEP-core)
                 3         1    0.005000      0.0000         2  (blade-shell)

               lamina:  1     
              matName:  (blade-shell)
                     s           e11           e22           e12           s11           s22           s12   s11_fcT   s11_fcC   s22_fcT   s22_fcC   s12_fcS
                   (m)         (m/m)         (m/m)         (rad)          (Pa)          (Pa)          (Pa)       (-)       (-)       (-)       (-)       (-)
                0.0000  -1.0158e-004   4.0405e-005   3.0892e-004  -2.8455e+006  -3.4216e+003   2.1625e+006    0.0000    0.0134    0.0000    0.0000    0.0360
                0.2274  -1.4367e-004   5.7148e-005   3.0883e-004  -4.0246e+006  -4.8446e+003   2.1618e+006    0.0000    0.0189    0.0000    0.0000    0.0360
                0.5033  -1.9450e-004   7.7371e-005   3.0883e-004  -5.4488e+006  -6.5635e+003   2.1618e+006    0.0000    0.0256    0.0000    0.0000    0.0360
                0.7738  -2.4421e-004   9.7144e-005   3.0040e-004  -6.8413e+006  -8.2453e+003   2.1028e+006    0.0000    0.0321    0.0000    0.0000    0.0350
                1.0353  -2.9224e-004   1.1625e-004   2.8627e-004  -8.1867e+006  -9.8715e+003   2.0039e+006    0.0000    0.0384    0.0000    0.0000    0.0334
                1.2840  -3.3804e-004   1.3447e-004   2.6828e-004  -9.4697e+006  -1.1424e+004   1.8780e+006    0.0000    0.0445    0.0000    0.0000    0.0313
                1.5169  -3.8111e-004   1.5160e-004   2.4701e-004  -1.0676e+007  -1.2885e+004   1.7290e+006    0.0000    0.0501    0.0000    0.0000    0.0288
                1.7316  -4.2098e-004   1.6746e-004   2.2322e-004  -1.1793e+007  -1.4238e+004   1.5626e+006    0.0000    0.0554    0.0000    0.0000    0.0260
                1.9260  -4.5722e-004   1.8187e-004   1.9779e-004  -1.2808e+007  -1.5469e+004   1.3846e+006    0.0000    0.0601    0.0000    0.0000    0.0231
                2.0987  -4.8947e-004   1.9470e-004   1.7164e-004  -1.3712e+007  -1.6564e+004   1.2015e+006    0.0000    0.0644    0.0000    0.0000    0.0200
                2.2483  -5.1740e-004   2.0581e-004   1.4570e-004  -1.4494e+007  -1.7512e+004   1.0199e+006    0.0000    0.0680    0.0000    0.0000    0.0170
                2.3731  -5.4066e-004   2.1506e-004   1.2084e-004  -1.5146e+007  -1.8301e+004   8.4588e+005    0.0000    0.0711    0.0000    0.0000    0.0141
                2.4720  -5.5902e-004   2.2237e-004   9.7948e-005  -1.5660e+007  -1.8924e+004   6.8564e+005    0.0000    0.0735    0.0000    0.0000    0.0114
                2.5438  -5.7227e-004   2.2764e-004   7.7858e-005  -1.6031e+007  -1.9374e+004   5.4501e+005    0.0000    0.0753    0.0000    0.0000    0.0091
                2.5858  -5.8025e-004   2.3081e-004   6.1325e-005  -1.6255e+007  -1.9638e+004   4.2927e+005    0.0000    0.0763    0.0000    0.0000    0.0072
                2.5969  -5.8340e-004   2.3207e-004   4.8973e-005  -1.6343e+007  -1.9709e+004   3.4281e+005    0.0000    0.0767    0.0000    0.0000    0.0057

               lamina:  2     
              matName:  (TEP-core)
                     s           e11           e22           e12           s11           s22           s12   s11_fcT   s11_fcC   s22_fcT   s22_fcC   s12_fcS
                   (m)         (m/m)         (m/m)         (rad)          (Pa)          (Pa)          (Pa)       (-)       (-)       (-)       (-)       (-)
                0.0000  -1.0132e-004   4.0304e-005   3.0892e-004  -2.5495e+004   2.8307e+003   6.1785e+003    0.0000    0.0000    0.0000   -0.0000    0.0000
                0.2274  -1.4339e-004   5.7039e-005   3.0883e-004  -3.6080e+004   4.0060e+003   6.1766e+003    0.0000    0.0000    0.0000   -0.0000    0.0000
                0.5033  -1.9421e-004   7.7251e-005   3.0883e-004  -4.8866e+004   5.4255e+003   6.1766e+003    0.0000    0.0000    0.0000   -0.0000    0.0000
                0.7738  -2.4391e-004   9.7022e-005   3.0040e-004  -6.1372e+004   6.8141e+003   6.0079e+003    0.0000    0.0000    0.0000   -0.0000    0.0000
                1.0353  -2.9195e-004   1.1613e-004   2.8627e-004  -7.3460e+004   8.1561e+003   5.7253e+003    0.0000    0.0000    0.0000   -0.0000    0.0000
                1.2840  -3.3779e-004   1.3436e-004   2.6828e-004  -8.4994e+004   9.4366e+003   5.3656e+003    0.0000    0.0000    0.0000   -0.0000    0.0000
                1.5169  -3.8092e-004   1.5152e-004   2.4701e-004  -9.5846e+004   1.0641e+004   4.9401e+003    0.0000    0.0000    0.0000   -0.0000    0.0000
                1.7316  -4.2086e-004   1.6741e-004   2.2322e-004  -1.0590e+005   1.1757e+004   4.4645e+003    0.0000    0.0000    0.0000   -0.0000    0.0000
                1.9260  -4.5717e-004   1.8185e-004   1.9779e-004  -1.1503e+005   1.2771e+004   3.9559e+003    0.0000    0.0000    0.0000   -0.0000    0.0000
                2.0987  -4.8950e-004   1.9471e-004   1.7164e-004  -1.2317e+005   1.3675e+004   3.4329e+003    0.0000    0.0000    0.0000   -0.0000    0.0000
                2.2483  -5.1761e-004   2.0589e-004   1.4570e-004  -1.3024e+005   1.4460e+004   2.9140e+003    0.0000    0.0000    0.0000   -0.0000    0.0000
                2.3731  -5.4101e-004   2.1520e-004   1.2084e-004  -1.3613e+005   1.5114e+004   2.4168e+003    0.0000    0.0000    0.0000   -0.0000    0.0000
                2.4720  -5.5949e-004   2.2255e-004   9.7948e-005  -1.4078e+005   1.5630e+004   1.9590e+003    0.0000    0.0000    0.0000   -0.0000    0.0000
                2.5438  -5.7286e-004   2.2787e-004   7.7858e-005  -1.4414e+005   1.6004e+004   1.5572e+003    0.0000    0.0000    0.0000   -0.0000    0.0000
                2.5858  -5.8039e-004   2.3087e-004   6.1325e-005  -1.4604e+005   1.6214e+004   1.2265e+003    0.0000    0.0000    0.0000   -0.0000    0.0000
                2.5969  -5.8287e-004   2.3185e-004   4.8973e-005  -1.4666e+005   1.6283e+004   9.7947e+002    0.0000    0.0000    0.0000   -0.0000    0.0000

               lamina:  3     
              matName:  (blade-shell)
                     s           e11           e22           e12           s11           s22           s12   s11_fcT   s11_fcC   s22_fcT   s22_fcC   s12_fcS
                   (m)         (m/m)         (m/m)         (rad)          (Pa)          (Pa)          (Pa)       (-)       (-)       (-)       (-)       (-)
                0.0000  -1.0071e-004   4.0059e-005   3.0892e-004  -2.8212e+006  -3.4167e+003   2.1625e+006    0.0000    0.0132    0.0000    0.0000    0.0360
                0.2274  -1.4273e-004   5.6773e-005   3.0883e-004  -3.9983e+006  -4.8394e+003   2.1618e+006    0.0000    0.0188    0.0000    0.0000    0.0360
                0.5033  -1.9348e-004   7.6961e-005   3.0883e-004  -5.4201e+006  -6.5578e+003   2.1618e+006    0.0000    0.0254    0.0000    0.0000    0.0360
                0.7738  -2.4317e-004   9.6726e-005   3.0040e-004  -6.8120e+006  -8.2395e+003   2.1028e+006    0.0000    0.0320    0.0000    0.0000    0.0350
                1.0353  -2.9125e-004   1.1585e-004   2.8627e-004  -8.1590e+006  -9.8660e+003   2.0039e+006    0.0000    0.0383    0.0000    0.0000    0.0334
                1.2840  -3.3718e-004   1.3412e-004   2.6828e-004  -9.4457e+006  -1.1419e+004   1.8780e+006    0.0000    0.0443    0.0000    0.0000    0.0313
                1.5169  -3.8044e-004   1.5133e-004   2.4701e-004  -1.0658e+007  -1.2881e+004   1.7290e+006    0.0000    0.0500    0.0000    0.0000    0.0288
                1.7316  -4.2055e-004   1.6728e-004   2.2322e-004  -1.1781e+007  -1.4236e+004   1.5626e+006    0.0000    0.0553    0.0000    0.0000    0.0260
                1.9260  -4.5703e-004   1.8180e-004   1.9779e-004  -1.2803e+007  -1.5468e+004   1.3846e+006    0.0000    0.0601    0.0000    0.0000    0.0231
                2.0987  -4.8951e-004   1.9472e-004   1.7164e-004  -1.3713e+007  -1.6565e+004   1.2015e+006    0.0000    0.0644    0.0000    0.0000    0.0200
                2.2483  -5.1769e-004   2.0593e-004   1.4570e-004  -1.4502e+007  -1.7514e+004   1.0199e+006    0.0000    0.0681    0.0000    0.0000    0.0170
                2.3731  -5.4116e-004   2.1526e-004   1.2084e-004  -1.5160e+007  -1.8304e+004   8.4588e+005    0.0000    0.0712    0.0000    0.0000    0.0141
                2.4720  -5.5969e-004   2.2263e-004   9.7948e-005  -1.5679e+007  -1.8928e+004   6.8564e+005    0.0000    0.0736    0.0000    0.0000    0.0114
                2.5438  -5.7310e-004   2.2797e-004   7.7858e-005  -1.6055e+007  -1.9379e+004   5.4501e+005    0.0000    0.0754    0.0000    0.0000    0.0091
                2.5858  -5.8045e-004   2.3089e-004   6.1325e-005  -1.6260e+007  -1.9639e+004   4.2927e+005    0.0000    0.0763    0.0000    0.0000    0.0072
                2.5969  -5.8158e-004   2.3134e-004   4.8973e-005  -1.6292e+007  -1.9699e+004   3.4281e+005    0.0000    0.0765    0.0000    0.0000    0.0057

     Web:  panel  nNode   nLam     xc_St    xc_End         b         t         E_eff         G_eff      nu_eff     density  buckleCrit
            (-)    (-)    (-)       (-)       (-)       (m)       (m)          (Pa)          (Pa)         (-)    (kg/m^3)         (-)
              1     10      3    0.2411    0.2411    0.8480    0.0830   7.6445e+008   4.5301e+008      0.4420    257.1084      0.0000
              2     10      3    0.5094    0.5094    0.8600    0.0830   7.6445e+008   4.5301e+008      0.4420    257.1084      0.0000

            panel:  1     
           lam_num    nPlies        tPly      fibAng     matID  matName
               (-)       (-)         (m)       (deg)       (-)  (-)
                 1         1    0.001500      0.0000         7  (web-shell)
                 2         1    0.080000      0.0000         8  (web-core)
                 3         1    0.001500      0.0000         7  (web-shell)

               lamina:  1     
              matName:  (web-shell)
                     s           e11           e22           e12           s11           s22           s12   s11_fcT   s11_fcC   s22_fcT   s22_fcC   s12_fcS
                   (m)         (m/m)         (m/m)         (rad)          (Pa)          (Pa)          (Pa)       (-)       (-)       (-)       (-)       (-)
                0.0000   1.4684e-004  -6.4559e-005   3.4518e-005   2.1385e+006   1.6545e+005   4.1422e+005    0.0149   -0.0000    0.0000   -0.0000    0.0046
                0.0942   1.4726e-004  -6.4741e-005   3.6403e-005   2.1446e+006   1.6590e+005   4.3683e+005    0.0149   -0.0000    0.0000   -0.0000    0.0049
                0.1884   1.4767e-004  -6.4924e-005   3.8292e-005   2.1506e+006   1.6635e+005   4.5950e+005    0.0149   -0.0000    0.0000   -0.0000    0.0051
                0.2827   1.4808e-004  -6.5107e-005   4.0186e-005   2.1566e+006   1.6679e+005   4.8224e+005    0.0150   -0.0000    0.0000   -0.0000    0.0054
                0.3769   1.4850e-004  -6.5290e-005   4.2086e-005   2.1626e+006   1.6724e+005   5.0503e+005    0.0150   -0.0000    0.0000   -0.0000    0.0056
                0.4711   1.4891e-004  -6.5472e-005   4.3990e-005   2.1686e+006   1.6769e+005   5.2788e+005    0.0151   -0.0000    0.0000   -0.0000    0.0059
                0.5653   1.4932e-004  -6.5655e-005   4.5899e-005   2.1746e+006   1.6813e+005   5.5079e+005    0.0151   -0.0000    0.0000   -0.0000    0.0061
                0.6596   1.4974e-004  -6.5838e-005   4.7813e-005   2.1806e+006   1.6858e+005   5.7376e+005    0.0151   -0.0000    0.0000   -0.0000    0.0064
                0.7538   1.5015e-004  -6.6021e-005   4.9733e-005   2.1866e+006   1.6903e+005   5.9679e+005    0.0152   -0.0000    0.0000   -0.0000    0.0066
                0.8480   1.5056e-004  -6.6203e-005   5.1657e-005   2.1926e+006   1.6948e+005   6.1988e+005    0.0152   -0.0000    0.0000   -0.0000    0.0069

               lamina:  2     
              matName:  (web-core)
                     s           e11           e22           e12           s11           s22           s12   s11_fcT   s11_fcC   s22_fcT   s22_fcC   s12_fcS
                   (m)         (m/m)         (m/m)         (rad)          (Pa)          (Pa)          (Pa)       (-)       (-)       (-)       (-)       (-)
                0.0000   1.6700e-004  -7.4172e-005   3.4518e-005   4.1358e+004  -6.8772e+003   6.9036e+002    0.0000   -0.0000    0.0000    0.0000    0.0000
                0.0942   1.6742e-004  -7.4354e-005   3.6403e-005   4.1461e+004  -6.8940e+003   7.2805e+002    0.0000   -0.0000    0.0000    0.0000    0.0000
                0.1884   1.6783e-004  -7.4537e-005   3.8292e-005   4.1563e+004  -6.9108e+003   7.6584e+002    0.0000   -0.0000    0.0000    0.0000    0.0000
                0.2827   1.6825e-004  -7.4720e-005   4.0186e-005   4.1665e+004  -6.9275e+003   8.0373e+002    0.0000   -0.0000    0.0000    0.0000    0.0000
                0.3769   1.6866e-004  -7.4903e-005   4.2086e-005   4.1768e+004  -6.9443e+003   8.4171e+002    0.0000   -0.0000    0.0000    0.0000    0.0000
                0.4711   1.6907e-004  -7.5085e-005   4.3990e-005   4.1870e+004  -6.9611e+003   8.7980e+002    0.0000   -0.0000    0.0000    0.0000    0.0000
                0.5653   1.6949e-004  -7.5268e-005   4.5899e-005   4.1973e+004  -6.9779e+003   9.1798e+002    0.0000   -0.0000    0.0000    0.0000    0.0000
                0.6596   1.6990e-004  -7.5451e-005   4.7813e-005   4.2075e+004  -6.9946e+003   9.5627e+002    0.0000   -0.0000    0.0000    0.0000    0.0000
                0.7538   1.7031e-004  -7.5634e-005   4.9733e-005   4.2178e+004  -7.0114e+003   9.9465e+002    0.0000   -0.0000    0.0000    0.0000    0.0000
                0.8480   1.7073e-004  -7.5816e-005   5.1657e-005   4.2280e+004  -7.0282e+003   1.0331e+003    0.0000   -0.0000    0.0000    0.0000    0.0000

               lamina:  3     
              matName:  (web-shell)
                     s           e11           e22           e12           s11           s22           s12   s11_fcT   s11_fcC   s22_fcT   s22_fcC   s12_fcS
                   (m)         (m/m)         (m/m)         (rad)          (Pa)          (Pa)          (Pa)       (-)       (-)       (-)       (-)       (-)
                0.0000   1.6738e-004  -7.4352e-005   3.4518e-005   2.4305e+006   1.7434e+005   4.1422e+005    0.0169   -0.0000    0.0000   -0.0000    0.0046
                0.0942   1.6780e-004  -7.4535e-005   3.6403e-005   2.4365e+006   1.7478e+005   4.3683e+005    0.0169   -0.0000    0.0000   -0.0000    0.0049
                0.1884   1.6821e-004  -7.4717e-005   3.8292e-005   2.4426e+006   1.7523e+005   4.5950e+005    0.0170   -0.0000    0.0000   -0.0000    0.0051
                0.2827   1.6862e-004  -7.4900e-005   4.0186e-005   2.4486e+006   1.7568e+005   4.8224e+005    0.0170   -0.0000    0.0000   -0.0000    0.0054
                0.3769   1.6904e-004  -7.5083e-005   4.2086e-005   2.4546e+006   1.7613e+005   5.0503e+005    0.0170   -0.0000    0.0000   -0.0000    0.0056
                0.4711   1.6945e-004  -7.5266e-005   4.3990e-005   2.4606e+006   1.7657e+005   5.2788e+005    0.0171   -0.0000    0.0000   -0.0000    0.0059
                0.5653   1.6986e-004  -7.5448e-005   4.5899e-005   2.4666e+006   1.7702e+005   5.5079e+005    0.0171   -0.0000    0.0000   -0.0000    0.0061
                0.6596   1.7028e-004  -7.5631e-005   4.7813e-005   2.4726e+006   1.7747e+005   5.7376e+005    0.0172   -0.0000    0.0000   -0.0000    0.0064
                0.7538   1.7069e-004  -7.5814e-005   4.9733e-005   2.4786e+006   1.7792e+005   5.9679e+005    0.0172   -0.0000    0.0000   -0.0000    0.0066
                0.8480   1.7110e-004  -7.5997e-005   5.1657e-005   2.4846e+006   1.7836e+005   6.1988e+005    0.0173   -0.0000    0.0000   -0.0000    0.0069

            panel:  2     
           lam_num    nPlies        tPly      fibAng     matID  matName
               (-)       (-)         (m)       (deg)       (-)  (-)
                 1         1    0.001500      0.0000         7  (web-shell)
                 2         1    0.080000      0.0000         8  (web-core)
                 3         1    0.001500      0.0000         7  (web-shell)

               lamina:  1     
              matName:  (web-shell)
                     s           e11           e22           e12           s11           s22           s12   s11_fcT   s11_fcC   s22_fcT   s22_fcC   s12_fcS
                   (m)         (m/m)         (m/m)         (rad)          (Pa)          (Pa)          (Pa)       (-)       (-)       (-)       (-)       (-)
                0.0000  -1.1378e-004   5.0657e-005   7.6275e-005  -1.6511e+006  -1.1633e+005   9.1530e+005    0.0000    0.0078    0.0000    0.0000    0.0102
                0.0956  -1.1348e-004   5.0527e-005   7.7529e-005  -1.6468e+006  -1.1601e+005   9.3035e+005    0.0000    0.0077    0.0000    0.0000    0.0103
                0.1911  -1.1319e-004   5.0397e-005   7.8780e-005  -1.6425e+006  -1.1569e+005   9.4536e+005    0.0000    0.0077    0.0000    0.0000    0.0105
                0.2867  -1.1290e-004   5.0268e-005   8.0027e-005  -1.6382e+006  -1.1537e+005   9.6033e+005    0.0000    0.0077    0.0000    0.0000    0.0107
                0.3822  -1.1260e-004   5.0138e-005   8.1271e-005  -1.6340e+006  -1.1506e+005   9.7525e+005    0.0000    0.0077    0.0000    0.0000    0.0108
                0.4778  -1.1231e-004   5.0008e-005   8.2511e-005  -1.6297e+006  -1.1474e+005   9.9014e+005    0.0000    0.0077    0.0000    0.0000    0.0110
                0.5733  -1.1202e-004   4.9878e-005   8.3748e-005  -1.6254e+006  -1.1442e+005   1.0050e+006    0.0000    0.0076    0.0000    0.0000    0.0112
                0.6689  -1.1172e-004   4.9748e-005   8.4981e-005  -1.6211e+006  -1.1410e+005   1.0198e+006    0.0000    0.0076    0.0000    0.0000    0.0113
                0.7644  -1.1143e-004   4.9618e-005   8.6210e-005  -1.6169e+006  -1.1379e+005   1.0345e+006    0.0000    0.0076    0.0000    0.0000    0.0115
                0.8600  -1.1113e-004   4.9488e-005   8.7436e-005  -1.6126e+006  -1.1347e+005   1.0492e+006    0.0000    0.0076    0.0000    0.0000    0.0117

               lamina:  2     
              matName:  (web-core)
                     s           e11           e22           e12           s11           s22           s12   s11_fcT   s11_fcC   s22_fcT   s22_fcC   s12_fcS
                   (m)         (m/m)         (m/m)         (rad)          (Pa)          (Pa)          (Pa)       (-)       (-)       (-)       (-)       (-)
                0.0000  -1.1340e-004   5.0477e-005   7.6275e-005  -2.8073e+004   4.7020e+003   1.5255e+003    0.0000    0.0000    0.0000   -0.0000    0.0000
                0.0956  -1.1311e-004   5.0347e-005   7.7529e-005  -2.8001e+004   4.6900e+003   1.5506e+003    0.0000    0.0000    0.0000   -0.0000    0.0000
                0.1911  -1.1281e-004   5.0217e-005   7.8780e-005  -2.7928e+004   4.6781e+003   1.5756e+003    0.0000    0.0000    0.0000   -0.0000    0.0000
                0.2867  -1.1252e-004   5.0087e-005   8.0027e-005  -2.7855e+004   4.6662e+003   1.6005e+003    0.0000    0.0000    0.0000   -0.0000    0.0000
                0.3822  -1.1222e-004   4.9957e-005   8.1271e-005  -2.7782e+004   4.6543e+003   1.6254e+003    0.0000    0.0000    0.0000   -0.0000    0.0000
                0.4778  -1.1193e-004   4.9827e-005   8.2511e-005  -2.7709e+004   4.6423e+003   1.6502e+003    0.0000    0.0000    0.0000   -0.0000    0.0000
                0.5733  -1.1164e-004   4.9698e-005   8.3748e-005  -2.7637e+004   4.6304e+003   1.6750e+003    0.0000    0.0000    0.0000   -0.0000    0.0000
                0.6689  -1.1134e-004   4.9568e-005   8.4981e-005  -2.7564e+004   4.6185e+003   1.6996e+003    0.0000    0.0000    0.0000   -0.0000    0.0000
                0.7644  -1.1105e-004   4.9438e-005   8.6210e-005  -2.7491e+004   4.6066e+003   1.7242e+003    0.0000    0.0000    0.0000   -0.0000    0.0000
                0.8600  -1.1076e-004   4.9308e-005   8.7436e-005  -2.7418e+004   4.5946e+003   1.7487e+003    0.0000    0.0000    0.0000   -0.0000    0.0000

               lamina:  3     
              matName:  (web-shell)
                     s           e11           e22           e12           s11           s22           s12   s11_fcT   s11_fcC   s22_fcT   s22_fcC   s12_fcS
                   (m)         (m/m)         (m/m)         (rad)          (Pa)          (Pa)          (Pa)       (-)       (-)       (-)       (-)       (-)
                0.0000  -9.3237e-005   4.0863e-005   7.6275e-005  -1.3590e+006  -1.0744e+005   9.1530e+005    0.0000    0.0064    0.0000    0.0000    0.0102
                0.0956  -9.2943e-005   4.0733e-005   7.7529e-005  -1.3548e+006  -1.0712e+005   9.3035e+005    0.0000    0.0064    0.0000    0.0000    0.0103
                0.1911  -9.2649e-005   4.0603e-005   7.8780e-005  -1.3505e+006  -1.0681e+005   9.4536e+005    0.0000    0.0063    0.0000    0.0000    0.0105
                0.2867  -9.2355e-005   4.0473e-005   8.0027e-005  -1.3462e+006  -1.0649e+005   9.6033e+005    0.0000    0.0063    0.0000    0.0000    0.0107
                0.3822  -9.2061e-005   4.0343e-005   8.1271e-005  -1.3419e+006  -1.0617e+005   9.7525e+005    0.0000    0.0063    0.0000    0.0000    0.0108
                0.4778  -9.1767e-005   4.0213e-005   8.2511e-005  -1.3377e+006  -1.0585e+005   9.9014e+005    0.0000    0.0063    0.0000    0.0000    0.0110
                0.5733  -9.1474e-005   4.0083e-005   8.3748e-005  -1.3334e+006  -1.0553e+005   1.0050e+006    0.0000    0.0063    0.0000    0.0000    0.0112
                0.6689  -9.1180e-005   3.9953e-005   8.4981e-005  -1.3291e+006  -1.0522e+005   1.0198e+006    0.0000    0.0062    0.0000    0.0000    0.0113
                0.7644  -9.0886e-005   3.9823e-005   8.6210e-005  -1.3249e+006  -1.0490e+005   1.0345e+006    0.0000    0.0062    0.0000    0.0000    0.0115
                0.8600  -9.0592e-005   3.9694e-005   8.7436e-005  -1.3206e+006  -1.0458e+005   1.0492e+006    0.0000    0.0062    0.0000    0.0000    0.0117

================================================================================
sec        =  26     
zSec       =  69.8000  (m)
nPanelsTop =  4      
nPanelsBot =  4      
nWebs      =  2      

    Top:  panel  nNode   nLam     xc_St    xc_End         b         t         E_eff         G_eff      nu_eff     density  buckleCrit
            (-)    (-)    (-)       (-)       (-)       (m)       (m)          (Pa)          (Pa)         (-)    (kg/m^3)         (-)
              1     11      3    0.0000    0.2311    1.2477    0.0700   4.2251e+009   1.0171e+009      0.3899    435.7143      0.0000
              2      8      5    0.2311    0.5189    1.3848    0.0703   4.0035e+010   3.5685e+009      0.2979   1910.0002      0.0000
              3      2      3    0.5189    0.5194    0.0024    0.0201   1.4095e+010   3.5008e+009      0.3981   1022.8261      0.0000
              4     16      3    0.5194    1.0000    2.3816    0.0201   1.4095e+010   3.5008e+009      0.3981   1022.8261      0.3548

            panel:  1     
           lam_num    nPlies        tPly      fibAng     matID  matName
               (-)       (-)         (m)       (deg)       (-)  (-)
                 1         1    0.005000      0.0000         2  (blade-shell)
                 2         1    0.060000      0.0000         5  (LEP-core)
                 3         1    0.005000      0.0000         2  (blade-shell)

               lamina:  1     
              matName:  (blade-shell)
                     s           e11           e22           e12           s11           s22           s12   s11_fcT   s11_fcC   s22_fcT   s22_fcC   s12_fcS
                   (m)         (m/m)         (m/m)         (rad)          (Pa)          (Pa)          (Pa)       (-)       (-)       (-)       (-)       (-)
                0.0000   2.7861e-004  -1.0866e-004   3.5712e-005   7.8181e+006   4.2327e+004   2.4998e+005    0.0543   -0.0000    0.0000   -0.0000    0.0042
                0.0711   2.7471e-004  -1.0714e-004   2.8402e-005   7.7086e+006   4.1786e+004   1.9881e+005    0.0535   -0.0000    0.0000   -0.0000    0.0033
                0.1244   2.6757e-004  -1.0434e-004   2.3020e-005   7.5084e+006   4.0855e+004   1.6114e+005    0.0521   -0.0000    0.0000   -0.0000    0.0027
                0.2030   2.5694e-004  -1.0019e-004   1.5300e-005   7.2099e+006   3.9316e+004   1.0710e+005    0.0501   -0.0000    0.0000   -0.0000    0.0018
                0.3062   2.4278e-004  -9.4667e-005   5.6221e-006   6.8127e+006   3.7198e+004   3.9355e+004    0.0473   -0.0000    0.0000   -0.0000    0.0007
                0.4318   2.2525e-004  -8.7831e-005   5.4237e-006   6.3209e+006   3.4550e+004   3.7966e+004    0.0439   -0.0000    0.0000   -0.0000    0.0006
                0.5780   2.0459e-004  -7.9773e-005   1.7250e-005   5.7412e+006   3.1412e+004   1.2075e+005    0.0399   -0.0000    0.0000   -0.0000    0.0020
                0.7436   1.8105e-004  -7.0590e-005   2.9289e-005   5.0804e+006   2.7821e+004   2.0502e+005    0.0353   -0.0000    0.0000   -0.0000    0.0034
                0.9270   1.5487e-004  -6.0381e-005   4.0922e-005   4.3458e+006   2.3821e+004   2.8645e+005    0.0302   -0.0000    0.0000   -0.0000    0.0048
                1.1265   1.2639e-004  -4.9276e-005   5.1528e-005   3.5466e+006   1.9461e+004   3.6070e+005    0.0246   -0.0000    0.0000   -0.0000    0.0060
                1.2477   1.0907e-004  -4.2522e-005   5.6930e-005   3.0606e+006   1.6811e+004   3.9851e+005    0.0213   -0.0000    0.0000   -0.0000    0.0066

               lamina:  2     
              matName:  (LEP-core)
                     s           e11           e22           e12           s11           s22           s12   s11_fcT   s11_fcC   s22_fcT   s22_fcC   s12_fcS
                   (m)         (m/m)         (m/m)         (rad)          (Pa)          (Pa)          (Pa)       (-)       (-)       (-)       (-)       (-)
                0.0000   2.7781e-004  -1.0835e-004   3.5712e-005   7.0088e+004  -7.1435e+003   7.1423e+002    0.0000   -0.0000    0.0000    0.0000    0.0000
                0.0711   2.7399e-004  -1.0685e-004   2.8402e-005   6.9124e+004  -7.0444e+003   5.6803e+002    0.0000   -0.0000    0.0000    0.0000    0.0000
                0.1244   2.6708e-004  -1.0415e-004   2.3020e-005   6.7381e+004  -6.8642e+003   4.6039e+002    0.0000   -0.0000    0.0000    0.0000    0.0000
                0.2030   2.5657e-004  -1.0005e-004   1.5300e-005   6.4731e+004  -6.5928e+003   3.0601e+002    0.0000   -0.0000    0.0000    0.0000    0.0000
                0.3062   2.4250e-004  -9.4558e-005   5.6221e-006   6.1182e+004  -6.2305e+003   1.1244e+002    0.0000   -0.0000    0.0000    0.0000    0.0000
                0.4318   2.2505e-004  -8.7749e-005   5.4237e-006   5.6778e+004  -5.7814e+003   1.0847e+002    0.0000   -0.0000    0.0000    0.0000    0.0000
                0.5780   2.0445e-004  -7.9715e-005   1.7250e-005   5.1581e+004  -5.2517e+003   3.4500e+002    0.0000   -0.0000    0.0000    0.0000    0.0000
                0.7436   1.8095e-004  -7.0551e-005   2.9289e-005   4.5652e+004  -4.6477e+003   5.8578e+002    0.0000   -0.0000    0.0000    0.0000    0.0000
                0.9270   1.5481e-004  -6.0360e-005   4.0922e-005   3.9059e+004  -3.9760e+003   8.1844e+002    0.0000   -0.0000    0.0000    0.0000    0.0000
                1.1265   1.2637e-004  -4.9270e-005   5.1528e-005   3.1883e+004  -3.2452e+003   1.0306e+003    0.0000   -0.0000    0.0000    0.0000    0.0000
                1.2477   1.0920e-004  -4.2573e-005   5.6930e-005   2.7550e+004  -2.8041e+003   1.1386e+003    0.0000   -0.0000    0.0000    0.0000    0.0000

               lamina:  3     
              matName:  (blade-shell)
                     s           e11           e22           e12           s11           s22           s12   s11_fcT   s11_fcC   s22_fcT   s22_fcC   s12_fcS
                   (m)         (m/m)         (m/m)         (rad)          (Pa)          (Pa)          (Pa)       (-)       (-)       (-)       (-)       (-)
                0.0000   2.6821e-004  -1.0454e-004   3.5712e-005   7.5267e+006   4.1838e+004   2.4998e+005    0.0523   -0.0000    0.0000   -0.0000    0.0042
                0.0711   2.6535e-004  -1.0342e-004   2.8402e-005   7.4462e+006   4.1345e+004   1.9881e+005    0.0517   -0.0000    0.0000   -0.0000    0.0033
                0.1244   2.6115e-004  -1.0179e-004   2.3020e-005   7.3283e+006   4.0553e+004   1.6114e+005    0.0509   -0.0000    0.0000   -0.0000    0.0027
                0.2030   2.5223e-004  -9.8323e-005   1.5300e-005   7.0780e+006   3.9094e+004   1.0710e+005    0.0492   -0.0000    0.0000   -0.0000    0.0018
                0.3062   2.3919e-004  -9.3241e-005   5.6221e-006   6.7120e+006   3.7029e+004   3.9355e+004    0.0466   -0.0000    0.0000   -0.0000    0.0007
                0.4318   2.2257e-004  -8.6764e-005   5.4237e-006   6.2456e+006   3.4424e+004   3.7966e+004    0.0434   -0.0000    0.0000   -0.0000    0.0006
                0.5780   2.0268e-004  -7.9015e-005   1.7250e-005   5.6877e+006   3.1322e+004   1.2075e+005    0.0395   -0.0000    0.0000   -0.0000    0.0020
                0.7436   1.7978e-004  -7.0087e-005   2.9289e-005   5.0449e+006   2.7761e+004   2.0502e+005    0.0350   -0.0000    0.0000   -0.0000    0.0034
                0.9270   1.5418e-004  -6.0110e-005   4.0922e-005   4.3267e+006   2.3789e+004   2.8645e+005    0.0300   -0.0000    0.0000   -0.0000    0.0048
                1.1265   1.2619e-004  -4.9198e-005   5.1528e-005   3.5411e+006   1.9452e+004   3.6070e+005    0.0246   -0.0000    0.0000   -0.0000    0.0060
                1.2477   1.0921e-004  -4.2578e-005   5.6930e-005   3.0645e+006   1.6818e+004   3.9851e+005    0.0213   -0.0000    0.0000   -0.0000    0.0066

            panel:  2     
           lam_num    nPlies        tPly      fibAng     matID  matName
               (-)       (-)         (m)       (deg)       (-)  (-)
                 1         1    0.005000      0.0000         2  (blade-shell)
                 2         1    0.030172      0.0000         3  (spar-uni)
                 3         1    0.000002      0.0000         4  (spar-core)
                 4         1    0.030172      0.0000         3  (spar-uni)
                 5         1    0.005000      0.0000         2  (blade-shell)

               lamina:  1     
              matName:  (blade-shell)
                     s           e11           e22           e12           s11           s22           s12   s11_fcT   s11_fcC   s22_fcT   s22_fcC   s12_fcS
                   (m)         (m/m)         (m/m)         (rad)          (Pa)          (Pa)          (Pa)       (-)       (-)       (-)       (-)       (-)
                0.0000   1.0896e-004  -3.2454e-005   1.5452e-005   3.1185e+006   1.6934e+005   1.0816e+005    0.0217   -0.0000    0.0000   -0.0000    0.0018
                0.0915   9.5565e-005  -2.8452e-005   2.5064e-005   2.7353e+006   1.4872e+005   1.7545e+005    0.0190   -0.0000    0.0000   -0.0000    0.0029
                0.3170   6.3161e-005  -1.8784e-005   4.3568e-005   1.8080e+006   9.8617e+004   3.0498e+005    0.0126   -0.0000    0.0000   -0.0000    0.0051
                0.5516   2.9416e-005  -8.7102e-006   5.5042e-005   8.4225e+005   4.6507e+004   3.8529e+005    0.0058   -0.0000    0.0000   -0.0000    0.0064
                0.7936  -5.6216e-006   1.7627e-006   5.8614e-005  -1.6036e+005  -7.3950e+003   4.1030e+005    0.0000    0.0008    0.0000    0.0000    0.0068
                1.0413  -4.0701e-005   1.2239e-005   5.3661e-005  -1.1642e+006  -6.1509e+004   3.7563e+005    0.0000    0.0055    0.0000    0.0000    0.0063
                1.2935  -7.5590e-005   2.2648e-005   3.9785e-005  -2.1627e+006  -1.1547e+005   2.7849e+005    0.0000    0.0102    0.0000    0.0000    0.0046
                1.3848  -8.8290e-005   2.6444e-005   3.2593e-005  -2.5261e+006  -1.3501e+005   2.2815e+005    0.0000    0.0119    0.0000    0.0000    0.0038

               lamina:  2     
              matName:  (spar-uni)
                     s           e11           e22           e12           s11           s22           s12   s11_fcT   s11_fcC   s22_fcT   s22_fcC   s12_fcS
                   (m)         (m/m)         (m/m)         (rad)          (Pa)          (Pa)          (Pa)       (-)       (-)       (-)       (-)       (-)
                0.0000   1.0913e-004  -3.2511e-005   1.5452e-005   4.5757e+006  -2.8096e+004   4.6355e+004    0.0047   -0.0000    0.0000    0.0000    0.0015
                0.0915   9.6175e-005  -2.8651e-005   2.5064e-005   4.0324e+006  -2.4761e+004   7.5192e+004    0.0041   -0.0000    0.0000    0.0000    0.0025
                0.3170   6.4318e-005  -1.9161e-005   4.3568e-005   2.6967e+006  -1.6559e+004   1.3070e+005    0.0028   -0.0000    0.0000    0.0000    0.0044
                0.5516   3.1316e-005  -9.3293e-006   5.5042e-005   1.3130e+006  -8.0623e+003   1.6513e+005    0.0014   -0.0000    0.0000    0.0000    0.0055
                0.7936  -5.1741e-006   1.6169e-006   5.8614e-005  -2.1663e+005   2.4168e+003   1.7584e+005    0.0000    0.0003    0.0000   -0.0000    0.0059
                1.0413  -4.0125e-005   1.2051e-005   5.3661e-005  -1.6820e+006   1.1727e+004   1.6098e+005    0.0000    0.0024    0.0000   -0.0000    0.0054
                1.2935  -7.4932e-005   2.2434e-005   3.9785e-005  -3.1413e+006   2.0885e+004   1.1935e+005    0.0000    0.0045    0.0000   -0.0000    0.0040
                1.3848  -8.7571e-005   2.6209e-005   3.2593e-005  -3.6712e+006   2.4288e+004   9.7780e+004    0.0000    0.0052    0.0000   -0.0000    0.0033

               lamina:  3     
              matName:  (spar-core)
                     s           e11           e22           e12           s11           s22           s12   s11_fcT   s11_fcC   s22_fcT   s22_fcC   s12_fcS
                   (m)         (m/m)         (m/m)         (rad)          (Pa)          (Pa)          (Pa)       (-)       (-)       (-)       (-)       (-)
                0.0000   1.0913e-004  -3.2511e-005   1.5452e-005   2.8394e+004   6.5201e+001   3.0903e+002    0.0000   -0.0000    0.0000   -0.0000    0.0000
                0.0915   9.6175e-005  -2.8651e-005   2.5064e-005   2.5023e+004   5.7460e+001   5.0128e+002    0.0000   -0.0000    0.0000   -0.0000    0.0000
                0.3170   6.4319e-005  -1.9161e-005   4.3568e-005   1.6734e+004   3.8428e+001   8.7137e+002    0.0000   -0.0000    0.0000   -0.0000    0.0000
                0.5516   3.1316e-005  -9.3293e-006   5.5042e-005   8.1478e+003   1.8710e+001   1.1008e+003    0.0000   -0.0000    0.0000   -0.0000    0.0000
                0.7936  -2.4732e-006   7.3679e-007   5.8614e-005  -6.4347e+002  -1.4782e+000   1.1723e+003    0.0000    0.0000    0.0000    0.0000    0.0000
                1.0413  -3.6649e-005   1.0918e-005   5.3661e-005  -9.5354e+003  -2.1897e+001   1.0732e+003    0.0000    0.0000    0.0000    0.0000    0.0000
                1.2935  -7.0966e-005   2.1141e-005   3.9785e-005  -1.8464e+004  -4.2400e+001   7.9570e+002    0.0000    0.0000    0.0000    0.0000    0.0000
                1.3848  -8.3231e-005   2.4795e-005   3.2593e-005  -2.1655e+004  -4.9728e+001   6.5187e+002    0.0000    0.0000    0.0000    0.0000    0.0000

               lamina:  4     
              matName:  (spar-uni)
                     s           e11           e22           e12           s11           s22           s12   s11_fcT   s11_fcC   s22_fcT   s22_fcC   s12_fcS
                   (m)         (m/m)         (m/m)         (rad)          (Pa)          (Pa)          (Pa)       (-)       (-)       (-)       (-)       (-)
                0.0000   1.0931e-004  -3.2569e-005   1.5452e-005   4.5830e+006  -2.8212e+004   4.6355e+004    0.0047   -0.0000    0.0000    0.0000    0.0015
                0.0915   9.6786e-005  -2.8851e-005   2.5064e-005   4.0580e+006  -2.5163e+004   7.5192e+004    0.0042   -0.0000    0.0000    0.0000    0.0025
                0.3170   6.5476e-005  -1.9538e-005   4.3568e-005   2.7451e+006  -1.7322e+004   1.3070e+005    0.0028   -0.0000    0.0000    0.0000    0.0044
                0.5516   3.3216e-005  -9.9484e-006   5.5042e-005   1.3925e+006  -9.3146e+003   1.6513e+005    0.0014   -0.0000    0.0000    0.0000    0.0055
                0.7936  -2.4730e-006   7.3673e-007   5.8614e-005  -1.0369e+005  -1.1434e+003   1.7584e+005    0.0000    0.0001    0.0000    0.0000    0.0059
                1.0413  -3.6649e-005   1.0918e-005   5.3661e-005  -1.5366e+006   9.4353e+003   1.6098e+005    0.0000    0.0022    0.0000   -0.0000    0.0054
                1.2935  -7.0965e-005   2.1141e-005   3.9785e-005  -2.9754e+006   1.8270e+004   1.1935e+005    0.0000    0.0042    0.0000   -0.0000    0.0040
                1.3848  -8.3231e-005   2.4795e-005   3.2593e-005  -3.4897e+006   2.1428e+004   9.7780e+004    0.0000    0.0050    0.0000   -0.0000    0.0033

               lamina:  5     
              matName:  (blade-shell)
                     s           e11           e22           e12           s11           s22           s12   s11_fcT   s11_fcC   s22_fcT   s22_fcC   s12_fcS
                   (m)         (m/m)         (m/m)         (rad)          (Pa)          (Pa)          (Pa)       (-)       (-)       (-)       (-)       (-)
                0.0000   1.0934e-004  -3.2578e-005   1.5452e-005   3.1293e+006   1.6977e+005   1.0816e+005    0.0217   -0.0000    0.0000   -0.0000    0.0018
                0.0915   9.6887e-005  -2.8884e-005   2.5064e-005   2.7729e+006   1.5022e+005   1.7545e+005    0.0193   -0.0000    0.0000   -0.0000    0.0029
                0.3170   6.5668e-005  -1.9601e-005   4.3568e-005   1.8793e+006   1.0145e+005   3.0498e+005    0.0131   -0.0000    0.0000   -0.0000    0.0051
                0.5516   3.3531e-005  -1.0051e-005   5.5042e-005   9.5932e+005   5.1150e+004   3.8529e+005    0.0067   -0.0000    0.0000   -0.0000    0.0064
                0.7936   6.7545e-007  -2.8919e-007   5.8614e-005   1.8797e+004  -7.9428e+002   4.1030e+005    0.0001   -0.0000    0.0000    0.0000    0.0068
                1.0413  -3.3173e-005   9.7854e-006   5.3661e-005  -9.5005e+005  -5.3014e+004   3.7563e+005    0.0000    0.0045    0.0000    0.0000    0.0063
                1.2935  -6.6999e-005   1.9849e-005   3.9785e-005  -1.9183e+006  -1.0577e+005   2.7849e+005    0.0000    0.0090    0.0000    0.0000    0.0046
                1.3848  -7.8892e-005   2.3381e-005   3.2593e-005  -2.2587e+006  -1.2441e+005   2.2815e+005    0.0000    0.0106    0.0000    0.0000    0.0038

            panel:  3     
           lam_num    nPlies        tPly      fibAng     matID  matName
               (-)       (-)         (m)       (deg)       (-)  (-)
                 1         1    0.005000      0.0000         2  (blade-shell)
                 2         1    0.010053      0.0000         6  (TEP-core)
                 3         1    0.005000      0.0000         2  (blade-shell)

               lamina:  1     
              matName:  (blade-shell)
                     s           e11           e22           e12           s11           s22           s12   s11_fcT   s11_fcC   s22_fcT   s22_fcC   s12_fcS
                   (m)         (m/m)         (m/m)         (rad)          (Pa)          (Pa)          (Pa)       (-)       (-)       (-)       (-)       (-)
                0.0000  -8.5106e-005   3.3886e-005   1.1655e-004  -2.3839e+006  -2.3808e+003   8.1585e+005    0.0000    0.0112    0.0000    0.0000    0.0136
                0.0024  -8.5427e-005   3.4014e-005   1.1648e-004  -2.3929e+006  -2.3898e+003   8.1533e+005    0.0000    0.0112    0.0000    0.0000    0.0136

               lamina:  2     
              matName:  (TEP-core)
                     s           e11           e22           e12           s11           s22           s12   s11_fcT   s11_fcC   s22_fcT   s22_fcC   s12_fcS
                   (m)         (m/m)         (m/m)         (rad)          (Pa)          (Pa)          (Pa)       (-)       (-)       (-)       (-)       (-)
                0.0000  -8.4725e-005   3.3734e-005   1.1655e-004  -2.1316e+004   2.3760e+003   2.3310e+003    0.0000    0.0000    0.0000   -0.0000    0.0000
                0.0024  -8.5046e-005   3.3861e-005   1.1648e-004  -2.1396e+004   2.3850e+003   2.3295e+003    0.0000    0.0000    0.0000   -0.0000    0.0000

               lamina:  3     
              matName:  (blade-shell)
                     s           e11           e22           e12           s11           s22           s12   s11_fcT   s11_fcC   s22_fcT   s22_fcC   s12_fcS
                   (m)         (m/m)         (m/m)         (rad)          (Pa)          (Pa)          (Pa)       (-)       (-)       (-)       (-)       (-)
                0.0000  -8.3959e-005   3.3427e-005   1.1655e-004  -2.3518e+006  -2.3761e+003   8.1585e+005    0.0000    0.0110    0.0000    0.0000    0.0136
                0.0024  -8.4280e-005   3.3555e-005   1.1648e-004  -2.3608e+006  -2.3851e+003   8.1533e+005    0.0000    0.0111    0.0000    0.0000    0.0136

            panel:  4     
           lam_num    nPlies        tPly      fibAng     matID  matName
               (-)       (-)         (m)       (deg)       (-)  (-)
                 1         1    0.005000      0.0000         2  (blade-shell)
                 2         1    0.010053      0.0000         6  (TEP-core)
                 3         1    0.005000      0.0000         2  (blade-shell)

               lamina:  1     
              matName:  (blade-shell)
                     s           e11           e22           e12           s11           s22           s12   s11_fcT   s11_fcC   s22_fcT   s22_fcC   s12_fcS
                   (m)         (m/m)         (m/m)         (rad)          (Pa)          (Pa)          (Pa)       (-)       (-)       (-)       (-)       (-)
                0.0000  -8.5427e-005   3.4014e-005   1.6991e-004  -2.3929e+006  -2.3898e+003   1.1894e+006    0.0000    0.0112    0.0000    0.0000    0.0198
                0.1599  -1.0697e-004   4.2592e-005   1.6984e-004  -2.9964e+006  -2.9960e+003   1.1889e+006    0.0000    0.0141    0.0000    0.0000    0.0198
                0.4128  -1.4064e-004   5.5997e-005   1.6984e-004  -3.9395e+006  -3.9436e+003   1.1889e+006    0.0000    0.0185    0.0000    0.0000    0.0198
                0.6615  -1.7339e-004   6.9037e-005   1.6424e-004  -4.8569e+006  -4.8656e+003   1.1497e+006    0.0000    0.0228    0.0000    0.0000    0.0192
                0.9029  -2.0492e-004   8.1590e-005   1.5283e-004  -5.7401e+006  -5.7534e+003   1.0698e+006    0.0000    0.0269    0.0000    0.0000    0.0178
                1.1342  -2.3490e-004   9.3525e-005   1.3858e-004  -6.5798e+006  -6.5977e+003   9.7008e+005    0.0000    0.0309    0.0000    0.0000    0.0162
                1.3526  -2.6305e-004   1.0473e-004   1.2191e-004  -7.3683e+006  -7.3908e+003   8.5338e+005    0.0000    0.0346    0.0000    0.0000    0.0142
                1.5554  -2.8909e-004   1.1510e-004   1.0332e-004  -8.0979e+006  -8.1247e+003   7.2325e+005    0.0000    0.0380    0.0000    0.0000    0.0121
                1.7401  -3.1277e-004   1.2453e-004   8.3448e-005  -8.7611e+006  -8.7921e+003   5.8413e+005    0.0000    0.0411    0.0000    0.0000    0.0097
                1.9045  -3.3384e-004   1.3292e-004   6.2978e-005  -9.3514e+006  -9.3861e+003   4.4085e+005    0.0000    0.0439    0.0000    0.0000    0.0073
                2.0468  -3.5208e-004   1.4018e-004   4.2649e-005  -9.8623e+006  -9.9002e+003   2.9854e+005    0.0000    0.0463    0.0000    0.0000    0.0050
                2.1655  -3.6728e-004   1.4623e-004   2.3204e-005  -1.0288e+007  -1.0328e+004   1.6243e+005    0.0000    0.0483    0.0000    0.0000    0.0027
                2.2595  -3.7923e-004   1.5099e-004   5.3545e-006  -1.0623e+007  -1.0665e+004   3.7482e+004    0.0000    0.0499    0.0000    0.0000    0.0006
                2.3273  -3.8788e-004   1.5443e-004   1.0267e-005  -1.0865e+007  -1.0909e+004   7.1867e+004    0.0000    0.0510    0.0000    0.0000    0.0012
                2.3681  -3.9313e-004   1.5652e-004   2.3113e-005  -1.1012e+007  -1.1057e+004   1.6179e+005    0.0000    0.0517    0.0000    0.0000    0.0027
                2.3816  -3.9490e-004   1.5723e-004   3.2637e-005  -1.1062e+007  -1.1105e+004   2.2846e+005    0.0000    0.0519    0.0000    0.0000    0.0038

               lamina:  2     
              matName:  (TEP-core)
                     s           e11           e22           e12           s11           s22           s12   s11_fcT   s11_fcC   s22_fcT   s22_fcC   s12_fcS
                   (m)         (m/m)         (m/m)         (rad)          (Pa)          (Pa)          (Pa)       (-)       (-)       (-)       (-)       (-)
                0.0000  -8.5046e-005   3.3861e-005   1.6991e-004  -2.1396e+004   2.3850e+003   3.3983e+003    0.0000    0.0000    0.0000   -0.0000    0.0000
                0.1599  -1.0657e-004   4.2429e-005   1.6984e-004  -2.6810e+004   2.9885e+003   3.3968e+003    0.0000    0.0000    0.0000   -0.0000    0.0000
                0.4128  -1.4020e-004   5.5823e-005   1.6984e-004  -3.5273e+004   3.9318e+003   3.3968e+003    0.0000    0.0000    0.0000   -0.0000    0.0000
                0.6615  -1.7293e-004   6.8852e-005   1.6424e-004  -4.3507e+004   4.8495e+003   3.2849e+003    0.0000    0.0000    0.0000   -0.0000    0.0000
                0.9029  -2.0444e-004   8.1397e-005   1.5283e-004  -5.1434e+004   5.7330e+003   3.0566e+003    0.0000    0.0000    0.0000   -0.0000    0.0000
                1.1342  -2.3440e-004   9.3325e-005   1.3858e-004  -5.8971e+004   6.5732e+003   2.7717e+003    0.0000    0.0000    0.0000   -0.0000    0.0000
                1.3526  -2.6254e-004   1.0453e-004   1.2191e-004  -6.6052e+004   7.3624e+003   2.4382e+003    0.0000    0.0000    0.0000   -0.0000    0.0000
                1.5554  -2.8858e-004   1.1490e-004   1.0332e-004  -7.2603e+004   8.0926e+003   2.0664e+003    0.0000    0.0000    0.0000   -0.0000    0.0000
                1.7401  -3.1225e-004   1.2432e-004   8.3448e-005  -7.8559e+004   8.7565e+003   1.6690e+003    0.0000    0.0000    0.0000   -0.0000    0.0000
                1.9045  -3.3333e-004   1.3271e-004   6.2978e-005  -8.3860e+004   9.3474e+003   1.2596e+003    0.0000    0.0000    0.0000   -0.0000    0.0000
                2.0468  -3.5156e-004   1.3997e-004   4.2649e-005  -8.8449e+004   9.8588e+003   8.5298e+002    0.0000    0.0000    0.0000   -0.0000    0.0000
                2.1655  -3.6675e-004   1.4602e-004   2.3204e-005  -9.2269e+004   1.0285e+004   4.6407e+002    0.0000    0.0000    0.0000   -0.0000    0.0000
                2.2595  -3.7870e-004   1.5078e-004   5.3545e-006  -9.5276e+004   1.0620e+004   1.0709e+002    0.0000    0.0000    0.0000   -0.0000    0.0000
                2.3273  -3.8736e-004   1.5423e-004   1.0267e-005  -9.7454e+004   1.0863e+004   2.0533e+002    0.0000    0.0000    0.0000   -0.0000    0.0000
                2.3681  -3.9260e-004   1.5631e-004   2.3113e-005  -9.8773e+004   1.1010e+004   4.6226e+002    0.0000    0.0000    0.0000   -0.0000    0.0000
                2.3816  -3.9433e-004   1.5700e-004   3.2637e-005  -9.9209e+004   1.1058e+004   6.5274e+002    0.0000    0.0000    0.0000   -0.0000    0.0000

               lamina:  3     
              matName:  (blade-shell)
                     s           e11           e22           e12           s11           s22           s12   s11_fcT   s11_fcC   s22_fcT   s22_fcC   s12_fcS
                   (m)         (m/m)         (m/m)         (rad)          (Pa)          (Pa)          (Pa)       (-)       (-)       (-)       (-)       (-)
                0.0000  -8.4280e-005   3.3555e-005   1.6991e-004  -2.3608e+006  -2.3851e+003   1.1894e+006    0.0000    0.0111    0.0000    0.0000    0.0198
                0.1599  -1.0575e-004   4.2103e-005   1.6984e-004  -2.9622e+006  -2.9909e+003   1.1889e+006    0.0000    0.0139    0.0000    0.0000    0.0198
                0.4128  -1.3933e-004   5.5472e-005   1.6984e-004  -3.9027e+006  -3.9382e+003   1.1889e+006    0.0000    0.0183    0.0000    0.0000    0.0198
                0.6615  -1.7200e-004   6.8480e-005   1.6424e-004  -4.8179e+006  -4.8599e+003   1.1497e+006    0.0000    0.0226    0.0000    0.0000    0.0192
                0.9029  -2.0346e-004   8.1008e-005   1.5283e-004  -5.6993e+006  -5.7474e+003   1.0698e+006    0.0000    0.0268    0.0000    0.0000    0.0178
                1.1342  -2.3339e-004   9.2924e-005   1.3858e-004  -6.5376e+006  -6.5915e+003   9.7008e+005    0.0000    0.0307    0.0000    0.0000    0.0162
                1.3526  -2.6151e-004   1.0412e-004   1.2191e-004  -7.3254e+006  -7.3845e+003   8.5338e+005    0.0000    0.0344    0.0000    0.0000    0.0142
                1.5554  -2.8754e-004   1.1448e-004   1.0332e-004  -8.0544e+006  -8.1184e+003   7.2325e+005    0.0000    0.0378    0.0000    0.0000    0.0121
                1.7401  -3.1121e-004   1.2391e-004   8.3448e-005  -8.7175e+006  -8.7857e+003   5.8413e+005    0.0000    0.0409    0.0000    0.0000    0.0097
                1.9045  -3.3228e-004   1.3230e-004   6.2978e-005  -9.3077e+006  -9.3797e+003   4.4085e+005    0.0000    0.0437    0.0000    0.0000    0.0073
                2.0468  -3.5052e-004   1.3956e-004   4.2649e-005  -9.8184e+006  -9.8938e+003   2.9854e+005    0.0000    0.0461    0.0000    0.0000    0.0050
                2.1655  -3.6568e-004   1.4559e-004   2.3204e-005  -1.0243e+007  -1.0321e+004   1.6243e+005    0.0000    0.0481    0.0000    0.0000    0.0027
                2.2595  -3.7763e-004   1.5035e-004   5.3545e-006  -1.0578e+007  -1.0658e+004   3.7482e+004    0.0000    0.0497    0.0000    0.0000    0.0006
                2.3273  -3.8631e-004   1.5381e-004   1.0267e-005  -1.0821e+007  -1.0903e+004   7.1867e+004    0.0000    0.0508    0.0000    0.0000    0.0012
                2.3681  -3.9154e-004   1.5589e-004   2.3113e-005  -1.0968e+007  -1.1050e+004   1.6179e+005    0.0000    0.0515    0.0000    0.0000    0.0027
                2.3816  -3.9320e-004   1.5655e-004   3.2637e-005  -1.1014e+007  -1.1098e+004   2.2846e+005    0.0000    0.0517    0.0000    0.0000    0.0038

  Bottom:  panel  nNode   nLam     xc_St    xc_End         b         t         E_eff         G_eff      nu_eff     density  buckleCrit
            (-)    (-)    (-)       (-)       (-)       (m)       (m)          (Pa)          (Pa)         (-)    (kg/m^3)         (-)
              1     11      3    0.0000    0.2311    1.1436    0.0700   4.2251e+009   1.0171e+009      0.3899    435.7143      0.0000
              2      8      5    0.2311    0.5189    1.3861    0.0703   4.0035e+010   3.5685e+009      0.2979   1910.0002      0.0000
              3      2      3    0.5189    0.5194    0.0024    0.0201   1.4095e+010   3.5008e+009      0.3981   1022.8261      0.0000
              4     16      3    0.5194    1.0000    2.3403    0.0201   1.4095e+010   3.5008e+009      0.3981   1022.8261      0.1686

            panel:  1     
           lam_num    nPlies        tPly      fibAng     matID  matName
               (-)       (-)         (m)       (deg)       (-)  (-)
                 1         1    0.005000      0.0000         2  (blade-shell)
                 2         1    0.060000      0.0000         5  (LEP-core)
                 3         1    0.005000      0.0000         2  (blade-shell)

               lamina:  1     
              matName:  (blade-shell)
                     s           e11           e22           e12           s11           s22           s12   s11_fcT   s11_fcC   s22_fcT   s22_fcC   s12_fcS
                   (m)         (m/m)         (m/m)         (rad)          (Pa)          (Pa)          (Pa)       (-)       (-)       (-)       (-)       (-)
                0.0000   2.7865e-004  -1.0868e-004   3.5712e-005   7.8190e+006   4.2312e+004   2.4998e+005    0.0543   -0.0000    0.0000   -0.0000    0.0042
                0.0250   2.7748e-004  -1.0822e-004   3.8288e-005   7.7864e+006   4.2180e+004   2.6802e+005    0.0541   -0.0000    0.0000   -0.0000    0.0045
                0.0727   2.7289e-004  -1.0642e-004   4.3170e-005   7.6574e+006   4.1573e+004   3.0219e+005    0.0532   -0.0000    0.0000   -0.0000    0.0050
                0.1406   2.6458e-004  -1.0318e-004   4.9978e-005   7.4244e+006   4.0399e+004   3.4984e+005    0.0516   -0.0000    0.0000   -0.0000    0.0058
                0.2330   2.5273e-004  -9.8551e-005   5.8920e-005   7.0918e+006   3.8636e+004   4.1244e+005    0.0492   -0.0000    0.0000   -0.0000    0.0069
                0.3497   2.3752e-004  -9.2622e-005   6.9643e-005   6.6652e+006   3.6335e+004   4.8750e+005    0.0463   -0.0000    0.0000   -0.0000    0.0081
                0.4884   2.1906e-004  -8.5419e-005   8.1513e-005   6.1470e+006   3.3522e+004   5.7059e+005    0.0427   -0.0000    0.0000   -0.0000    0.0095
                0.6482   1.9755e-004  -7.7034e-005   9.3993e-005   5.5436e+006   3.0233e+004   6.5795e+005    0.0385   -0.0000    0.0000   -0.0000    0.0110
                0.8271   1.7323e-004  -6.7551e-005   1.0643e-004   4.8611e+006   2.6506e+004   7.4503e+005    0.0338   -0.0000    0.0000   -0.0000    0.0124
                1.0235   1.4636e-004  -5.7073e-005   1.1819e-004   4.1070e+006   2.2382e+004   8.2734e+005    0.0285   -0.0000    0.0000   -0.0000    0.0138
                1.1436   1.2976e-004  -5.0601e-005   1.2440e-004   3.6413e+006   1.9837e+004   8.7081e+005    0.0253   -0.0000    0.0000   -0.0000    0.0145

               lamina:  2     
              matName:  (LEP-core)
                     s           e11           e22           e12           s11           s22           s12   s11_fcT   s11_fcC   s22_fcT   s22_fcC   s12_fcS
                   (m)         (m/m)         (m/m)         (rad)          (Pa)          (Pa)          (Pa)       (-)       (-)       (-)       (-)       (-)
                0.0000   2.7782e-004  -1.0835e-004   3.5712e-005   7.0090e+004  -7.1440e+003   7.1423e+002    0.0000   -0.0000    0.0000    0.0000    0.0000
                0.0250   2.7672e-004  -1.0792e-004   3.8288e-005   6.9812e+004  -7.1150e+003   7.6576e+002    0.0000   -0.0000    0.0000    0.0000    0.0000
                0.0727   2.7226e-004  -1.0617e-004   4.3170e-005   6.8687e+004  -6.9988e+003   8.6340e+002    0.0000   -0.0000    0.0000    0.0000    0.0000
                0.1406   2.6409e-004  -1.0298e-004   4.9978e-005   6.6628e+004  -6.7874e+003   9.9955e+002    0.0000   -0.0000    0.0000    0.0000    0.0000
                0.2330   2.5232e-004  -9.8391e-005   5.8920e-005   6.3659e+004  -6.4841e+003   1.1784e+003    0.0000   -0.0000    0.0000    0.0000    0.0000
                0.3497   2.3718e-004  -9.2484e-005   6.9643e-005   5.9837e+004  -6.0946e+003   1.3929e+003    0.0000   -0.0000    0.0000    0.0000    0.0000
                0.4884   2.1875e-004  -8.5299e-005   8.1513e-005   5.5189e+004  -5.6209e+003   1.6303e+003    0.0000   -0.0000    0.0000    0.0000    0.0000
                0.6482   1.9728e-004  -7.6926e-005   9.3993e-005   4.9772e+004  -5.0692e+003   1.8799e+003    0.0000   -0.0000    0.0000    0.0000    0.0000
                0.8271   1.7299e-004  -6.7454e-005   1.0643e-004   4.3643e+004  -4.4450e+003   2.1287e+003    0.0000   -0.0000    0.0000    0.0000    0.0000
                1.0235   1.4614e-004  -5.6984e-005   1.1819e-004   3.6869e+004  -3.7553e+003   2.3638e+003    0.0000   -0.0000    0.0000    0.0000    0.0000
                1.1436   1.2955e-004  -5.0519e-005   1.2440e-004   3.2685e+004  -3.3293e+003   2.4880e+003    0.0000   -0.0000    0.0000    0.0000    0.0000

               lamina:  3     
              matName:  (blade-shell)
                     s           e11           e22           e12           s11           s22           s12   s11_fcT   s11_fcC   s22_fcT   s22_fcC   s12_fcS
                   (m)         (m/m)         (m/m)         (rad)          (Pa)          (Pa)          (Pa)       (-)       (-)       (-)       (-)       (-)
                0.0000   2.6789e-004  -1.0441e-004   3.5712e-005   7.5176e+006   4.1805e+004   2.4998e+005    0.0522   -0.0000    0.0000   -0.0000    0.0042
                0.0250   2.6754e-004  -1.0427e-004   3.8288e-005   7.5077e+006   4.1711e+004   2.6802e+005    0.0521   -0.0000    0.0000   -0.0000    0.0045
                0.0727   2.6471e-004  -1.0318e-004   4.3170e-005   7.4282e+006   4.1188e+004   3.0219e+005    0.0516   -0.0000    0.0000   -0.0000    0.0050
                0.1406   2.5824e-004  -1.0066e-004   4.9978e-005   7.2467e+006   4.0100e+004   3.4984e+005    0.0503   -0.0000    0.0000   -0.0000    0.0058
                0.2330   2.4749e-004  -9.6473e-005   5.8920e-005   6.9450e+006   3.8390e+004   4.1244e+005    0.0482   -0.0000    0.0000   -0.0000    0.0069
                0.3497   2.3300e-004  -9.0825e-005   6.9643e-005   6.5384e+006   3.6122e+004   4.8750e+005    0.0454   -0.0000    0.0000   -0.0000    0.0081
                0.4884   2.1510e-004  -8.3848e-005   8.1513e-005   6.0361e+006   3.3336e+004   5.7059e+005    0.0419   -0.0000    0.0000   -0.0000    0.0095
                0.6482   1.9401e-004  -7.5628e-005   9.3993e-005   5.4443e+006   3.0066e+004   6.5795e+005    0.0378   -0.0000    0.0000   -0.0000    0.0110
                0.8271   1.7004e-004  -6.6284e-005   1.0643e-004   4.7716e+006   2.6356e+004   7.4503e+005    0.0331   -0.0000    0.0000   -0.0000    0.0124
                1.0235   1.4345e-004  -5.5918e-005   1.1819e-004   4.0255e+006   2.2245e+004   8.2734e+005    0.0280   -0.0000    0.0000   -0.0000    0.0138
                1.1436   1.2706e-004  -4.9529e-005   1.2440e-004   3.5656e+006   1.9710e+004   8.7081e+005    0.0248   -0.0000    0.0000   -0.0000    0.0145

            panel:  2     
           lam_num    nPlies        tPly      fibAng     matID  matName
               (-)       (-)         (m)       (deg)       (-)  (-)
                 1         1    0.005000      0.0000         2  (blade-shell)
                 2         1    0.030172      0.0000         3  (spar-uni)
                 3         1    0.000002      0.0000         4  (spar-core)
                 4         1    0.030172      0.0000         3  (spar-uni)
                 5         1    0.005000      0.0000         2  (blade-shell)

               lamina:  1     
              matName:  (blade-shell)
                     s           e11           e22           e12           s11           s22           s12   s11_fcT   s11_fcC   s22_fcT   s22_fcC   s12_fcS
                   (m)         (m/m)         (m/m)         (rad)          (Pa)          (Pa)          (Pa)       (-)       (-)       (-)       (-)       (-)
                0.0000   1.3226e-004  -3.9511e-005   3.7792e-005   3.7847e+006   2.0379e+005   2.6454e+005    0.0263   -0.0000    0.0000   -0.0000    0.0044
                0.0908   1.1946e-004  -3.5691e-005   4.9130e-005   3.4186e+006   1.8405e+005   3.4391e+005    0.0237   -0.0000    0.0000   -0.0000    0.0057
                0.3152   8.8068e-005  -2.6327e-005   7.2157e-005   2.5201e+006   1.3544e+005   5.0510e+005    0.0175   -0.0000    0.0000   -0.0000    0.0084
                0.5498   5.4886e-005  -1.6426e-005   8.8600e-005   1.5704e+006   8.4122e+004   6.2020e+005    0.0109   -0.0000    0.0000   -0.0000    0.0103
                0.7925   2.0244e-005  -6.0875e-006   9.7340e-005   5.7908e+005   3.0591e+004   6.8138e+005    0.0040   -0.0000    0.0000   -0.0000    0.0114
                1.0413  -1.5647e-005   4.6289e-006   9.7523e-005  -4.4804e+005  -2.4804e+004   6.8266e+005    0.0000    0.0021    0.0000    0.0000    0.0114
                1.2944  -5.1733e-005   1.5389e-005   8.8548e-005  -1.4808e+006  -8.0720e+004   6.1984e+005    0.0000    0.0070    0.0000    0.0000    0.0103
                1.3861  -6.4928e-005   1.9326e-005   8.3018e-005  -1.8584e+006  -1.0112e+005   5.8112e+005    0.0000    0.0087    0.0000    0.0000    0.0097

               lamina:  2     
              matName:  (spar-uni)
                     s           e11           e22           e12           s11           s22           s12   s11_fcT   s11_fcC   s22_fcT   s22_fcC   s12_fcS
                   (m)         (m/m)         (m/m)         (rad)          (Pa)          (Pa)          (Pa)       (-)       (-)       (-)       (-)       (-)
                0.0000   1.3170e-004  -3.9328e-005   3.7792e-005   5.5213e+006  -3.5268e+004   1.1338e+005    0.0057   -0.0000    0.0000    0.0000    0.0038
                0.0908   1.1895e-004  -3.5523e-005   4.9130e-005   4.9869e+006  -3.1873e+004   1.4739e+005    0.0051   -0.0000    0.0000    0.0000    0.0049
                0.3152   8.7607e-005  -2.6177e-005   7.2157e-005   3.6729e+006  -2.3672e+004   2.1647e+005    0.0038   -0.0000    0.0000    0.0000    0.0072
                0.5498   5.4502e-005  -1.6301e-005   8.8600e-005   2.2849e+006  -1.4960e+004   2.6580e+005    0.0024   -0.0000    0.0000    0.0000    0.0089
                0.7925   1.9957e-005  -5.9938e-006   9.7340e-005   8.3655e+005  -5.8348e+003   2.9202e+005    0.0009   -0.0000    0.0000    0.0000    0.0097
                1.0413  -1.6812e-005   5.0083e-006   9.7523e-005  -7.0487e+005   4.3282e+003   2.9257e+005    0.0000    0.0010    0.0000   -0.0000    0.0098
                1.2944  -5.2556e-005   1.5657e-005   8.8548e-005  -2.2036e+006   1.3531e+004   2.6565e+005    0.0000    0.0031    0.0000   -0.0000    0.0089
                1.3861  -6.5513e-005   1.9517e-005   8.3018e-005  -2.7468e+006   1.6867e+004   2.4905e+005    0.0000    0.0039    0.0000   -0.0000    0.0083

               lamina:  3     
              matName:  (spar-core)
                     s           e11           e22           e12           s11           s22           s12   s11_fcT   s11_fcC   s22_fcT   s22_fcC   s12_fcS
                   (m)         (m/m)         (m/m)         (rad)          (Pa)          (Pa)          (Pa)       (-)       (-)       (-)       (-)       (-)
                0.0000   1.2830e-004  -3.8222e-005   3.7792e-005   3.3382e+004   7.6655e+001   7.5584e+002    0.0000   -0.0000    0.0000   -0.0000    0.0000
                0.0908   1.1584e-004  -3.4509e-005   4.9130e-005   3.0139e+004   6.9208e+001   9.8260e+002    0.0000   -0.0000    0.0000   -0.0000    0.0000
                0.3152   8.4825e-005  -2.5270e-005   7.2157e-005   2.2070e+004   5.0679e+001   1.4431e+003    0.0000   -0.0000    0.0000   -0.0000    0.0000
                0.5498   5.2190e-005  -1.5548e-005   8.8600e-005   1.3579e+004   3.1182e+001   1.7720e+003    0.0000   -0.0000    0.0000   -0.0000    0.0000
                0.7925   1.8222e-005  -5.4284e-006   9.7340e-005   4.7409e+003   1.0887e+001   1.9468e+003    0.0000   -0.0000    0.0000   -0.0000    0.0000
                1.0413  -1.6812e-005   5.0083e-006   9.7523e-005  -4.3740e+003  -1.0044e+001   1.9505e+003    0.0000    0.0000    0.0000    0.0000    0.0000
                1.2944  -5.2557e-005   1.5657e-005   8.8548e-005  -1.3674e+004  -3.1400e+001   1.7710e+003    0.0000    0.0000    0.0000    0.0000    0.0000
                1.3861  -6.5513e-005   1.9517e-005   8.3018e-005  -1.7045e+004  -3.9141e+001   1.6604e+003    0.0000    0.0000    0.0000    0.0000    0.0000

               lamina:  4     
              matName:  (spar-uni)
                     s           e11           e22           e12           s11           s22           s12   s11_fcT   s11_fcC   s22_fcT   s22_fcC   s12_fcS
                   (m)         (m/m)         (m/m)         (rad)          (Pa)          (Pa)          (Pa)       (-)       (-)       (-)       (-)       (-)
                0.0000   1.2830e-004  -3.8222e-005   3.7792e-005   5.3794e+006  -3.3032e+004   1.1338e+005    0.0055   -0.0000    0.0000    0.0000    0.0038
                0.0908   1.1584e-004  -3.4509e-005   4.9130e-005   4.8568e+006  -2.9823e+004   1.4739e+005    0.0050   -0.0000    0.0000    0.0000    0.0049
                0.3152   8.4825e-005  -2.5270e-005   7.2157e-005   3.5565e+006  -2.1838e+004   2.1647e+005    0.0037   -0.0000    0.0000    0.0000    0.0072
                0.5498   5.2190e-005  -1.5548e-005   8.8600e-005   2.1882e+006  -1.3437e+004   2.6580e+005    0.0023   -0.0000    0.0000    0.0000    0.0089
                0.7925   1.8221e-005  -5.4283e-006   9.7340e-005   7.6399e+005  -4.6911e+003   2.9202e+005    0.0008   -0.0000    0.0000    0.0000    0.0097
                1.0413  -1.7976e-005   5.3877e-006   9.7523e-005  -7.5356e+005   5.0956e+003   2.9257e+005    0.0000    0.0011    0.0000   -0.0000    0.0098
                1.2944  -5.3380e-005   1.5925e-005   8.8548e-005  -2.2380e+006   1.4074e+004   2.6565e+005    0.0000    0.0032    0.0000   -0.0000    0.0089
                1.3861  -6.6099e-005   1.9708e-005   8.3018e-005  -2.7713e+006   1.7253e+004   2.4905e+005    0.0000    0.0039    0.0000   -0.0000    0.0083

               lamina:  5     
              matName:  (blade-shell)
                     s           e11           e22           e12           s11           s22           s12   s11_fcT   s11_fcC   s22_fcT   s22_fcC   s12_fcS
                   (m)         (m/m)         (m/m)         (rad)          (Pa)          (Pa)          (Pa)       (-)       (-)       (-)       (-)       (-)
                0.0000   1.2491e-004  -3.7117e-005   3.7792e-005   3.5756e+006   1.9550e+005   2.6454e+005    0.0248   -0.0000    0.0000   -0.0000    0.0044
                0.0908   1.1273e-004  -3.3495e-005   4.9130e-005   3.2269e+006   1.7645e+005   3.4391e+005    0.0224   -0.0000    0.0000   -0.0000    0.0057
                0.3152   8.2042e-005  -2.4363e-005   7.2157e-005   2.3486e+006   1.2864e+005   5.0510e+005    0.0163   -0.0000    0.0000   -0.0000    0.0084
                0.5498   4.9878e-005  -1.4795e-005   8.8600e-005   1.4280e+006   7.8472e+004   6.2020e+005    0.0099   -0.0000    0.0000   -0.0000    0.0103
                0.7925   1.6486e-005  -4.8629e-006   9.7340e-005   4.7216e+005   2.6350e+004   6.8138e+005    0.0033   -0.0000    0.0000   -0.0000    0.0114
                1.0413  -1.8169e-005   5.4506e-006   9.7523e-005  -5.1979e+005  -2.7649e+004   6.8266e+005    0.0000    0.0024    0.0000    0.0000    0.0114
                1.2944  -5.3517e-005   1.5970e-005   8.8548e-005  -1.5316e+006  -8.2733e+004   6.1984e+005    0.0000    0.0072    0.0000    0.0000    0.0103
                1.3861  -6.6196e-005   1.9739e-005   8.3018e-005  -1.8945e+006  -1.0255e+005   5.8112e+005    0.0000    0.0089    0.0000    0.0000    0.0097

            panel:  3     
           lam_num    nPlies        tPly      fibAng     matID  matName
               (-)       (-)         (m)       (deg)       (-)  (-)
                 1         1    0.005000      0.0000         2  (blade-shell)
                 2         1    0.010053      0.0000         6  (TEP-core)
                 3         1    0.005000      0.0000         2  (blade-shell)

               lamina:  1     
              matName:  (blade-shell)
                     s           e11           e22           e12           s11           s22           s12   s11_fcT   s11_fcC   s22_fcT   s22_fcC   s12_fcS
                   (m)         (m/m)         (m/m)         (rad)          (Pa)          (Pa)          (Pa)       (-)       (-)       (-)       (-)       (-)
                0.0000  -6.5312e-005   2.6004e-005   2.9686e-004  -1.8295e+006  -1.8424e+003   2.0780e+006    0.0000    0.0086    0.0000    0.0000    0.0346
                0.0024  -6.5649e-005   2.6138e-005   2.9680e-004  -1.8389e+006  -1.8519e+003   2.0776e+006    0.0000    0.0086    0.0000    0.0000    0.0346

               lamina:  2     
              matName:  (TEP-core)
                     s           e11           e22           e12           s11           s22           s12   s11_fcT   s11_fcC   s22_fcT   s22_fcC   s12_fcS
                   (m)         (m/m)         (m/m)         (rad)          (Pa)          (Pa)          (Pa)       (-)       (-)       (-)       (-)       (-)
                0.0000  -6.5415e-005   2.6045e-005   2.9686e-004  -1.6458e+004   1.8344e+003   5.9372e+003    0.0000    0.0000    0.0000   -0.0000    0.0000
                0.0024  -6.5753e-005   2.6179e-005   2.9680e-004  -1.6543e+004   1.8439e+003   5.9361e+003    0.0000    0.0000    0.0000   -0.0000    0.0000

               lamina:  3     
              matName:  (blade-shell)
                     s           e11           e22           e12           s11           s22           s12   s11_fcT   s11_fcC   s22_fcT   s22_fcC   s12_fcS
                   (m)         (m/m)         (m/m)         (rad)          (Pa)          (Pa)          (Pa)       (-)       (-)       (-)       (-)       (-)
                0.0000  -6.5467e-005   2.6066e-005   2.9686e-004  -1.8338e+006  -1.8430e+003   2.0780e+006    0.0000    0.0086    0.0000    0.0000    0.0346
                0.0024  -6.5804e-005   2.6200e-005   2.9680e-004  -1.8433e+006  -1.8526e+003   2.0776e+006    0.0000    0.0087    0.0000    0.0000    0.0346

            panel:  4     
           lam_num    nPlies        tPly      fibAng     matID  matName
               (-)       (-)         (m)       (deg)       (-)  (-)
                 1         1    0.005000      0.0000         2  (blade-shell)
                 2         1    0.010053      0.0000         6  (TEP-core)
                 3         1    0.005000      0.0000         2  (blade-shell)

               lamina:  1     
              matName:  (blade-shell)
                     s           e11           e22           e12           s11           s22           s12   s11_fcT   s11_fcC   s22_fcT   s22_fcC   s12_fcS
                   (m)         (m/m)         (m/m)         (rad)          (Pa)          (Pa)          (Pa)       (-)       (-)       (-)       (-)       (-)
                0.0000  -6.5649e-005   2.6138e-005   2.3888e-004  -1.8389e+006  -1.8519e+003   1.6722e+006    0.0000    0.0086    0.0000    0.0000    0.0279
                0.1600  -8.8287e-005   3.5151e-005   2.3882e-004  -2.4730e+006  -2.4899e+003   1.6718e+006    0.0000    0.0116    0.0000    0.0000    0.0279
                0.4123  -1.2400e-004   4.9369e-005   2.3882e-004  -3.4733e+006  -3.4962e+003   1.6718e+006    0.0000    0.0163    0.0000    0.0000    0.0279
                0.6595  -1.5898e-004   6.3297e-005   2.3430e-004  -4.4532e+006  -4.4822e+003   1.6401e+006    0.0000    0.0209    0.0000    0.0000    0.0273
                0.8985  -1.9280e-004   7.6762e-005   2.2447e-004  -5.4005e+006  -5.4357e+003   1.5713e+006    0.0000    0.0254    0.0000    0.0000    0.0262
                1.1264  -2.2503e-004   8.9595e-005   2.1163e-004  -6.3033e+006  -6.3446e+003   1.4814e+006    0.0000    0.0296    0.0000    0.0000    0.0247
                1.3406  -2.5529e-004   1.0164e-004   1.9620e-004  -7.1510e+006  -7.1983e+003   1.3734e+006    0.0000    0.0336    0.0000    0.0000    0.0229
                1.5385  -2.8321e-004   1.1276e-004   1.7873e-004  -7.9332e+006  -7.9862e+003   1.2511e+006    0.0000    0.0372    0.0000    0.0000    0.0209
                1.7181  -3.0850e-004   1.2283e-004   1.5985e-004  -8.6414e+006  -8.6997e+003   1.1189e+006    0.0000    0.0406    0.0000    0.0000    0.0186
                1.8777  -3.3089e-004   1.3174e-004   1.4028e-004  -9.2686e+006  -9.3318e+003   9.8199e+005    0.0000    0.0435    0.0000    0.0000    0.0164
                2.0158  -3.5013e-004   1.3940e-004   1.2077e-004  -9.8076e+006  -9.8757e+003   8.4542e+005    0.0000    0.0460    0.0000    0.0000    0.0141
                2.1311  -3.6602e-004   1.4573e-004   1.0204e-004  -1.0253e+007  -1.0325e+004   7.1428e+005    0.0000    0.0481    0.0000    0.0000    0.0119
                2.2224  -3.7844e-004   1.5067e-004   8.4774e-005  -1.0601e+007  -1.0677e+004   5.9341e+005    0.0000    0.0498    0.0000    0.0000    0.0099
                2.2890  -3.8731e-004   1.5421e-004   6.9615e-005  -1.0849e+007  -1.0928e+004   4.8730e+005    0.0000    0.0509    0.0000    0.0000    0.0081
                2.3289  -3.9262e-004   1.5632e-004   5.7120e-005  -1.0998e+007  -1.1077e+004   3.9984e+005    0.0000    0.0516    0.0000    0.0000    0.0067
                2.3403  -3.9444e-004   1.5705e-004   4.7752e-005  -1.1049e+007  -1.1123e+004   3.3427e+005    0.0000    0.0519    0.0000    0.0000    0.0056

               lamina:  2     
              matName:  (TEP-core)
                     s           e11           e22           e12           s11           s22           s12   s11_fcT   s11_fcC   s22_fcT   s22_fcC   s12_fcS
                   (m)         (m/m)         (m/m)         (rad)          (Pa)          (Pa)          (Pa)       (-)       (-)       (-)       (-)       (-)
                0.0000  -6.5753e-005   2.6179e-005   2.3888e-004  -1.6543e+004   1.8439e+003   4.7776e+003    0.0000    0.0000    0.0000   -0.0000    0.0000
                0.1600  -8.8371e-005   3.5185e-005   2.3882e-004  -2.2233e+004   2.4781e+003   4.7764e+003    0.0000    0.0000    0.0000   -0.0000    0.0000
                0.4123  -1.2406e-004   4.9392e-005   2.3882e-004  -3.1211e+004   3.4788e+003   4.7764e+003    0.0000    0.0000    0.0000   -0.0000    0.0000
                0.6595  -1.5902e-004   6.3315e-005   2.3430e-004  -4.0009e+004   4.4594e+003   4.6860e+003    0.0000    0.0000    0.0000   -0.0000    0.0000
                0.8985  -1.9285e-004   7.6784e-005   2.2447e-004  -4.8520e+004   5.4080e+003   4.4894e+003    0.0000    0.0000    0.0000   -0.0000    0.0000
                1.1264  -2.2511e-004   8.9627e-005   2.1163e-004  -5.6635e+004   6.3126e+003   4.2326e+003    0.0000    0.0000    0.0000   -0.0000    0.0000
                1.3406  -2.5542e-004   1.0169e-004   1.9620e-004  -6.4260e+004   7.1625e+003   3.9240e+003    0.0000    0.0000    0.0000   -0.0000    0.0000
                1.5385  -2.8340e-004   1.1284e-004   1.7873e-004  -7.1301e+004   7.9473e+003   3.5745e+003    0.0000    0.0000    0.0000   -0.0000    0.0000
                1.7181  -3.0875e-004   1.2293e-004   1.5985e-004  -7.7678e+004   8.6581e+003   3.1969e+003    0.0000    0.0000    0.0000   -0.0000    0.0000
                1.8777  -3.3122e-004   1.3188e-004   1.4028e-004  -8.3331e+004   9.2883e+003   2.8057e+003    0.0000    0.0000    0.0000   -0.0000    0.0000
                2.0158  -3.5058e-004   1.3958e-004   1.2077e-004  -8.8201e+004   9.8311e+003   2.4155e+003    0.0000    0.0000    0.0000   -0.0000    0.0000
                2.1311  -3.6659e-004   1.4596e-004   1.0204e-004  -9.2229e+004   1.0280e+004   2.0408e+003    0.0000    0.0000    0.0000   -0.0000    0.0000
                2.2224  -3.7914e-004   1.5095e-004   8.4774e-005  -9.5387e+004   1.0632e+004   1.6955e+003    0.0000    0.0000    0.0000   -0.0000    0.0000
                2.2890  -3.8813e-004   1.5454e-004   6.9615e-005  -9.7649e+004   1.0884e+004   1.3923e+003    0.0000    0.0000    0.0000   -0.0000    0.0000
                2.3289  -3.9336e-004   1.5662e-004   5.7120e-005  -9.8964e+004   1.1031e+004   1.1424e+003    0.0000    0.0000    0.0000   -0.0000    0.0000
                2.3403  -3.9474e-004   1.5716e-004   4.7752e-005  -9.9311e+004   1.1069e+004   9.5505e+002    0.0000    0.0000    0.0000   -0.0000    0.0000

               lamina:  3     
              matName:  (blade-shell)
                     s           e11           e22           e12           s11           s22           s12   s11_fcT   s11_fcC   s22_fcT   s22_fcC   s12_fcS
                   (m)         (m/m)         (m/m)         (rad)          (Pa)          (Pa)          (Pa)       (-)       (-)       (-)       (-)       (-)
                0.0000  -6.5804e-005   2.6200e-005   2.3888e-004  -1.8433e+006  -1.8526e+003   1.6722e+006    0.0000    0.0087    0.0000    0.0000    0.0279
                0.1600  -8.8412e-005   3.5201e-005   2.3882e-004  -2.4765e+006  -2.4904e+003   1.6718e+006    0.0000    0.0116    0.0000    0.0000    0.0279
                0.4123  -1.2409e-004   4.9404e-005   2.3882e-004  -3.4758e+006  -3.4966e+003   1.6718e+006    0.0000    0.0163    0.0000    0.0000    0.0279
                0.6595  -1.5905e-004   6.3325e-005   2.3430e-004  -4.4551e+006  -4.4825e+003   1.6401e+006    0.0000    0.0209    0.0000    0.0000    0.0273
                0.8985  -1.9288e-004   7.6795e-005   2.2447e-004  -5.4028e+006  -5.4361e+003   1.5713e+006    0.0000    0.0254    0.0000    0.0000    0.0262
                1.1264  -2.2515e-004   8.9644e-005   2.1163e-004  -6.3068e+006  -6.3451e+003   1.4814e+006    0.0000    0.0296    0.0000    0.0000    0.0247
                1.3406  -2.5548e-004   1.0172e-004   1.9620e-004  -7.1564e+006  -7.1991e+003   1.3734e+006    0.0000    0.0336    0.0000    0.0000    0.0229
                1.5385  -2.8350e-004   1.1287e-004   1.7873e-004  -7.9411e+006  -7.9873e+003   1.2511e+006    0.0000    0.0373    0.0000    0.0000    0.0209
                1.7181  -3.0888e-004   1.2298e-004   1.5985e-004  -8.6521e+006  -8.7013e+003   1.1189e+006    0.0000    0.0406    0.0000    0.0000    0.0186
                1.8777  -3.3139e-004   1.3194e-004   1.4028e-004  -9.2826e+006  -9.3339e+003   9.8199e+005    0.0000    0.0436    0.0000    0.0000    0.0164
                2.0158  -3.5080e-004   1.3967e-004   1.2077e-004  -9.8264e+006  -9.8784e+003   8.4542e+005    0.0000    0.0461    0.0000    0.0000    0.0141
                2.1311  -3.6687e-004   1.4607e-004   1.0204e-004  -1.0277e+007  -1.0328e+004   7.1428e+005    0.0000    0.0482    0.0000    0.0000    0.0119
                2.2224  -3.7949e-004   1.5109e-004   8.4774e-005  -1.0630e+007  -1.0681e+004   5.9341e+005    0.0000    0.0499    0.0000    0.0000    0.0099
                2.2890  -3.8854e-004   1.5470e-004   6.9615e-005  -1.0884e+007  -1.0933e+004   4.8730e+005    0.0000    0.0511    0.0000    0.0000    0.0081
                2.3289  -3.9373e-004   1.5676e-004   5.7120e-005  -1.1029e+007  -1.1081e+004   3.9984e+005    0.0000    0.0518    0.0000    0.0000    0.0067
                2.3403  -3.9489e-004   1.5722e-004   4.7752e-005  -1.1061e+007  -1.1125e+004   3.3427e+005    0.0000    0.0519    0.0000    0.0000    0.0056

     Web:  panel  nNode   nLam     xc_St    xc_End         b         t         E_eff         G_eff      nu_eff     density  buckleCrit
            (-)    (-)    (-)       (-)       (-)       (m)       (m)          (Pa)          (Pa)         (-)    (kg/m^3)         (-)
              1     10      3    0.2311    0.2311    0.6658    0.0830   7.6445e+008   4.5301e+008      0.4420    257.1084      0.0000
              2     10      3    0.5194    0.5194    0.7262    0.0830   7.6445e+008   4.5301e+008      0.4420    257.1084      0.0000

            panel:  1     
           lam_num    nPlies        tPly      fibAng     matID  matName
               (-)       (-)         (m)       (deg)       (-)  (-)
                 1         1    0.001500      0.0000         7  (web-shell)
                 2         1    0.080000      0.0000         8  (web-core)
                 3         1    0.001500      0.0000         7  (web-shell)

               lamina:  1     
              matName:  (web-shell)
                     s           e11           e22           e12           s11           s22           s12   s11_fcT   s11_fcC   s22_fcT   s22_fcC   s12_fcS
                   (m)         (m/m)         (m/m)         (rad)          (Pa)          (Pa)          (Pa)       (-)       (-)       (-)       (-)       (-)
                0.0000   1.0172e-004  -4.4704e-005   4.6418e-006   1.4816e+006   1.1493e+005   5.5702e+004    0.0103   -0.0000    0.0000   -0.0000    0.0006
                0.0740   1.0371e-004  -4.5583e-005   5.8958e-006   1.5105e+006   1.1708e+005   7.0750e+004    0.0105   -0.0000    0.0000   -0.0000    0.0008
                0.1480   1.0570e-004  -4.6462e-005   7.1725e-006   1.5394e+006   1.1923e+005   8.6070e+004    0.0107   -0.0000    0.0000   -0.0000    0.0010
                0.2219   1.0769e-004  -4.7342e-005   8.4718e-006   1.5683e+006   1.2139e+005   1.0166e+005    0.0109   -0.0000    0.0000   -0.0000    0.0011
                0.2959   1.0968e-004  -4.8221e-005   9.7938e-006   1.5973e+006   1.2354e+005   1.1753e+005    0.0111   -0.0000    0.0000   -0.0000    0.0013
                0.3699   1.1167e-004  -4.9101e-005   1.1138e-005   1.6262e+006   1.2569e+005   1.3366e+005    0.0113   -0.0000    0.0000   -0.0000    0.0015
                0.4439   1.1366e-004  -4.9980e-005   1.2506e-005   1.6551e+006   1.2785e+005   1.5007e+005    0.0115   -0.0000    0.0000   -0.0000    0.0017
                0.5178   1.1565e-004  -5.0859e-005   1.3895e-005   1.6841e+006   1.3000e+005   1.6675e+005    0.0117   -0.0000    0.0000   -0.0000    0.0019
                0.5918   1.1764e-004  -5.1739e-005   1.5308e-005   1.7130e+006   1.3215e+005   1.8370e+005    0.0119   -0.0000    0.0000   -0.0000    0.0020
                0.6658   1.1963e-004  -5.2618e-005   1.6743e-005   1.7419e+006   1.3430e+005   2.0092e+005    0.0121   -0.0000    0.0000   -0.0000    0.0022

               lamina:  2     
              matName:  (web-core)
                     s           e11           e22           e12           s11           s22           s12   s11_fcT   s11_fcC   s22_fcT   s22_fcC   s12_fcS
                   (m)         (m/m)         (m/m)         (rad)          (Pa)          (Pa)          (Pa)       (-)       (-)       (-)       (-)       (-)
                0.0000   1.1667e-004  -5.1830e-005   4.6418e-006   2.8891e+004  -4.8086e+003   9.2836e+001    0.0000   -0.0000    0.0000    0.0000    0.0000
                0.0740   1.1866e-004  -5.2710e-005   5.8958e-006   2.9384e+004  -4.8893e+003   1.1792e+002    0.0000   -0.0000    0.0000    0.0000    0.0000
                0.1480   1.2065e-004  -5.3589e-005   7.1725e-006   2.9877e+004  -4.9701e+003   1.4345e+002    0.0000   -0.0000    0.0000    0.0000    0.0000
                0.2219   1.2264e-004  -5.4468e-005   8.4718e-006   3.0370e+004  -5.0508e+003   1.6944e+002    0.0000   -0.0000    0.0000    0.0000    0.0000
                0.2959   1.2462e-004  -5.5348e-005   9.7938e-006   3.0863e+004  -5.1315e+003   1.9588e+002    0.0000   -0.0000    0.0000    0.0000    0.0000
                0.3699   1.2661e-004  -5.6227e-005   1.1138e-005   3.1356e+004  -5.2123e+003   2.2277e+002    0.0000   -0.0000    0.0000    0.0000    0.0000
                0.4439   1.2860e-004  -5.7107e-005   1.2506e-005   3.1849e+004  -5.2930e+003   2.5011e+002    0.0000   -0.0000    0.0000    0.0000    0.0000
                0.5178   1.3059e-004  -5.7986e-005   1.3895e-005   3.2342e+004  -5.3737e+003   2.7791e+002    0.0000   -0.0000    0.0000    0.0000    0.0000
                0.5918   1.3258e-004  -5.8865e-005   1.5308e-005   3.2835e+004  -5.4545e+003   3.0616e+002    0.0000   -0.0000    0.0000    0.0000    0.0000
                0.6658   1.3457e-004  -5.9745e-005   1.6743e-005   3.3328e+004  -5.5352e+003   3.3486e+002    0.0000   -0.0000    0.0000    0.0000    0.0000

               lamina:  3     
              matName:  (web-shell)
                     s           e11           e22           e12           s11           s22           s12   s11_fcT   s11_fcC   s22_fcT   s22_fcC   s12_fcS
                   (m)         (m/m)         (m/m)         (rad)          (Pa)          (Pa)          (Pa)       (-)       (-)       (-)       (-)       (-)
                0.0000   1.1695e-004  -5.1964e-005   4.6418e-006   1.6980e+006   1.2152e+005   5.5702e+004    0.0118   -0.0000    0.0000   -0.0000    0.0006
                0.0740   1.1894e-004  -5.2843e-005   5.8958e-006   1.7270e+006   1.2367e+005   7.0750e+004    0.0120   -0.0000    0.0000   -0.0000    0.0008
                0.1480   1.2093e-004  -5.3723e-005   7.1725e-006   1.7559e+006   1.2582e+005   8.6070e+004    0.0122   -0.0000    0.0000   -0.0000    0.0010
                0.2219   1.2292e-004  -5.4602e-005   8.4718e-006   1.7848e+006   1.2797e+005   1.0166e+005    0.0124   -0.0000    0.0000   -0.0000    0.0011
                0.2959   1.2491e-004  -5.5481e-005   9.7938e-006   1.8137e+006   1.3013e+005   1.1753e+005    0.0126   -0.0000    0.0000   -0.0000    0.0013
                0.3699   1.2689e-004  -5.6361e-005   1.1138e-005   1.8427e+006   1.3228e+005   1.3366e+005    0.0128   -0.0000    0.0000   -0.0000    0.0015
                0.4439   1.2888e-004  -5.7240e-005   1.2506e-005   1.8716e+006   1.3443e+005   1.5007e+005    0.0130   -0.0000    0.0000   -0.0000    0.0017
                0.5178   1.3087e-004  -5.8120e-005   1.3895e-005   1.9005e+006   1.3659e+005   1.6675e+005    0.0132   -0.0000    0.0000   -0.0000    0.0019
                0.5918   1.3286e-004  -5.8999e-005   1.5308e-005   1.9295e+006   1.3874e+005   1.8370e+005    0.0134   -0.0000    0.0000   -0.0000    0.0020
                0.6658   1.3485e-004  -5.9878e-005   1.6743e-005   1.9584e+006   1.4089e+005   2.0092e+005    0.0136   -0.0000    0.0000   -0.0000    0.0022

            panel:  2     
           lam_num    nPlies        tPly      fibAng     matID  matName
               (-)       (-)         (m)       (deg)       (-)  (-)
                 1         1    0.001500      0.0000         7  (web-shell)
                 2         1    0.080000      0.0000         8  (web-core)
                 3         1    0.001500      0.0000         7  (web-shell)

               lamina:  1     
              matName:  (web-shell)
                     s           e11           e22           e12           s11           s22           s12   s11_fcT   s11_fcC   s22_fcT   s22_fcC   s12_fcS
                   (m)         (m/m)         (m/m)         (rad)          (Pa)          (Pa)          (Pa)       (-)       (-)       (-)       (-)       (-)
                0.0000  -9.1989e-005   4.0932e-005   9.9773e-005  -1.3351e+006  -9.4498e+004   1.1973e+006    0.0000    0.0063    0.0000    0.0000    0.0133
                0.0807  -8.9938e-005   4.0025e-005   1.0081e-004  -1.3053e+006  -9.2278e+004   1.2097e+006    0.0000    0.0061    0.0000    0.0000    0.0134
                0.1614  -8.7887e-005   3.9119e-005   1.0181e-004  -1.2754e+006  -9.0059e+004   1.2217e+006    0.0000    0.0060    0.0000    0.0000    0.0136
                0.2421  -8.5836e-005   3.8212e-005   1.0279e-004  -1.2456e+006  -8.7839e+004   1.2335e+006    0.0000    0.0058    0.0000    0.0000    0.0137
                0.3227  -8.3785e-005   3.7306e-005   1.0375e-004  -1.2158e+006  -8.5620e+004   1.2450e+006    0.0000    0.0057    0.0000    0.0000    0.0138
                0.4034  -8.1734e-005   3.6399e-005   1.0468e-004  -1.1860e+006  -8.3400e+004   1.2562e+006    0.0000    0.0056    0.0000    0.0000    0.0140
                0.4841  -7.9683e-005   3.5492e-005   1.0559e-004  -1.1561e+006  -8.1181e+004   1.2670e+006    0.0000    0.0054    0.0000    0.0000    0.0141
                0.5648  -7.7632e-005   3.4586e-005   1.0647e-004  -1.1263e+006  -7.8962e+004   1.2776e+006    0.0000    0.0053    0.0000    0.0000    0.0142
                0.6455  -7.5581e-005   3.3679e-005   1.0732e-004  -1.0965e+006  -7.6742e+004   1.2878e+006    0.0000    0.0051    0.0000    0.0000    0.0143
                0.7262  -7.3530e-005   3.2773e-005   1.0815e-004  -1.0667e+006  -7.4523e+004   1.2978e+006    0.0000    0.0050    0.0000    0.0000    0.0144

               lamina:  2     
              matName:  (web-core)
                     s           e11           e22           e12           s11           s22           s12   s11_fcT   s11_fcC   s22_fcT   s22_fcC   s12_fcS
                   (m)         (m/m)         (m/m)         (rad)          (Pa)          (Pa)          (Pa)       (-)       (-)       (-)       (-)       (-)
                0.0000  -9.1708e-005   4.0798e-005   9.9773e-005  -2.2705e+004   3.7959e+003   1.9955e+003    0.0000    0.0000    0.0000   -0.0000    0.0000
                0.0807  -8.9657e-005   3.9892e-005   1.0081e-004  -2.2197e+004   3.7127e+003   2.0161e+003    0.0000    0.0000    0.0000   -0.0000    0.0000
                0.1614  -8.7606e-005   3.8985e-005   1.0181e-004  -2.1689e+004   3.6295e+003   2.0362e+003    0.0000    0.0000    0.0000   -0.0000    0.0000
                0.2421  -8.5555e-005   3.8078e-005   1.0279e-004  -2.1180e+004   3.5462e+003   2.0559e+003    0.0000    0.0000    0.0000   -0.0000    0.0000
                0.3227  -8.3504e-005   3.7172e-005   1.0375e-004  -2.0672e+004   3.4630e+003   2.0750e+003    0.0000    0.0000    0.0000   -0.0000    0.0000
                0.4034  -8.1453e-005   3.6265e-005   1.0468e-004  -2.0164e+004   3.3798e+003   2.0936e+003    0.0000    0.0000    0.0000   -0.0000    0.0000
                0.4841  -7.9402e-005   3.5358e-005   1.0559e-004  -1.9656e+004   3.2965e+003   2.1117e+003    0.0000    0.0000    0.0000   -0.0000    0.0000
                0.5648  -7.7351e-005   3.4452e-005   1.0647e-004  -1.9147e+004   3.2133e+003   2.1293e+003    0.0000    0.0000    0.0000   -0.0000    0.0000
                0.6455  -7.5300e-005   3.3545e-005   1.0732e-004  -1.8639e+004   3.1301e+003   2.1464e+003    0.0000    0.0000    0.0000   -0.0000    0.0000
                0.7262  -7.3249e-005   3.2639e-005   1.0815e-004  -1.8131e+004   3.0469e+003   2.1630e+003    0.0000    0.0000    0.0000   -0.0000    0.0000

               lamina:  3     
              matName:  (web-shell)
                     s           e11           e22           e12           s11           s22           s12   s11_fcT   s11_fcC   s22_fcT   s22_fcC   s12_fcS
                   (m)         (m/m)         (m/m)         (rad)          (Pa)          (Pa)          (Pa)       (-)       (-)       (-)       (-)       (-)
                0.0000  -7.6732e-005   3.3657e-005   9.9773e-005  -1.1182e+006  -8.7897e+004   1.1973e+006    0.0000    0.0052    0.0000    0.0000    0.0133
                0.0807  -7.4681e-005   3.2751e-005   1.0081e-004  -1.0884e+006  -8.5678e+004   1.2097e+006    0.0000    0.0051    0.0000    0.0000    0.0134
                0.1614  -7.2630e-005   3.1844e-005   1.0181e-004  -1.0585e+006  -8.3458e+004   1.2217e+006    0.0000    0.0050    0.0000    0.0000    0.0136
                0.2421  -7.0579e-005   3.0937e-005   1.0279e-004  -1.0287e+006  -8.1239e+004   1.2335e+006    0.0000    0.0048    0.0000    0.0000    0.0137
                0.3227  -6.8528e-005   3.0031e-005   1.0375e-004  -9.9890e+005  -7.9019e+004   1.2450e+006    0.0000    0.0047    0.0000    0.0000    0.0138
                0.4034  -6.6477e-005   2.9124e-005   1.0468e-004  -9.6908e+005  -7.6800e+004   1.2562e+006    0.0000    0.0045    0.0000    0.0000    0.0140
                0.4841  -6.4426e-005   2.8218e-005   1.0559e-004  -9.3925e+005  -7.4580e+004   1.2670e+006    0.0000    0.0044    0.0000    0.0000    0.0141
                0.5648  -6.2375e-005   2.7311e-005   1.0647e-004  -9.0943e+005  -7.2361e+004   1.2776e+006    0.0000    0.0043    0.0000    0.0000    0.0142
                0.6455  -6.0324e-005   2.6404e-005   1.0732e-004  -8.7960e+005  -7.0141e+004   1.2878e+006    0.0000    0.0041    0.0000    0.0000    0.0143
                0.7262  -5.8273e-005   2.5498e-005   1.0815e-004  -8.4978e+005  -6.7922e+004   1.2978e+006    0.0000    0.0040    0.0000    0.0000    0.0144

================================================================================
sec        =  27     
zSec       =  76.1000  (m)
nPanelsTop =  4      
nPanelsBot =  4      
nWebs      =  2      

    Top:  panel  nNode   nLam     xc_St    xc_End         b         t         E_eff         G_eff      nu_eff     density  buckleCrit
            (-)    (-)    (-)       (-)       (-)       (m)       (m)          (Pa)          (Pa)         (-)    (kg/m^3)         (-)
              1     11      3    0.0000    0.2197    1.1021    0.0566   5.1605e+009   1.2525e+009      0.3919    491.3576      0.0000
              2      8      5    0.2197    0.5303    1.3777    0.0566   3.9558e+010   3.7062e+009      0.3022   1907.5791      0.0000
              3      2      3    0.5303    0.5307    0.0018    0.0200   1.4131e+010   3.5100e+009      0.3982   1025.0000      0.0000
              4     16      3    0.5307    1.0000    2.1422    0.0200   1.4131e+010   3.5100e+009      0.3982   1025.0000      0.1978

            panel:  1     
           lam_num    nPlies        tPly      fibAng     matID  matName
               (-)       (-)         (m)       (deg)       (-)  (-)
                 1         1    0.005000      0.0000         2  (blade-shell)
                 2         1    0.046631      0.0000         5  (LEP-core)
                 3         1    0.005000      0.0000         2  (blade-shell)

               lamina:  1     
              matName:  (blade-shell)
                     s           e11           e22           e12           s11           s22           s12   s11_fcT   s11_fcC   s22_fcT   s22_fcC   s12_fcS
                   (m)         (m/m)         (m/m)         (rad)          (Pa)          (Pa)          (Pa)       (-)       (-)       (-)       (-)       (-)
                0.0000   1.7729e-004  -6.9507e-005   2.1601e-005   4.9727e+006   2.1450e+004   1.5121e+005    0.0345   -0.0000    0.0000   -0.0000    0.0025
                0.0680   1.7387e-004  -6.8165e-005   1.6041e-005   4.8769e+006   2.1067e+004   1.1229e+005    0.0339   -0.0000    0.0000   -0.0000    0.0019
                0.1178   1.6877e-004  -6.6159e-005   1.2055e-005   4.7338e+006   2.0535e+004   8.4383e+004    0.0329   -0.0000    0.0000   -0.0000    0.0014
                0.1905   1.6151e-004  -6.3311e-005   6.4229e-006   4.5303e+006   1.9695e+004   4.4960e+004    0.0315   -0.0000    0.0000   -0.0000    0.0007
                0.2859   1.5202e-004  -5.9588e-005   6.1027e-007   4.2640e+006   1.8563e+004   4.2719e+003    0.0296   -0.0000    0.0000   -0.0000    0.0001
                0.4016   1.4041e-004  -5.5037e-005   8.5875e-006   3.9385e+006   1.7167e+004   6.0113e+004    0.0274   -0.0000    0.0000   -0.0000    0.0010
                0.5361   1.2689e-004  -4.9736e-005   1.7079e-005   3.5592e+006   1.5532e+004   1.1955e+005    0.0247   -0.0000    0.0000   -0.0000    0.0020
                0.6888   1.1160e-004  -4.3742e-005   2.5687e-005   3.1303e+006   1.3675e+004   1.7981e+005    0.0217   -0.0000    0.0000   -0.0000    0.0030
                0.8578   9.4739e-005  -3.7132e-005   3.3946e-005   2.6573e+006   1.1623e+004   2.3762e+005    0.0185   -0.0000    0.0000   -0.0000    0.0040
                1.0417   7.6514e-005  -2.9988e-005   4.1419e-005   2.1462e+006   9.3996e+003   2.8993e+005    0.0149   -0.0000    0.0000   -0.0000    0.0048
                1.1021   7.0491e-005  -2.7627e-005   4.3531e-005   1.9772e+006   8.6704e+003   3.0472e+005    0.0137   -0.0000    0.0000   -0.0000    0.0051

               lamina:  2     
              matName:  (LEP-core)
                     s           e11           e22           e12           s11           s22           s12   s11_fcT   s11_fcC   s22_fcT   s22_fcC   s12_fcS
                   (m)         (m/m)         (m/m)         (rad)          (Pa)          (Pa)          (Pa)       (-)       (-)       (-)       (-)       (-)
                0.0000   1.7675e-004  -6.9290e-005   2.1601e-005   4.4560e+004  -4.6475e+003   4.3203e+002    0.0000   -0.0000    0.0000    0.0000    0.0000
                0.0680   1.7340e-004  -6.7977e-005   1.6041e-005   4.3717e+004  -4.5591e+003   3.2082e+002    0.0000   -0.0000    0.0000    0.0000    0.0000
                0.1178   1.6849e-004  -6.6046e-005   1.2055e-005   4.2478e+004  -4.4285e+003   2.4109e+002    0.0000   -0.0000    0.0000    0.0000    0.0000
                0.1905   1.6133e-004  -6.3238e-005   6.4229e-006   4.0673e+004  -4.2397e+003   1.2846e+002    0.0000   -0.0000    0.0000    0.0000    0.0000
                0.2859   1.5190e-004  -5.9540e-005   6.1027e-007   3.8296e+004  -3.9915e+003   1.2205e+001    0.0000   -0.0000    0.0000    0.0000    0.0000
                0.4016   1.4034e-004  -5.5010e-005   8.5875e-006   3.5383e+004  -3.6876e+003   1.7175e+002    0.0000   -0.0000    0.0000    0.0000    0.0000
                0.5361   1.2687e-004  -4.9726e-005   1.7079e-005   3.1985e+004  -3.3331e+003   3.4158e+002    0.0000   -0.0000    0.0000    0.0000    0.0000
                0.6888   1.1168e-004  -4.3774e-005   2.5687e-005   2.8157e+004  -2.9341e+003   5.1373e+002    0.0000   -0.0000    0.0000    0.0000    0.0000
                0.8578   9.5125e-005  -3.7285e-005   3.3946e-005   2.3983e+004  -2.4994e+003   6.7892e+002    0.0000   -0.0000    0.0000    0.0000    0.0000
                1.0417   7.7112e-005  -3.0226e-005   4.1419e-005   1.9441e+004  -2.0263e+003   8.2837e+002    0.0000   -0.0000    0.0000    0.0000    0.0000
                1.1021   7.1288e-005  -2.7944e-005   4.3531e-005   1.7973e+004  -1.8735e+003   8.7062e+002    0.0000   -0.0000    0.0000    0.0000    0.0000

               lamina:  3     
              matName:  (blade-shell)
                     s           e11           e22           e12           s11           s22           s12   s11_fcT   s11_fcC   s22_fcT   s22_fcC   s12_fcS
                   (m)         (m/m)         (m/m)         (rad)          (Pa)          (Pa)          (Pa)       (-)       (-)       (-)       (-)       (-)
                0.0000   1.7166e-004  -6.7269e-005   2.1601e-005   4.8151e+006   2.1252e+004   1.5121e+005    0.0334   -0.0000    0.0000   -0.0000    0.0025
                0.0680   1.6899e-004  -6.6221e-005   1.6041e-005   4.7400e+006   2.0895e+004   1.1229e+005    0.0329   -0.0000    0.0000   -0.0000    0.0019
                0.1178   1.6582e-004  -6.4987e-005   1.2055e-005   4.6512e+006   2.0431e+004   8.4383e+004    0.0323   -0.0000    0.0000   -0.0000    0.0014
                0.1905   1.5960e-004  -6.2551e-005   6.4229e-006   4.4767e+006   1.9628e+004   4.4960e+004    0.0311   -0.0000    0.0000   -0.0000    0.0007
                0.2859   1.5076e-004  -5.9086e-005   6.1027e-007   4.2286e+006   1.8519e+004   4.2719e+003    0.0294   -0.0000    0.0000   -0.0000    0.0001
                0.4016   1.3969e-004  -5.4751e-005   8.5875e-006   3.9183e+006   1.7142e+004   6.0113e+004    0.0272   -0.0000    0.0000   -0.0000    0.0010
                0.5361   1.2662e-004  -4.9629e-005   1.7079e-005   3.5516e+006   1.5523e+004   1.1955e+005    0.0247   -0.0000    0.0000   -0.0000    0.0020
                0.6888   1.1169e-004  -4.3778e-005   2.5687e-005   3.1329e+006   1.3679e+004   1.7981e+005    0.0218   -0.0000    0.0000   -0.0000    0.0030
                0.8578   9.5166e-005  -3.7302e-005   3.3946e-005   2.6693e+006   1.1638e+004   2.3762e+005    0.0185   -0.0000    0.0000   -0.0000    0.0040
                1.0417   7.7176e-005  -3.0251e-005   4.1419e-005   2.1647e+006   9.4230e+003   2.8993e+005    0.0150   -0.0000    0.0000   -0.0000    0.0048
                1.1021   7.1374e-005  -2.7978e-005   4.3531e-005   2.0019e+006   8.7016e+003   3.0472e+005    0.0139   -0.0000    0.0000   -0.0000    0.0051

            panel:  2     
           lam_num    nPlies        tPly      fibAng     matID  matName
               (-)       (-)         (m)       (deg)       (-)  (-)
                 1         1    0.005000      0.0000         2  (blade-shell)
                 2         1    0.023316      0.0000         3  (spar-uni)
                 3         1    0.000002      0.0000         4  (spar-core)
                 4         1    0.023316      0.0000         3  (spar-uni)
                 5         1    0.005000      0.0000         2  (blade-shell)

               lamina:  1     
              matName:  (blade-shell)
                     s           e11           e22           e12           s11           s22           s12   s11_fcT   s11_fcC   s22_fcT   s22_fcC   s12_fcS
                   (m)         (m/m)         (m/m)         (rad)          (Pa)          (Pa)          (Pa)       (-)       (-)       (-)       (-)       (-)
                0.0000   6.9824e-005  -2.1066e-005   1.6417e-005   1.9969e+006   1.0444e+005   1.1492e+005    0.0139   -0.0000    0.0000   -0.0000    0.0019
                0.1356   5.6337e-005  -1.6984e-005   2.7096e-005   1.6112e+006   8.4469e+004   1.8967e+005    0.0112   -0.0000    0.0000   -0.0000    0.0032
                0.3431   3.5820e-005  -1.0773e-005   3.9185e-005   1.0246e+006   5.4096e+004   2.7429e+005    0.0071   -0.0000    0.0000   -0.0000    0.0046
                0.5593   1.4624e-005  -4.3549e-006   4.6344e-005   4.1857e+005   2.2746e+004   3.2441e+005    0.0029   -0.0000    0.0000   -0.0000    0.0054
                0.7823  -7.4603e-006   2.3497e-006   4.7998e-005  -2.1275e+005  -9.6542e+003   3.3598e+005    0.0000    0.0010    0.0000    0.0000    0.0056
                1.0106  -2.9161e-005   8.9237e-006   4.3766e-005  -8.3319e+005  -4.1705e+004   3.0636e+005    0.0000    0.0039    0.0000    0.0000    0.0051
                1.2427  -5.0623e-005   1.5421e-005   3.3441e-005  -1.4468e+006  -7.3476e+004   2.3409e+005    0.0000    0.0068    0.0000    0.0000    0.0039
                1.3777  -6.2894e-005   1.9136e-005   2.4693e-005  -1.7977e+006  -9.1638e+004   1.7285e+005    0.0000    0.0084    0.0000    0.0000    0.0029

               lamina:  2     
              matName:  (spar-uni)
                     s           e11           e22           e12           s11           s22           s12   s11_fcT   s11_fcC   s22_fcT   s22_fcC   s12_fcS
                   (m)         (m/m)         (m/m)         (rad)          (Pa)          (Pa)          (Pa)       (-)       (-)       (-)       (-)       (-)
                0.0000   7.0890e-005  -2.1423e-005   1.6417e-005   2.9710e+006  -2.2625e+004   4.9251e+004    0.0031   -0.0000    0.0000    0.0000    0.0016
                0.1356   5.7604e-005  -1.7408e-005   2.7096e-005   2.4142e+006  -1.8384e+004   8.1289e+004    0.0025   -0.0000    0.0000    0.0000    0.0027
                0.3431   3.7412e-005  -1.1306e-005   3.9185e-005   1.5680e+006  -1.1940e+004   1.1755e+005    0.0016   -0.0000    0.0000    0.0000    0.0039
                0.5593   1.6610e-005  -5.0197e-006   4.6344e-005   6.9615e+005  -5.3012e+003   1.3903e+005    0.0007   -0.0000    0.0000    0.0000    0.0046
                0.7823  -6.9430e-006   2.1766e-006   4.7998e-005  -2.9067e+005   3.3427e+003   1.4399e+005    0.0000    0.0004    0.0000   -0.0000    0.0048
                1.0106  -2.8556e-005   8.7213e-006   4.3766e-005  -1.1964e+006   1.0431e+004   1.3130e+005    0.0000    0.0017    0.0000   -0.0000    0.0044
                1.2427  -4.9957e-005   1.5198e-005   3.3441e-005  -2.0933e+006   1.7394e+004   1.0032e+005    0.0000    0.0030    0.0000   -0.0000    0.0033
                1.3777  -6.2193e-005   1.8901e-005   2.4693e-005  -2.6061e+006   2.1377e+004   7.4080e+004    0.0000    0.0037    0.0000   -0.0000    0.0025

               lamina:  3     
              matName:  (spar-core)
                     s           e11           e22           e12           s11           s22           s12   s11_fcT   s11_fcC   s22_fcT   s22_fcC   s12_fcS
                   (m)         (m/m)         (m/m)         (rad)          (Pa)          (Pa)          (Pa)       (-)       (-)       (-)       (-)       (-)
                0.0000   7.0890e-005  -2.1423e-005   1.6417e-005   1.8418e+004  -4.4576e+001   3.2834e+002    0.0000   -0.0000    0.0000    0.0000    0.0000
                0.1356   5.7604e-005  -1.7408e-005   2.7096e-005   1.4966e+004  -3.6221e+001   5.4192e+002    0.0000   -0.0000    0.0000    0.0000    0.0000
                0.3431   3.7412e-005  -1.1306e-005   3.9185e-005   9.7202e+003  -2.3525e+001   7.8369e+002    0.0000   -0.0000    0.0000    0.0000    0.0000
                0.5593   1.6611e-005  -5.0197e-006   4.6344e-005   4.3156e+003  -1.0445e+001   9.2688e+002    0.0000   -0.0000    0.0000    0.0000    0.0000
                0.7823  -4.5305e-006   1.3691e-006   4.7998e-005  -1.1771e+003   2.8497e+000   9.5995e+002    0.0000    0.0000    0.0000   -0.0000    0.0000
                1.0106  -2.5736e-005   7.7774e-006   4.3766e-005  -6.6865e+003   1.6184e+001   8.7533e+002    0.0000    0.0000    0.0000   -0.0000    0.0000
                1.2427  -4.6854e-005   1.4159e-005   3.3441e-005  -1.2173e+004   2.9463e+001   6.6883e+002    0.0000    0.0000    0.0000   -0.0000    0.0000
                1.3777  -5.8921e-005   1.7806e-005   2.4693e-005  -1.5308e+004   3.7051e+001   4.9387e+002    0.0000    0.0000    0.0000   -0.0000    0.0000

               lamina:  4     
              matName:  (spar-uni)
                     s           e11           e22           e12           s11           s22           s12   s11_fcT   s11_fcC   s22_fcT   s22_fcC   s12_fcS
                   (m)         (m/m)         (m/m)         (rad)          (Pa)          (Pa)          (Pa)       (-)       (-)       (-)       (-)       (-)
                0.0000   7.1956e-005  -2.1780e-005   1.6417e-005   3.0156e+006  -2.3463e+004   4.9251e+004    0.0031   -0.0000    0.0000    0.0000    0.0016
                0.1356   5.8871e-005  -1.7832e-005   2.7096e-005   2.4671e+006  -1.9380e+004   8.1289e+004    0.0025   -0.0000    0.0000    0.0000    0.0027
                0.3431   3.9005e-005  -1.1839e-005   3.9185e-005   1.6345e+006  -1.3192e+004   1.1755e+005    0.0017   -0.0000    0.0000    0.0000    0.0039
                0.5593   1.8597e-005  -5.6846e-006   4.6344e-005   7.7915e+005  -6.8631e+003   1.3903e+005    0.0008   -0.0000    0.0000    0.0000    0.0046
                0.7823  -4.5303e-006   1.3691e-006   4.7998e-005  -1.8987e+005   1.4458e+003   1.4399e+005    0.0000    0.0003    0.0000   -0.0000    0.0048
                1.0106  -2.5736e-005   7.7773e-006   4.3766e-005  -1.0786e+006   8.2135e+003   1.3130e+005    0.0000    0.0015    0.0000   -0.0000    0.0044
                1.2427  -4.6853e-005   1.4159e-005   3.3441e-005  -1.9637e+006   1.4953e+004   1.0032e+005    0.0000    0.0028    0.0000   -0.0000    0.0033
                1.3777  -5.8921e-005   1.7806e-005   2.4693e-005  -2.4694e+006   1.8805e+004   7.4080e+004    0.0000    0.0035    0.0000   -0.0000    0.0025

               lamina:  5     
              matName:  (blade-shell)
                     s           e11           e22           e12           s11           s22           s12   s11_fcT   s11_fcC   s22_fcT   s22_fcC   s12_fcS
                   (m)         (m/m)         (m/m)         (rad)          (Pa)          (Pa)          (Pa)       (-)       (-)       (-)       (-)       (-)
                0.0000   7.2184e-005  -2.1856e-005   1.6417e-005   2.0639e+006   1.0679e+005   1.1492e+005    0.0143   -0.0000    0.0000   -0.0000    0.0019
                0.1356   5.9142e-005  -1.7923e-005   2.7096e-005   1.6909e+006   8.7258e+004   1.8967e+005    0.0117   -0.0000    0.0000   -0.0000    0.0032
                0.3431   3.9346e-005  -1.1953e-005   3.9185e-005   1.1247e+006   5.7601e+004   2.7429e+005    0.0078   -0.0000    0.0000   -0.0000    0.0046
                0.5593   1.9023e-005  -5.8271e-006   4.6344e-005   5.4349e+005   2.7118e+004   3.2441e+005    0.0038   -0.0000    0.0000   -0.0000    0.0054
                0.7823  -2.1179e-006   5.6165e-007   4.7998e-005  -6.1039e+004  -4.3448e+003   3.3598e+005    0.0000    0.0003    0.0000    0.0000    0.0056
                1.0106  -2.2915e-005   6.8334e-006   4.3766e-005  -6.5583e+005  -3.5498e+004   3.0636e+005    0.0000    0.0031    0.0000    0.0000    0.0051
                1.2427  -4.3750e-005   1.3120e-005   3.3441e-005  -1.2517e+006  -6.6645e+004   2.3409e+005    0.0000    0.0059    0.0000    0.0000    0.0039
                1.3777  -5.5649e-005   1.6711e-005   2.4693e-005  -1.5920e+006  -8.4438e+004   1.7285e+005    0.0000    0.0075    0.0000    0.0000    0.0029

            panel:  3     
           lam_num    nPlies        tPly      fibAng     matID  matName
               (-)       (-)         (m)       (deg)       (-)  (-)
                 1         1    0.005000      0.0000         2  (blade-shell)
                 2         1    0.010000      0.0000         6  (TEP-core)
                 3         1    0.005000      0.0000         2  (blade-shell)

               lamina:  1     
              matName:  (blade-shell)
                     s           e11           e22           e12           s11           s22           s12   s11_fcT   s11_fcC   s22_fcT   s22_fcC   s12_fcS
                   (m)         (m/m)         (m/m)         (rad)          (Pa)          (Pa)          (Pa)       (-)       (-)       (-)       (-)       (-)
                0.0000  -6.0431e-005   2.4062e-005   7.3832e-005  -1.6927e+006  -1.6772e+003   5.1682e+005    0.0000    0.0079    0.0000    0.0000    0.0086
                0.0018  -6.0591e-005   2.4126e-005   7.3782e-005  -1.6972e+006  -1.6817e+003   5.1648e+005    0.0000    0.0080    0.0000    0.0000    0.0086

               lamina:  2     
              matName:  (TEP-core)
                     s           e11           e22           e12           s11           s22           s12   s11_fcT   s11_fcC   s22_fcT   s22_fcC   s12_fcS
                   (m)         (m/m)         (m/m)         (rad)          (Pa)          (Pa)          (Pa)       (-)       (-)       (-)       (-)       (-)
                0.0000  -6.0064e-005   2.3916e-005   7.3832e-005  -1.5111e+004   1.6847e+003   1.4766e+003    0.0000    0.0000    0.0000   -0.0000    0.0000
                0.0018  -6.0225e-005   2.3980e-005   7.3782e-005  -1.5152e+004   1.6892e+003   1.4756e+003    0.0000    0.0000    0.0000   -0.0000    0.0000

               lamina:  3     
              matName:  (blade-shell)
                     s           e11           e22           e12           s11           s22           s12   s11_fcT   s11_fcC   s22_fcT   s22_fcC   s12_fcS
                   (m)         (m/m)         (m/m)         (rad)          (Pa)          (Pa)          (Pa)       (-)       (-)       (-)       (-)       (-)
                0.0000  -5.9332e-005   2.3623e-005   7.3832e-005  -1.6620e+006  -1.6727e+003   5.1682e+005    0.0000    0.0078    0.0000    0.0000    0.0086
                0.0018  -5.9492e-005   2.3687e-005   7.3782e-005  -1.6664e+006  -1.6772e+003   5.1648e+005    0.0000    0.0078    0.0000    0.0000    0.0086

            panel:  4     
           lam_num    nPlies        tPly      fibAng     matID  matName
               (-)       (-)         (m)       (deg)       (-)  (-)
                 1         1    0.005000      0.0000         2  (blade-shell)
                 2         1    0.010000      0.0000         6  (TEP-core)
                 3         1    0.005000      0.0000         2  (blade-shell)

               lamina:  1     
              matName:  (blade-shell)
                     s           e11           e22           e12           s11           s22           s12   s11_fcT   s11_fcC   s22_fcT   s22_fcC   s12_fcS
                   (m)         (m/m)         (m/m)         (rad)          (Pa)          (Pa)          (Pa)       (-)       (-)       (-)       (-)       (-)
                0.0000  -6.0591e-005   2.4126e-005   1.1924e-004  -1.6972e+006  -1.6817e+003   8.3469e+005    0.0000    0.0080    0.0000    0.0000    0.0139
                0.0966  -6.9269e-005   2.7581e-005   1.1919e-004  -1.9403e+006  -1.9242e+003   8.3434e+005    0.0000    0.0091    0.0000    0.0000    0.0139
                0.3294  -8.9759e-005   3.5740e-005   1.1919e-004  -2.5143e+006  -2.4979e+003   8.3434e+005    0.0000    0.0118    0.0000    0.0000    0.0139
                0.5583  -1.0960e-004   4.3641e-005   1.1632e-004  -3.0701e+006  -3.0536e+003   8.1427e+005    0.0000    0.0144    0.0000    0.0000    0.0136
                0.7804  -1.2864e-004   5.1222e-005   1.0785e-004  -3.6035e+006  -3.5869e+003   7.5497e+005    0.0000    0.0169    0.0000    0.0000    0.0126
                0.9934  -1.4669e-004   5.8406e-005   9.7396e-005  -4.1089e+006  -4.0923e+003   6.8177e+005    0.0000    0.0193    0.0000    0.0000    0.0114
                1.1945  -1.6360e-004   6.5140e-005   8.5250e-005  -4.5826e+006  -4.5664e+003   5.9675e+005    0.0000    0.0215    0.0000    0.0000    0.0099
                1.3812  -1.7923e-004   7.1362e-005   7.1780e-005  -5.0204e+006  -5.0045e+003   5.0246e+005    0.0000    0.0236    0.0000    0.0000    0.0084
                1.5513  -1.9343e-004   7.7016e-005   5.7442e-005  -5.4181e+006  -5.4026e+003   4.0209e+005    0.0000    0.0254    0.0000    0.0000    0.0067
                1.7027  -2.0606e-004   8.2047e-005   4.2723e-005  -5.7721e+006  -5.7570e+003   2.9906e+005    0.0000    0.0271    0.0000    0.0000    0.0050
                1.8336  -2.1701e-004   8.6405e-005   2.8145e-005  -6.0787e+006  -6.0639e+003   1.9701e+005    0.0000    0.0285    0.0000    0.0000    0.0033
                1.9429  -2.2611e-004   9.0029e-005   1.4229e-005  -6.3336e+006  -6.3188e+003   9.9606e+004    0.0000    0.0297    0.0000    0.0000    0.0017
                2.0295  -2.3326e-004   9.2875e-005   1.4818e-006  -6.5338e+006  -6.5192e+003   1.0373e+004    0.0000    0.0307    0.0000    0.0000    0.0002
                2.0920  -2.3843e-004   9.4936e-005   9.6649e-006  -6.6788e+006  -6.6650e+003   6.7654e+004    0.0000    0.0314    0.0000    0.0000    0.0011
                2.1297  -2.4159e-004   9.6191e-005   1.8827e-005  -6.7671e+006  -6.7540e+003   1.3179e+005    0.0000    0.0318    0.0000    0.0000    0.0022
                2.1422  -2.4264e-004   9.6612e-005   2.5616e-005  -6.7968e+006  -6.7838e+003   1.7931e+005    0.0000    0.0319    0.0000    0.0000    0.0030

               lamina:  2     
              matName:  (TEP-core)
                     s           e11           e22           e12           s11           s22           s12   s11_fcT   s11_fcC   s22_fcT   s22_fcC   s12_fcS
                   (m)         (m/m)         (m/m)         (rad)          (Pa)          (Pa)          (Pa)       (-)       (-)       (-)       (-)       (-)
                0.0000  -6.0225e-005   2.3980e-005   1.1924e-004  -1.5152e+004   1.6892e+003   2.3848e+003    0.0000    0.0000    0.0000   -0.0000    0.0000
                0.0966  -6.8884e-005   2.7427e-005   1.1919e-004  -1.7330e+004   1.9320e+003   2.3838e+003    0.0000    0.0000    0.0000   -0.0000    0.0000
                0.3294  -8.9356e-005   3.5578e-005   1.1919e-004  -2.2481e+004   2.5061e+003   2.3838e+003    0.0000    0.0000    0.0000   -0.0000    0.0000
                0.5583  -1.0918e-004   4.3472e-005   1.1632e-004  -2.7469e+004   3.0622e+003   2.3265e+003    0.0000    0.0000    0.0000   -0.0000    0.0000
                0.7804  -1.2821e-004   5.1048e-005   1.0785e-004  -3.2255e+004   3.5958e+003   2.1571e+003    0.0000    0.0000    0.0000   -0.0000    0.0000
                0.9934  -1.4624e-004   5.8227e-005   9.7396e-005  -3.6792e+004   4.1015e+003   1.9479e+003    0.0000    0.0000    0.0000   -0.0000    0.0000
                1.1945  -1.6315e-004   6.4959e-005   8.5250e-005  -4.1045e+004   4.5756e+003   1.7050e+003    0.0000    0.0000    0.0000   -0.0000    0.0000
                1.3812  -1.7877e-004   7.1179e-005   7.1780e-005  -4.4976e+004   5.0138e+003   1.4356e+003    0.0000    0.0000    0.0000   -0.0000    0.0000
                1.5513  -1.9297e-004   7.6832e-005   5.7442e-005  -4.8548e+004   5.4120e+003   1.1488e+003    0.0000    0.0000    0.0000   -0.0000    0.0000
                1.7027  -2.0560e-004   8.1864e-005   4.2723e-005  -5.1727e+004   5.7664e+003   8.5447e+002    0.0000    0.0000    0.0000   -0.0000    0.0000
                1.8336  -2.1655e-004   8.6221e-005   2.8145e-005  -5.4481e+004   6.0733e+003   5.6289e+002    0.0000    0.0000    0.0000   -0.0000    0.0000
                1.9429  -2.2564e-004   8.9842e-005   1.4229e-005  -5.6769e+004   6.3283e+003   2.8459e+002    0.0000    0.0000    0.0000   -0.0000    0.0000
                2.0295  -2.3279e-004   9.2687e-005   1.4818e-006  -5.8566e+004   6.5287e+003   2.9636e+001    0.0000    0.0000    0.0000   -0.0000    0.0000
                2.0920  -2.3798e-004   9.4753e-005   9.6649e-006  -5.9872e+004   6.6743e+003   1.9330e+002    0.0000    0.0000    0.0000   -0.0000    0.0000
                2.1297  -2.4114e-004   9.6013e-005   1.8827e-005  -6.0668e+004   6.7630e+003   3.7653e+002    0.0000    0.0000    0.0000   -0.0000    0.0000
                2.1422  -2.4220e-004   9.6436e-005   2.5616e-005  -6.0935e+004   6.7928e+003   5.1232e+002    0.0000    0.0000    0.0000   -0.0000    0.0000

               lamina:  3     
              matName:  (blade-shell)
                     s           e11           e22           e12           s11           s22           s12   s11_fcT   s11_fcC   s22_fcT   s22_fcC   s12_fcS
                   (m)         (m/m)         (m/m)         (rad)          (Pa)          (Pa)          (Pa)       (-)       (-)       (-)       (-)       (-)
                0.0000  -5.9492e-005   2.3687e-005   1.1924e-004  -1.6664e+006  -1.6772e+003   8.3469e+005    0.0000    0.0078    0.0000    0.0000    0.0139
                0.0966  -6.8113e-005   2.7119e-005   1.1919e-004  -1.9079e+006  -1.9195e+003   8.3434e+005    0.0000    0.0090    0.0000    0.0000    0.0139
                0.3294  -8.8548e-005   3.5255e-005   1.1919e-004  -2.4803e+006  -2.4930e+003   8.3434e+005    0.0000    0.0116    0.0000    0.0000    0.0139
                0.5583  -1.0834e-004   4.3135e-005   1.1632e-004  -3.0347e+006  -3.0484e+003   8.1427e+005    0.0000    0.0142    0.0000    0.0000    0.0136
                0.7804  -1.2734e-004   5.0699e-005   1.0785e-004  -3.5668e+006  -3.5816e+003   7.5497e+005    0.0000    0.0167    0.0000    0.0000    0.0126
                0.9934  -1.4534e-004   5.7869e-005   9.7396e-005  -4.0713e+006  -4.0869e+003   6.8177e+005    0.0000    0.0191    0.0000    0.0000    0.0114
                1.1945  -1.6224e-004   6.4596e-005   8.5250e-005  -4.5445e+006  -4.5608e+003   5.9675e+005    0.0000    0.0213    0.0000    0.0000    0.0099
                1.3812  -1.7785e-004   7.0813e-005   7.1780e-005  -4.9819e+006  -4.9989e+003   5.0246e+005    0.0000    0.0234    0.0000    0.0000    0.0084
                1.5513  -1.9205e-004   7.6465e-005   5.7442e-005  -5.3795e+006  -5.3970e+003   4.0209e+005    0.0000    0.0253    0.0000    0.0000    0.0067
                1.7027  -2.0469e-004   8.1497e-005   4.2723e-005  -5.7336e+006  -5.7514e+003   2.9906e+005    0.0000    0.0269    0.0000    0.0000    0.0050
                1.8336  -2.1563e-004   8.5853e-005   2.8145e-005  -6.0400e+006  -6.0583e+003   1.9701e+005    0.0000    0.0284    0.0000    0.0000    0.0033
                1.9429  -2.2471e-004   8.9468e-005   1.4229e-005  -6.2944e+006  -6.3131e+003   9.9606e+004    0.0000    0.0296    0.0000    0.0000    0.0017
                2.0295  -2.3185e-004   9.2313e-005   1.4818e-006  -6.4945e+006  -6.5135e+003   1.0373e+004    0.0000    0.0305    0.0000    0.0000    0.0002
                2.0920  -2.3707e-004   9.4388e-005   9.6649e-006  -6.6405e+006  -6.6594e+003   6.7654e+004    0.0000    0.0312    0.0000    0.0000    0.0011
                2.1297  -2.4025e-004   9.5658e-005   1.8827e-005  -6.7298e+006  -6.7485e+003   1.3179e+005    0.0000    0.0316    0.0000    0.0000    0.0022
                2.1422  -2.4132e-004   9.6084e-005   2.5616e-005  -6.7598e+006  -6.7785e+003   1.7931e+005    0.0000    0.0317    0.0000    0.0000    0.0030

  Bottom:  panel  nNode   nLam     xc_St    xc_End         b         t         E_eff         G_eff      nu_eff     density  buckleCrit
            (-)    (-)    (-)       (-)       (-)       (m)       (m)          (Pa)          (Pa)         (-)    (kg/m^3)         (-)
              1     11      3    0.0000    0.2197    1.0022    0.0566   5.1605e+009   1.2525e+009      0.3919    491.3576      0.0000
              2      8      5    0.2197    0.5303    1.3778    0.0566   3.9558e+010   3.7062e+009      0.3022   1907.5791      0.0000
              3      2      3    0.5303    0.5307    0.0018    0.0200   1.4131e+010   3.5100e+009      0.3982   1025.0000      0.0000
              4     16      3    0.5307    1.0000    2.1031    0.0200   1.4131e+010   3.5100e+009      0.3982   1025.0000      0.0951

            panel:  1     
           lam_num    nPlies        tPly      fibAng     matID  matName
               (-)       (-)         (m)       (deg)       (-)  (-)
                 1         1    0.005000      0.0000         2  (blade-shell)
                 2         1    0.046631      0.0000         5  (LEP-core)
                 3         1    0.005000      0.0000         2  (blade-shell)

               lamina:  1     
              matName:  (blade-shell)
                     s           e11           e22           e12           s11           s22           s12   s11_fcT   s11_fcC   s22_fcT   s22_fcC   s12_fcS
                   (m)         (m/m)         (m/m)         (rad)          (Pa)          (Pa)          (Pa)       (-)       (-)       (-)       (-)       (-)
                0.0000   1.7736e-004  -6.9535e-005   2.1601e-005   4.9746e+006   2.1428e+004   1.5121e+005    0.0345   -0.0000    0.0000   -0.0000    0.0025
                0.0223   1.7694e-004  -6.9370e-005   2.3434e-005   4.9628e+006   2.1392e+004   1.6404e+005    0.0345   -0.0000    0.0000   -0.0000    0.0027
                0.0667   1.7455e-004  -6.8430e-005   2.7061e-005   4.8958e+006   2.1139e+004   1.8943e+005    0.0340   -0.0000    0.0000   -0.0000    0.0032
                0.1293   1.6978e-004  -6.6558e-005   3.2087e-005   4.7620e+006   2.0599e+004   2.2461e+005    0.0331   -0.0000    0.0000   -0.0000    0.0037
                0.2143   1.6274e-004  -6.3797e-005   3.8691e-005   4.5646e+006   1.9765e+004   2.7084e+005    0.0317   -0.0000    0.0000   -0.0000    0.0045
                0.3217   1.5359e-004  -6.0211e-005   4.6629e-005   4.3081e+006   1.8662e+004   3.2640e+005    0.0299   -0.0000    0.0000   -0.0000    0.0054
                0.4493   1.4238e-004  -5.5816e-005   5.5468e-005   3.9936e+006   1.7302e+004   3.8827e+005    0.0277   -0.0000    0.0000   -0.0000    0.0065
                0.5964   1.2925e-004  -5.0666e-005   6.4809e-005   3.6251e+006   1.5703e+004   4.5366e+005    0.0252   -0.0000    0.0000   -0.0000    0.0076
                0.7612   1.1433e-004  -4.4818e-005   7.4192e-005   3.2067e+006   1.3884e+004   5.1935e+005    0.0223   -0.0000    0.0000   -0.0000    0.0087
                0.9421   9.7778e-005  -3.8332e-005   8.3153e-005   2.7425e+006   1.1863e+004   5.8207e+005    0.0190   -0.0000    0.0000   -0.0000    0.0097
                1.0022   9.2168e-005  -3.6132e-005   8.5816e-005   2.5852e+006   1.1181e+004   6.0072e+005    0.0180   -0.0000    0.0000   -0.0000    0.0100

               lamina:  2     
              matName:  (LEP-core)
                     s           e11           e22           e12           s11           s22           s12   s11_fcT   s11_fcC   s22_fcT   s22_fcC   s12_fcS
                   (m)         (m/m)         (m/m)         (rad)          (Pa)          (Pa)          (Pa)       (-)       (-)       (-)       (-)       (-)
                0.0000   1.7675e-004  -6.9294e-005   2.1601e-005   4.4561e+004  -4.6481e+003   4.3203e+002    0.0000   -0.0000    0.0000    0.0000    0.0000
                0.0223   1.7636e-004  -6.9141e-005   2.3434e-005   4.4463e+004  -4.6377e+003   4.6869e+002    0.0000   -0.0000    0.0000    0.0000    0.0000
                0.0667   1.7405e-004  -6.8233e-005   2.7061e-005   4.3881e+004  -4.5764e+003   5.4123e+002    0.0000   -0.0000    0.0000    0.0000    0.0000
                0.1293   1.6937e-004  -6.6397e-005   3.2087e-005   4.2701e+004  -4.4528e+003   6.4174e+002    0.0000   -0.0000    0.0000    0.0000    0.0000
                0.2143   1.6239e-004  -6.3659e-005   3.8691e-005   4.0941e+004  -4.2689e+003   7.7383e+002    0.0000   -0.0000    0.0000    0.0000    0.0000
                0.3217   1.5328e-004  -6.0087e-005   4.6629e-005   3.8644e+004  -4.0293e+003   9.3257e+002    0.0000   -0.0000    0.0000    0.0000    0.0000
                0.4493   1.4210e-004  -5.5703e-005   5.5468e-005   3.5825e+004  -3.7353e+003   1.1094e+003    0.0000   -0.0000    0.0000    0.0000    0.0000
                0.5964   1.2898e-004  -5.0561e-005   6.4809e-005   3.2518e+004  -3.3905e+003   1.2962e+003    0.0000   -0.0000    0.0000    0.0000    0.0000
                0.7612   1.1408e-004  -4.4720e-005   7.4192e-005   2.8761e+004  -2.9989e+003   1.4838e+003    0.0000   -0.0000    0.0000    0.0000    0.0000
                0.9421   9.7543e-005  -3.8238e-005   8.3153e-005   2.4592e+004  -2.5644e+003   1.6631e+003    0.0000   -0.0000    0.0000    0.0000    0.0000
                1.0022   9.1945e-005  -3.6044e-005   8.5816e-005   2.3181e+004  -2.4172e+003   1.7163e+003    0.0000   -0.0000    0.0000    0.0000    0.0000

               lamina:  3     
              matName:  (blade-shell)
                     s           e11           e22           e12           s11           s22           s12   s11_fcT   s11_fcC   s22_fcT   s22_fcC   s12_fcS
                   (m)         (m/m)         (m/m)         (rad)          (Pa)          (Pa)          (Pa)       (-)       (-)       (-)       (-)       (-)
                0.0000   1.7110e-004  -6.7045e-005   2.1601e-005   4.7992e+006   2.1207e+004   1.5121e+005    0.0333   -0.0000    0.0000   -0.0000    0.0025
                0.0223   1.7100e-004  -6.7007e-005   2.3434e-005   4.7964e+006   2.1182e+004   1.6404e+005    0.0333   -0.0000    0.0000   -0.0000    0.0027
                0.0667   1.6943e-004  -6.6397e-005   2.7061e-005   4.7526e+006   2.0958e+004   1.8943e+005    0.0330   -0.0000    0.0000   -0.0000    0.0032
                0.1293   1.6561e-004  -6.4899e-005   3.2087e-005   4.6452e+006   2.0452e+004   2.2461e+005    0.0323   -0.0000    0.0000   -0.0000    0.0037
                0.2143   1.5915e-004  -6.2370e-005   3.8691e-005   4.4641e+006   1.9638e+004   2.7084e+005    0.0310   -0.0000    0.0000   -0.0000    0.0045
                0.3217   1.5037e-004  -5.8930e-005   4.6629e-005   4.2178e+006   1.8548e+004   3.2640e+005    0.0293   -0.0000    0.0000   -0.0000    0.0054
                0.4493   1.3945e-004  -5.4649e-005   5.5468e-005   3.9114e+006   1.7199e+004   3.8827e+005    0.0272   -0.0000    0.0000   -0.0000    0.0065
                0.5964   1.2652e-004  -4.9583e-005   6.4809e-005   3.5489e+006   1.5607e+004   4.5366e+005    0.0246   -0.0000    0.0000   -0.0000    0.0076
                0.7612   1.1178e-004  -4.3805e-005   7.4192e-005   3.1353e+006   1.3794e+004   5.1935e+005    0.0218   -0.0000    0.0000   -0.0000    0.0087
                0.9421   9.5354e-005  -3.7368e-005   8.3153e-005   2.6746e+006   1.1777e+004   5.8207e+005    0.0186   -0.0000    0.0000   -0.0000    0.0097
                1.0022   8.9872e-005  -3.5219e-005   8.5816e-005   2.5209e+006   1.1100e+004   6.0072e+005    0.0175   -0.0000    0.0000   -0.0000    0.0100

            panel:  2     
           lam_num    nPlies        tPly      fibAng     matID  matName
               (-)       (-)         (m)       (deg)       (-)  (-)
                 1         1    0.005000      0.0000         2  (blade-shell)
                 2         1    0.023316      0.0000         3  (spar-uni)
                 3         1    0.000002      0.0000         4  (spar-core)
                 4         1    0.023316      0.0000         3  (spar-uni)
                 5         1    0.005000      0.0000         2  (blade-shell)

               lamina:  1     
              matName:  (blade-shell)
                     s           e11           e22           e12           s11           s22           s12   s11_fcT   s11_fcC   s22_fcT   s22_fcC   s12_fcS
                   (m)         (m/m)         (m/m)         (rad)          (Pa)          (Pa)          (Pa)       (-)       (-)       (-)       (-)       (-)
                0.0000   9.4276e-005  -2.8600e-005   2.8980e-005   2.6952e+006   1.3864e+005   2.0286e+005    0.0187   -0.0000    0.0000   -0.0000    0.0034
                0.1343   8.1765e-005  -2.4814e-005   4.2925e-005   2.3374e+006   1.2009e+005   3.0047e+005    0.0162   -0.0000    0.0000   -0.0000    0.0050
                0.3409   6.2314e-005  -1.8929e-005   6.0380e-005   1.7813e+006   9.1248e+004   4.2266e+005    0.0124   -0.0000    0.0000   -0.0000    0.0070
                0.5571   4.1694e-005  -1.2688e-005   7.3401e-005   1.1917e+006   6.0704e+004   5.1380e+005    0.0083   -0.0000    0.0000   -0.0000    0.0086
                0.7806   2.0072e-005  -6.1425e-006   8.1169e-005   5.7351e+005   2.8707e+004   5.6818e+005    0.0040   -0.0000    0.0000   -0.0000    0.0095
                1.0097  -2.6989e-006   7.6231e-007   8.3050e-005  -7.7499e+004  -4.8275e+003   5.8135e+005    0.0000    0.0004    0.0000    0.0000    0.0097
                1.2426  -2.5480e-005   7.6529e-006   7.8591e-005  -7.2889e+005  -3.8637e+004   5.5014e+005    0.0000    0.0034    0.0000    0.0000    0.0092
                1.3778  -3.8749e-005   1.1666e-005   7.3039e-005  -1.1083e+006  -5.8335e+004   5.1127e+005    0.0000    0.0052    0.0000    0.0000    0.0085

               lamina:  2     
              matName:  (spar-uni)
                     s           e11           e22           e12           s11           s22           s12   s11_fcT   s11_fcC   s22_fcT   s22_fcC   s12_fcS
                   (m)         (m/m)         (m/m)         (rad)          (Pa)          (Pa)          (Pa)       (-)       (-)       (-)       (-)       (-)
                0.0000   9.3681e-005  -2.8401e-005   2.8980e-005   3.9259e+006  -3.1193e+004   8.6939e+004    0.0040   -0.0000    0.0000    0.0000    0.0029
                0.1343   8.1193e-005  -2.4623e-005   4.2925e-005   3.4025e+006  -2.7158e+004   1.2877e+005    0.0035   -0.0000    0.0000    0.0000    0.0043
                0.3409   6.1782e-005  -1.8751e-005   6.0380e-005   2.5890e+006  -2.0877e+004   1.8114e+005    0.0027   -0.0000    0.0000    0.0000    0.0060
                0.5571   4.1213e-005  -1.2527e-005   7.3401e-005   1.7270e+006  -1.4200e+004   2.2020e+005    0.0018   -0.0000    0.0000    0.0000    0.0073
                0.7806   1.9656e-005  -6.0031e-006   8.1169e-005   8.2354e+005  -7.1799e+003   2.4351e+005    0.0008   -0.0000    0.0000    0.0000    0.0081
                1.0097  -4.3389e-006   1.3112e-006   8.3050e-005  -1.8185e+005   1.3847e+003   2.4915e+005    0.0000    0.0003    0.0000   -0.0000    0.0083
                1.2426  -2.6929e-005   8.1380e-006   7.8591e-005  -1.1286e+006   8.5945e+003   2.3577e+005    0.0000    0.0016    0.0000   -0.0000    0.0079
                1.3778  -4.0098e-005   1.2118e-005   7.3039e-005  -1.6805e+006   1.2797e+004   2.1912e+005    0.0000    0.0024    0.0000   -0.0000    0.0073

               lamina:  3     
              matName:  (spar-core)
                     s           e11           e22           e12           s11           s22           s12   s11_fcT   s11_fcC   s22_fcT   s22_fcC   s12_fcS
                   (m)         (m/m)         (m/m)         (rad)          (Pa)          (Pa)          (Pa)       (-)       (-)       (-)       (-)       (-)
                0.0000   9.0909e-005  -2.7473e-005   2.8980e-005   2.3619e+004  -5.7164e+001   5.7960e+002    0.0000   -0.0000    0.0000    0.0000    0.0000
                0.1343   7.8529e-005  -2.3732e-005   4.2925e-005   2.0403e+004  -4.9380e+001   8.5849e+002    0.0000   -0.0000    0.0000    0.0000    0.0000
                0.3409   5.9299e-005  -1.7920e-005   6.0380e-005   1.5407e+004  -3.7288e+001   1.2076e+003    0.0000   -0.0000    0.0000    0.0000    0.0000
                0.5571   3.8972e-005  -1.1777e-005   7.3401e-005   1.0125e+004  -2.4506e+001   1.4680e+003    0.0000   -0.0000    0.0000    0.0000    0.0000
                0.7806   1.7715e-005  -5.3535e-006   8.1169e-005   4.6026e+003  -1.1140e+001   1.6234e+003    0.0000   -0.0000    0.0000    0.0000    0.0000
                1.0097  -4.3390e-006   1.3113e-006   8.3050e-005  -1.1273e+003   2.7290e+000   1.6610e+003    0.0000    0.0000    0.0000   -0.0000    0.0000
                1.2426  -2.6929e-005   8.1381e-006   7.8591e-005  -6.9965e+003   1.6934e+001   1.5718e+003    0.0000    0.0000    0.0000   -0.0000    0.0000
                1.3778  -4.0098e-005   1.2118e-005   7.3039e-005  -1.0418e+004   2.5214e+001   1.4608e+003    0.0000    0.0000    0.0000   -0.0000    0.0000

               lamina:  4     
              matName:  (spar-uni)
                     s           e11           e22           e12           s11           s22           s12   s11_fcT   s11_fcC   s22_fcT   s22_fcC   s12_fcS
                   (m)         (m/m)         (m/m)         (rad)          (Pa)          (Pa)          (Pa)       (-)       (-)       (-)       (-)       (-)
                0.0000   9.0909e-005  -2.7473e-005   2.8980e-005   3.8100e+006  -2.9014e+004   8.6939e+004    0.0039   -0.0000    0.0000    0.0000    0.0029
                0.1343   7.8529e-005  -2.3731e-005   4.2925e-005   3.2912e+006  -2.5062e+004   1.2877e+005    0.0034   -0.0000    0.0000    0.0000    0.0043
                0.3409   5.9299e-005  -1.7920e-005   6.0380e-005   2.4853e+006  -1.8925e+004   1.8114e+005    0.0026   -0.0000    0.0000    0.0000    0.0060
                0.5571   3.8971e-005  -1.1777e-005   7.3401e-005   1.6333e+006  -1.2438e+004   2.2020e+005    0.0017   -0.0000    0.0000    0.0000    0.0073
                0.7806   1.7715e-005  -5.3535e-006   8.1169e-005   7.4244e+005  -5.6537e+003   2.4351e+005    0.0008   -0.0000    0.0000    0.0000    0.0081
                1.0097  -5.9791e-006   1.8602e-006   8.3050e-005  -2.5037e+005   2.6743e+003   2.4915e+005    0.0000    0.0004    0.0000   -0.0000    0.0083
                1.2426  -2.8379e-005   8.6232e-006   7.8591e-005  -1.1892e+006   9.7341e+003   2.3577e+005    0.0000    0.0017    0.0000   -0.0000    0.0079
                1.3778  -4.1446e-005   1.2569e-005   7.3039e-005  -1.7369e+006   1.3857e+004   2.1912e+005    0.0000    0.0025    0.0000   -0.0000    0.0073

               lamina:  5     
              matName:  (blade-shell)
                     s           e11           e22           e12           s11           s22           s12   s11_fcT   s11_fcC   s22_fcT   s22_fcC   s12_fcS
                   (m)         (m/m)         (m/m)         (rad)          (Pa)          (Pa)          (Pa)       (-)       (-)       (-)       (-)       (-)
                0.0000   8.8136e-005  -2.6545e-005   2.8980e-005   2.5208e+006   1.3254e+005   2.0286e+005    0.0175   -0.0000    0.0000   -0.0000    0.0034
                0.1343   7.5864e-005  -2.2840e-005   4.2925e-005   2.1699e+006   1.1422e+005   3.0047e+005    0.0151   -0.0000    0.0000   -0.0000    0.0050
                0.3409   5.6817e-005  -1.7090e-005   6.0380e-005   1.6252e+006   8.5785e+004   4.2266e+005    0.0113   -0.0000    0.0000   -0.0000    0.0070
                0.5571   3.6730e-005  -1.1027e-005   7.3401e-005   1.0508e+006   5.5772e+004   5.1380e+005    0.0073   -0.0000    0.0000   -0.0000    0.0086
                0.7806   1.5774e-005  -4.7038e-006   8.1169e-005   4.5144e+005   2.4435e+004   5.6818e+005    0.0031   -0.0000    0.0000   -0.0000    0.0095
                1.0097  -6.3308e-006   1.9779e-006   8.3050e-005  -1.8064e+005  -8.4370e+003   5.8135e+005    0.0000    0.0008    0.0000    0.0000    0.0097
                1.2426  -2.8690e-005   8.7272e-006   7.8591e-005  -8.2004e+005  -4.1827e+004   5.5014e+005    0.0000    0.0038    0.0000    0.0000    0.0092
                1.3778  -4.1735e-005   1.2666e-005   7.3039e-005  -1.1931e+006  -6.1303e+004   5.1127e+005    0.0000    0.0056    0.0000    0.0000    0.0085

            panel:  3     
           lam_num    nPlies        tPly      fibAng     matID  matName
               (-)       (-)         (m)       (deg)       (-)  (-)
                 1         1    0.005000      0.0000         2  (blade-shell)
                 2         1    0.010000      0.0000         6  (TEP-core)
                 3         1    0.005000      0.0000         2  (blade-shell)

               lamina:  1     
              matName:  (blade-shell)
                     s           e11           e22           e12           s11           s22           s12   s11_fcT   s11_fcC   s22_fcT   s22_fcC   s12_fcS
                   (m)         (m/m)         (m/m)         (rad)          (Pa)          (Pa)          (Pa)       (-)       (-)       (-)       (-)       (-)
                0.0000  -3.9627e-005   1.5777e-005   2.1838e-004  -1.1100e+006  -1.1149e+003   1.5287e+006    0.0000    0.0052    0.0000    0.0000    0.0255
                0.0018  -3.9801e-005   1.5847e-005   2.1835e-004  -1.1149e+006  -1.1198e+003   1.5284e+006    0.0000    0.0052    0.0000    0.0000    0.0255

               lamina:  2     
              matName:  (TEP-core)
                     s           e11           e22           e12           s11           s22           s12   s11_fcT   s11_fcC   s22_fcT   s22_fcC   s12_fcS
                   (m)         (m/m)         (m/m)         (rad)          (Pa)          (Pa)          (Pa)       (-)       (-)       (-)       (-)       (-)
                0.0000  -3.9929e-005   1.5898e-005   2.1838e-004  -1.0045e+004   1.1199e+003   4.3676e+003    0.0000    0.0000    0.0000   -0.0000    0.0000
                0.0018  -4.0103e-005   1.5968e-005   2.1835e-004  -1.0089e+004   1.1248e+003   4.3670e+003    0.0000    0.0000    0.0000   -0.0000    0.0000

               lamina:  3     
              matName:  (blade-shell)
                     s           e11           e22           e12           s11           s22           s12   s11_fcT   s11_fcC   s22_fcT   s22_fcC   s12_fcS
                   (m)         (m/m)         (m/m)         (rad)          (Pa)          (Pa)          (Pa)       (-)       (-)       (-)       (-)       (-)
                0.0000  -4.0080e-005   1.5958e-005   2.1838e-004  -1.1227e+006  -1.1168e+003   1.5287e+006    0.0000    0.0053    0.0000    0.0000    0.0255
                0.0018  -4.0254e-005   1.6028e-005   2.1835e-004  -1.1276e+006  -1.1217e+003   1.5284e+006    0.0000    0.0053    0.0000    0.0000    0.0255

            panel:  4     
           lam_num    nPlies        tPly      fibAng     matID  matName
               (-)       (-)         (m)       (deg)       (-)  (-)
                 1         1    0.005000      0.0000         2  (blade-shell)
                 2         1    0.010000      0.0000         6  (TEP-core)
                 3         1    0.005000      0.0000         2  (blade-shell)

               lamina:  1     
              matName:  (blade-shell)
                     s           e11           e22           e12           s11           s22           s12   s11_fcT   s11_fcC   s22_fcT   s22_fcC   s12_fcS
                   (m)         (m/m)         (m/m)         (rad)          (Pa)          (Pa)          (Pa)       (-)       (-)       (-)       (-)       (-)
                0.0000  -3.9801e-005   1.5847e-005   1.6956e-004  -1.1149e+006  -1.1198e+003   1.1869e+006    0.0000    0.0052    0.0000    0.0000    0.0198
                0.0967  -4.9230e-005   1.9601e-005   1.6953e-004  -1.3790e+006  -1.3841e+003   1.1867e+006    0.0000    0.0065    0.0000    0.0000    0.0198
                0.3287  -7.1886e-005   2.8622e-005   1.6953e-004  -2.0136e+006  -2.0193e+003   1.1867e+006    0.0000    0.0095    0.0000    0.0000    0.0198
                0.5559  -9.4095e-005   3.7464e-005   1.6753e-004  -2.6357e+006  -2.6421e+003   1.1727e+006    0.0000    0.0124    0.0000    0.0000    0.0195
                0.7755  -1.1557e-004   4.6014e-005   1.6102e-004  -3.2372e+006  -3.2443e+003   1.1272e+006    0.0000    0.0152    0.0000    0.0000    0.0188
                0.9851  -1.3603e-004   5.4160e-005   1.5230e-004  -3.8103e+006  -3.8182e+003   1.0661e+006    0.0000    0.0179    0.0000    0.0000    0.0178
                1.1821  -1.5522e-004   6.1802e-005   1.4164e-004  -4.3479e+006  -4.3569e+003   9.9146e+005    0.0000    0.0204    0.0000    0.0000    0.0165
                1.3642  -1.7290e-004   6.8840e-005   1.2944e-004  -4.8431e+006  -4.8530e+003   9.0607e+005    0.0000    0.0227    0.0000    0.0000    0.0151
                1.5296  -1.8885e-004   7.5193e-005   1.1616e-004  -5.2900e+006  -5.3010e+003   8.1314e+005    0.0000    0.0248    0.0000    0.0000    0.0136
                1.6765  -2.0295e-004   8.0805e-005   1.0233e-004  -5.6848e+006  -5.6969e+003   7.1633e+005    0.0000    0.0267    0.0000    0.0000    0.0119
                1.8037  -2.1501e-004   8.5609e-005   8.8493e-005  -6.0228e+006  -6.0362e+003   6.1945e+005    0.0000    0.0283    0.0000    0.0000    0.0103
                1.9098  -2.2489e-004   8.9542e-005   7.5170e-005  -6.2995e+006  -6.3143e+003   5.2619e+005    0.0000    0.0296    0.0000    0.0000    0.0088
                1.9940  -2.3255e-004   9.2591e-005   6.2871e-005  -6.5140e+006  -6.5301e+003   4.4010e+005    0.0000    0.0306    0.0000    0.0000    0.0073
                2.0554  -2.3797e-004   9.4748e-005   5.2062e-005  -6.6658e+006  -6.6831e+003   3.6444e+005    0.0000    0.0313    0.0000    0.0000    0.0061
                2.0922  -2.4119e-004   9.6031e-005   4.3148e-005  -6.7560e+006  -6.7731e+003   3.0203e+005    0.0000    0.0317    0.0000    0.0000    0.0050
                2.1031  -2.4232e-004   9.6479e-005   3.6466e-005  -6.7876e+006  -6.8022e+003   2.5526e+005    0.0000    0.0319    0.0000    0.0000    0.0043

               lamina:  2     
              matName:  (TEP-core)
                     s           e11           e22           e12           s11           s22           s12   s11_fcT   s11_fcC   s22_fcT   s22_fcC   s12_fcS
                   (m)         (m/m)         (m/m)         (rad)          (Pa)          (Pa)          (Pa)       (-)       (-)       (-)       (-)       (-)
                0.0000  -4.0103e-005   1.5968e-005   1.6956e-004  -1.0089e+004   1.1248e+003   3.3913e+003    0.0000    0.0000    0.0000   -0.0000    0.0000
                0.0967  -4.9516e-005   1.9715e-005   1.6953e-004  -1.2458e+004   1.3887e+003   3.3906e+003    0.0000    0.0000    0.0000   -0.0000    0.0000
                0.3287  -7.2159e-005   2.8731e-005   1.6953e-004  -1.8154e+004   2.0237e+003   3.3906e+003    0.0000    0.0000    0.0000   -0.0000    0.0000
                0.5559  -9.4361e-005   3.7571e-005   1.6753e-004  -2.3740e+004   2.6464e+003   3.3507e+003    0.0000    0.0000    0.0000   -0.0000    0.0000
                0.7755  -1.1584e-004   4.6122e-005   1.6102e-004  -2.9143e+004   3.2487e+003   3.2205e+003    0.0000    0.0000    0.0000   -0.0000    0.0000
                0.9851  -1.3631e-004   5.4273e-005   1.5230e-004  -3.4294e+004   3.8228e+003   3.0459e+003    0.0000    0.0000    0.0000   -0.0000    0.0000
                1.1821  -1.5553e-004   6.1925e-005   1.4164e-004  -3.9129e+004   4.3619e+003   2.8327e+003    0.0000    0.0000    0.0000   -0.0000    0.0000
                1.3642  -1.7324e-004   6.8979e-005   1.2944e-004  -4.3586e+004   4.8587e+003   2.5888e+003    0.0000    0.0000    0.0000   -0.0000    0.0000
                1.5296  -1.8924e-004   7.5348e-005   1.1616e-004  -4.7611e+004   5.3073e+003   2.3233e+003    0.0000    0.0000    0.0000   -0.0000    0.0000
                1.6765  -2.0338e-004   8.0979e-005   1.0233e-004  -5.1169e+004   5.7040e+003   2.0467e+003    0.0000    0.0000    0.0000   -0.0000    0.0000
                1.8037  -2.1553e-004   8.5813e-005   8.8493e-005  -5.4223e+004   6.0445e+003   1.7699e+003    0.0000    0.0000    0.0000   -0.0000    0.0000
                1.9098  -2.2549e-004   8.9782e-005   7.5170e-005  -5.6731e+004   6.3241e+003   1.5034e+003    0.0000    0.0000    0.0000   -0.0000    0.0000
                1.9940  -2.3324e-004   9.2868e-005   6.2871e-005  -5.8681e+004   6.5414e+003   1.2574e+003    0.0000    0.0000    0.0000   -0.0000    0.0000
                2.0554  -2.3874e-004   9.5057e-005   5.2062e-005  -6.0064e+004   6.6956e+003   1.0412e+003    0.0000    0.0000    0.0000   -0.0000    0.0000
                2.0922  -2.4194e-004   9.6330e-005   4.3148e-005  -6.0868e+004   6.7853e+003   8.6295e+002    0.0000    0.0000    0.0000   -0.0000    0.0000
                2.1031  -2.4286e-004   9.6695e-005   3.6466e-005  -6.1099e+004   6.8110e+003   7.2931e+002    0.0000    0.0000    0.0000   -0.0000    0.0000

               lamina:  3     
              matName:  (blade-shell)
                     s           e11           e22           e12           s11           s22           s12   s11_fcT   s11_fcC   s22_fcT   s22_fcC   s12_fcS
                   (m)         (m/m)         (m/m)         (rad)          (Pa)          (Pa)          (Pa)       (-)       (-)       (-)       (-)       (-)
                0.0000  -4.0254e-005   1.6028e-005   1.6956e-004  -1.1276e+006  -1.1217e+003   1.1869e+006    0.0000    0.0053    0.0000    0.0000    0.0198
                0.0967  -4.9659e-005   1.9773e-005   1.6953e-004  -1.3910e+006  -1.3858e+003   1.1867e+006    0.0000    0.0065    0.0000    0.0000    0.0198
                0.3287  -7.2295e-005   2.8785e-005   1.6953e-004  -2.0251e+006  -2.0210e+003   1.1867e+006    0.0000    0.0095    0.0000    0.0000    0.0198
                0.5559  -9.4493e-005   3.7624e-005   1.6753e-004  -2.6469e+006  -2.6437e+003   1.1727e+006    0.0000    0.0124    0.0000    0.0000    0.0195
                0.7755  -1.1597e-004   4.6175e-005   1.6102e-004  -3.2485e+006  -3.2460e+003   1.1272e+006    0.0000    0.0153    0.0000    0.0000    0.0188
                0.9851  -1.3645e-004   5.4329e-005   1.5230e-004  -3.8221e+006  -3.8200e+003   1.0661e+006    0.0000    0.0179    0.0000    0.0000    0.0178
                1.1821  -1.5568e-004   6.1987e-005   1.4164e-004  -4.3609e+006  -4.3587e+003   9.9146e+005    0.0000    0.0205    0.0000    0.0000    0.0165
                1.3642  -1.7342e-004   6.9048e-005   1.2944e-004  -4.8576e+006  -4.8552e+003   9.0607e+005    0.0000    0.0228    0.0000    0.0000    0.0151
                1.5296  -1.8944e-004   7.5426e-005   1.1616e-004  -5.3063e+006  -5.3034e+003   8.1314e+005    0.0000    0.0249    0.0000    0.0000    0.0136
                1.6765  -2.0360e-004   8.1066e-005   1.0233e-004  -5.7032e+006  -5.6995e+003   7.1633e+005    0.0000    0.0268    0.0000    0.0000    0.0119
                1.8037  -2.1578e-004   8.5915e-005   8.8493e-005  -6.0443e+006  -6.0393e+003   6.1945e+005    0.0000    0.0284    0.0000    0.0000    0.0103
                1.9098  -2.2579e-004   8.9902e-005   7.5170e-005  -6.3247e+006  -6.3179e+003   5.2619e+005    0.0000    0.0297    0.0000    0.0000    0.0088
                1.9940  -2.3359e-004   9.3006e-005   6.2871e-005  -6.5431e+006  -6.5344e+003   4.4010e+005    0.0000    0.0307    0.0000    0.0000    0.0073
                2.0554  -2.3913e-004   9.5211e-005   5.2062e-005  -6.6982e+006  -6.6878e+003   3.6444e+005    0.0000    0.0314    0.0000    0.0000    0.0061
                2.0922  -2.4231e-004   9.6479e-005   4.3148e-005  -6.7874e+006  -6.7777e+003   3.0203e+005    0.0000    0.0319    0.0000    0.0000    0.0050
                2.1031  -2.4313e-004   9.6803e-005   3.6466e-005  -6.8103e+006  -6.8055e+003   2.5526e+005    0.0000    0.0320    0.0000    0.0000    0.0043

     Web:  panel  nNode   nLam     xc_St    xc_End         b         t         E_eff         G_eff      nu_eff     density  buckleCrit
            (-)    (-)    (-)       (-)       (-)       (m)       (m)          (Pa)          (Pa)         (-)    (kg/m^3)         (-)
              1     10      3    0.2197    0.2197    0.6021    0.0830   7.6445e+008   4.5301e+008      0.4420    257.1084      0.0000
              2     10      3    0.5307    0.5307    0.6440    0.0830   7.6445e+008   4.5301e+008      0.4420    257.1084      0.0000

            panel:  1     
           lam_num    nPlies        tPly      fibAng     matID  matName
               (-)       (-)         (m)       (deg)       (-)  (-)
                 1         1    0.001500      0.0000         7  (web-shell)
                 2         1    0.080000      0.0000         8  (web-core)
                 3         1    0.001500      0.0000         7  (web-shell)

               lamina:  1     
              matName:  (web-shell)
                     s           e11           e22           e12           s11           s22           s12   s11_fcT   s11_fcC   s22_fcT   s22_fcC   s12_fcS
                   (m)         (m/m)         (m/m)         (rad)          (Pa)          (Pa)          (Pa)       (-)       (-)       (-)       (-)       (-)
                0.0000   6.6226e-005  -2.9098e-005   9.5228e-006   9.6463e+005   7.4948e+004   1.1427e+005    0.0067   -0.0000    0.0000   -0.0000    0.0013
                0.0669   6.8293e-005  -3.0012e-005   8.5852e-006   9.9470e+005   7.7185e+004   1.0302e+005    0.0069   -0.0000    0.0000   -0.0000    0.0011
                0.1338   7.0361e-005  -3.0926e-005   7.6209e-006   1.0248e+006   7.9423e+004   9.1450e+004    0.0071   -0.0000    0.0000   -0.0000    0.0010
                0.2007   7.2429e-005  -3.1840e-005   6.6297e-006   1.0548e+006   8.1661e+004   7.9556e+004    0.0073   -0.0000    0.0000   -0.0000    0.0009
                0.2676   7.4497e-005  -3.2754e-005   5.6117e-006   1.0849e+006   8.3898e+004   6.7340e+004    0.0075   -0.0000    0.0000   -0.0000    0.0007
                0.3345   7.6564e-005  -3.3668e-005   4.5669e-006   1.1150e+006   8.6136e+004   5.4803e+004    0.0077   -0.0000    0.0000   -0.0000    0.0006
                0.4014   7.8632e-005  -3.4582e-005   3.4953e-006   1.1450e+006   8.8373e+004   4.1944e+004    0.0080   -0.0000    0.0000   -0.0000    0.0005
                0.4683   8.0700e-005  -3.5496e-005   2.3969e-006   1.1751e+006   9.0611e+004   2.8763e+004    0.0082   -0.0000    0.0000   -0.0000    0.0003
                0.5352   8.2768e-005  -3.6410e-005   1.2717e-006   1.2052e+006   9.2849e+004   1.5260e+004    0.0084   -0.0000    0.0000   -0.0000    0.0002
                0.6021   8.4836e-005  -3.7324e-005   1.1969e-007   1.2352e+006   9.5086e+004   1.4363e+003    0.0086   -0.0000    0.0000   -0.0000    0.0000

               lamina:  2     
              matName:  (web-core)
                     s           e11           e22           e12           s11           s22           s12   s11_fcT   s11_fcC   s22_fcT   s22_fcC   s12_fcS
                   (m)         (m/m)         (m/m)         (rad)          (Pa)          (Pa)          (Pa)       (-)       (-)       (-)       (-)       (-)
                0.0000   7.6337e-005  -3.3919e-005   9.5228e-006   1.8903e+004  -3.1480e+003   1.9046e+002    0.0000   -0.0000    0.0000    0.0000    0.0000
                0.0669   7.8404e-005  -3.4833e-005   8.5852e-006   1.9416e+004  -3.2319e+003   1.7170e+002    0.0000   -0.0000    0.0000    0.0000    0.0000
                0.1338   8.0472e-005  -3.5747e-005   7.6209e-006   1.9928e+004  -3.3158e+003   1.5242e+002    0.0000   -0.0000    0.0000    0.0000    0.0000
                0.2007   8.2540e-005  -3.6661e-005   6.6297e-006   2.0440e+004  -3.3997e+003   1.3259e+002    0.0000   -0.0000    0.0000    0.0000    0.0000
                0.2676   8.4608e-005  -3.7575e-005   5.6117e-006   2.0953e+004  -3.4836e+003   1.1223e+002    0.0000   -0.0000    0.0000    0.0000    0.0000
                0.3345   8.6675e-005  -3.8489e-005   4.5669e-006   2.1465e+004  -3.5675e+003   9.1338e+001    0.0000   -0.0000    0.0000    0.0000    0.0000
                0.4014   8.8743e-005  -3.9403e-005   3.4953e-006   2.1978e+004  -3.6514e+003   6.9906e+001    0.0000   -0.0000    0.0000    0.0000    0.0000
                0.4683   9.0811e-005  -4.0317e-005   2.3969e-006   2.2490e+004  -3.7353e+003   4.7938e+001    0.0000   -0.0000    0.0000    0.0000    0.0000
                0.5352   9.2879e-005  -4.1231e-005   1.2717e-006   2.3003e+004  -3.8193e+003   2.5434e+001    0.0000   -0.0000    0.0000    0.0000    0.0000
                0.6021   9.4947e-005  -4.2145e-005   1.1969e-007   2.3515e+004  -3.9032e+003   2.3938e+000    0.0000   -0.0000    0.0000    0.0000    0.0000

               lamina:  3     
              matName:  (web-shell)
                     s           e11           e22           e12           s11           s22           s12   s11_fcT   s11_fcC   s22_fcT   s22_fcC   s12_fcS
                   (m)         (m/m)         (m/m)         (rad)          (Pa)          (Pa)          (Pa)       (-)       (-)       (-)       (-)       (-)
                0.0000   7.6526e-005  -3.4009e-005   9.5228e-006   1.1111e+006   7.9404e+004   1.1427e+005    0.0077   -0.0000    0.0000   -0.0000    0.0013
                0.0669   7.8594e-005  -3.4923e-005   8.5852e-006   1.1411e+006   8.1642e+004   1.0302e+005    0.0079   -0.0000    0.0000   -0.0000    0.0011
                0.1338   8.0662e-005  -3.5837e-005   7.6209e-006   1.1712e+006   8.3880e+004   9.1450e+004    0.0081   -0.0000    0.0000   -0.0000    0.0010
                0.2007   8.2730e-005  -3.6751e-005   6.6297e-006   1.2013e+006   8.6117e+004   7.9556e+004    0.0083   -0.0000    0.0000   -0.0000    0.0009
                0.2676   8.4797e-005  -3.7665e-005   5.6117e-006   1.2313e+006   8.8355e+004   6.7340e+004    0.0086   -0.0000    0.0000   -0.0000    0.0007
                0.3345   8.6865e-005  -3.8579e-005   4.5669e-006   1.2614e+006   9.0592e+004   5.4803e+004    0.0088   -0.0000    0.0000   -0.0000    0.0006
                0.4014   8.8933e-005  -3.9493e-005   3.4953e-006   1.2915e+006   9.2830e+004   4.1944e+004    0.0090   -0.0000    0.0000   -0.0000    0.0005
                0.4683   9.1001e-005  -4.0407e-005   2.3969e-006   1.3215e+006   9.5068e+004   2.8763e+004    0.0092   -0.0000    0.0000   -0.0000    0.0003
                0.5352   9.3068e-005  -4.1321e-005   1.2717e-006   1.3516e+006   9.7305e+004   1.5260e+004    0.0094   -0.0000    0.0000   -0.0000    0.0002
                0.6021   9.5136e-005  -4.2235e-005   1.1969e-007   1.3817e+006   9.9543e+004   1.4363e+003    0.0096   -0.0000    0.0000   -0.0000    0.0000

            panel:  2     
           lam_num    nPlies        tPly      fibAng     matID  matName
               (-)       (-)         (m)       (deg)       (-)  (-)
                 1         1    0.001500      0.0000         7  (web-shell)
                 2         1    0.080000      0.0000         8  (web-core)
                 3         1    0.001500      0.0000         7  (web-shell)

               lamina:  1     
              matName:  (web-shell)
                     s           e11           e22           e12           s11           s22           s12   s11_fcT   s11_fcC   s22_fcT   s22_fcC   s12_fcS
                   (m)         (m/m)         (m/m)         (rad)          (Pa)          (Pa)          (Pa)       (-)       (-)       (-)       (-)       (-)
                0.0000  -6.4696e-005   2.8781e-005   8.4873e-005  -9.3904e+005  -6.6592e+004   1.0185e+006    0.0000    0.0044    0.0000    0.0000    0.0113
                0.0716  -6.2551e-005   2.7832e-005   8.5682e-005  -9.0785e+005  -6.4270e+004   1.0282e+006    0.0000    0.0043    0.0000    0.0000    0.0114
                0.1431  -6.0406e-005   2.6884e-005   8.6461e-005  -8.7665e+005  -6.1949e+004   1.0375e+006    0.0000    0.0041    0.0000    0.0000    0.0115
                0.2147  -5.8260e-005   2.5936e-005   8.7211e-005  -8.4546e+005  -5.9628e+004   1.0465e+006    0.0000    0.0040    0.0000    0.0000    0.0116
                0.2862  -5.6115e-005   2.4988e-005   8.7931e-005  -8.1426e+005  -5.7306e+004   1.0552e+006    0.0000    0.0038    0.0000    0.0000    0.0117
                0.3578  -5.3970e-005   2.4039e-005   8.8621e-005  -7.8307e+005  -5.4985e+004   1.0635e+006    0.0000    0.0037    0.0000    0.0000    0.0118
                0.4293  -5.1825e-005   2.3091e-005   8.9281e-005  -7.5188e+005  -5.2663e+004   1.0714e+006    0.0000    0.0035    0.0000    0.0000    0.0119
                0.5009  -4.9679e-005   2.2143e-005   8.9912e-005  -7.2068e+005  -5.0342e+004   1.0789e+006    0.0000    0.0034    0.0000    0.0000    0.0120
                0.5724  -4.7534e-005   2.1195e-005   9.0513e-005  -6.8949e+005  -4.8020e+004   1.0862e+006    0.0000    0.0032    0.0000    0.0000    0.0121
                0.6440  -4.5389e-005   2.0246e-005   9.1084e-005  -6.5829e+005  -4.5699e+004   1.0930e+006    0.0000    0.0031    0.0000    0.0000    0.0121

               lamina:  2     
              matName:  (web-core)
                     s           e11           e22           e12           s11           s22           s12   s11_fcT   s11_fcC   s22_fcT   s22_fcC   s12_fcS
                   (m)         (m/m)         (m/m)         (rad)          (Pa)          (Pa)          (Pa)       (-)       (-)       (-)       (-)       (-)
                0.0000  -6.4506e-005   2.8690e-005   8.4873e-005  -1.5971e+004   2.6681e+003   1.6975e+003    0.0000    0.0000    0.0000   -0.0000    0.0000
                0.0716  -6.2361e-005   2.7742e-005   8.5682e-005  -1.5439e+004   2.5810e+003   1.7136e+003    0.0000    0.0000    0.0000   -0.0000    0.0000
                0.1431  -6.0215e-005   2.6793e-005   8.6461e-005  -1.4908e+004   2.4939e+003   1.7292e+003    0.0000    0.0000    0.0000   -0.0000    0.0000
                0.2147  -5.8070e-005   2.5845e-005   8.7211e-005  -1.4376e+004   2.4069e+003   1.7442e+003    0.0000    0.0000    0.0000   -0.0000    0.0000
                0.2862  -5.5925e-005   2.4897e-005   8.7931e-005  -1.3845e+004   2.3198e+003   1.7586e+003    0.0000    0.0000    0.0000   -0.0000    0.0000
                0.3578  -5.3780e-005   2.3949e-005   8.8621e-005  -1.3313e+004   2.2328e+003   1.7724e+003    0.0000    0.0000    0.0000   -0.0000    0.0000
                0.4293  -5.1634e-005   2.3000e-005   8.9281e-005  -1.2781e+004   2.1457e+003   1.7856e+003    0.0000    0.0000    0.0000   -0.0000    0.0000
                0.5009  -4.9489e-005   2.2052e-005   8.9912e-005  -1.2250e+004   2.0587e+003   1.7982e+003    0.0000    0.0000    0.0000   -0.0000    0.0000
                0.5724  -4.7344e-005   2.1104e-005   9.0513e-005  -1.1718e+004   1.9716e+003   1.8103e+003    0.0000    0.0000    0.0000   -0.0000    0.0000
                0.6440  -4.5199e-005   2.0156e-005   9.1084e-005  -1.1186e+004   1.8846e+003   1.8217e+003    0.0000    0.0000    0.0000   -0.0000    0.0000

               lamina:  3     
              matName:  (web-shell)
                     s           e11           e22           e12           s11           s22           s12   s11_fcT   s11_fcC   s22_fcT   s22_fcC   s12_fcS
                   (m)         (m/m)         (m/m)         (rad)          (Pa)          (Pa)          (Pa)       (-)       (-)       (-)       (-)       (-)
                0.0000  -5.4363e-005   2.3853e-005   8.4873e-005  -7.9214e+005  -6.2121e+004   1.0185e+006    0.0000    0.0037    0.0000    0.0000    0.0113
                0.0716  -5.2217e-005   2.2905e-005   8.5682e-005  -7.6094e+005  -5.9800e+004   1.0282e+006    0.0000    0.0036    0.0000    0.0000    0.0114
                0.1431  -5.0072e-005   2.1957e-005   8.6461e-005  -7.2975e+005  -5.7478e+004   1.0375e+006    0.0000    0.0034    0.0000    0.0000    0.0115
                0.2147  -4.7927e-005   2.1009e-005   8.7211e-005  -6.9855e+005  -5.5157e+004   1.0465e+006    0.0000    0.0033    0.0000    0.0000    0.0116
                0.2862  -4.5782e-005   2.0060e-005   8.7931e-005  -6.6736e+005  -5.2835e+004   1.0552e+006    0.0000    0.0031    0.0000    0.0000    0.0117
                0.3578  -4.3636e-005   1.9112e-005   8.8621e-005  -6.3617e+005  -5.0514e+004   1.0635e+006    0.0000    0.0030    0.0000    0.0000    0.0118
                0.4293  -4.1491e-005   1.8164e-005   8.9281e-005  -6.0497e+005  -4.8193e+004   1.0714e+006    0.0000    0.0028    0.0000    0.0000    0.0119
                0.5009  -3.9346e-005   1.7216e-005   8.9912e-005  -5.7378e+005  -4.5871e+004   1.0789e+006    0.0000    0.0027    0.0000    0.0000    0.0120
                0.5724  -3.7201e-005   1.6267e-005   9.0513e-005  -5.4258e+005  -4.3550e+004   1.0862e+006    0.0000    0.0025    0.0000    0.0000    0.0121
                0.6440  -3.5055e-005   1.5319e-005   9.1084e-005  -5.1139e+005  -4.1228e+004   1.0930e+006    0.0000    0.0024    0.0000    0.0000    0.0121

================================================================================
sec        =  28     
zSec       =  81.9000  (m)
nPanelsTop =  4      
nPanelsBot =  4      
nWebs      =  2      

    Top:  panel  nNode   nLam     xc_St    xc_End         b         t         E_eff         G_eff      nu_eff     density  buckleCrit
            (-)    (-)    (-)       (-)       (-)       (m)       (m)          (Pa)          (Pa)         (-)    (kg/m^3)         (-)
              1     11      3    0.0000    0.2074    0.9686    0.0440   6.5681e+009   1.6067e+009      0.3940    575.0901      0.0000
              2      8      5    0.2074    0.5426    1.3712    0.0440   3.8854e+010   3.9091e+009      0.3085   1904.0096      0.0000
              3      2      3    0.5426    0.5429    0.0012    0.0200   1.4131e+010   3.5100e+009      0.3982   1025.0000      0.0000
              4     16      3    0.5429    1.0000    1.9216    0.0200   1.4131e+010   3.5100e+009      0.3982   1025.0000      0.0994

            panel:  1     
           lam_num    nPlies        tPly      fibAng     matID  matName
               (-)       (-)         (m)       (deg)       (-)  (-)
                 1         1    0.005000      0.0000         2  (blade-shell)
                 2         1    0.033989      0.0000         5  (LEP-core)
                 3         1    0.005000      0.0000         2  (blade-shell)

               lamina:  1     
              matName:  (blade-shell)
                     s           e11           e22           e12           s11           s22           s12   s11_fcT   s11_fcC   s22_fcT   s22_fcC   s12_fcS
                   (m)         (m/m)         (m/m)         (rad)          (Pa)          (Pa)          (Pa)       (-)       (-)       (-)       (-)       (-)
                0.0000   1.0101e-004  -3.9804e-005   1.1690e-005   2.8319e+006   9.1215e+003   8.1831e+004    0.0197   -0.0000    0.0000   -0.0000    0.0014
                0.0635   9.8533e-005  -3.8828e-005   7.8061e-006   2.7625e+006   8.9122e+003   5.4643e+004    0.0192   -0.0000    0.0000   -0.0000    0.0009
                0.1110   9.5295e-005  -3.7549e-005   4.9754e-006   2.6717e+006   8.6570e+003   3.4828e+004    0.0186   -0.0000    0.0000   -0.0000    0.0006
                0.1786   9.0871e-005  -3.5805e-005   1.0840e-006   2.5477e+006   8.2738e+003   7.5882e+003    0.0177   -0.0000    0.0000   -0.0000    0.0001
                0.2668   8.5185e-005  -3.3564e-005   3.7290e-006   2.3883e+006   7.7674e+003   2.6103e+004    0.0166   -0.0000    0.0000   -0.0000    0.0004
                0.3737   7.8324e-005  -3.0860e-005   9.1563e-006   2.1959e+006   7.1512e+003   6.4094e+004    0.0152   -0.0000    0.0000   -0.0000    0.0011
                0.4978   7.0437e-005  -2.7752e-005   1.4900e-005   1.9748e+006   6.4379e+003   1.0430e+005    0.0137   -0.0000    0.0000   -0.0000    0.0017
                0.6385   6.1575e-005  -2.4260e-005   2.0687e-005   1.7264e+006   5.6342e+003   1.4481e+005    0.0120   -0.0000    0.0000   -0.0000    0.0024
                0.7943   5.1853e-005  -2.0429e-005   2.6201e-005   1.4538e+006   4.7515e+003   1.8341e+005    0.0101   -0.0000    0.0000   -0.0000    0.0031
                0.9640   4.1417e-005  -1.6317e-005   3.1149e-005   1.1612e+006   3.8013e+003   2.1804e+005    0.0081   -0.0000    0.0000   -0.0000    0.0036
                0.9686   4.1079e-005  -1.6184e-005   3.1267e-005   1.1517e+006   3.7746e+003   2.1887e+005    0.0080   -0.0000    0.0000   -0.0000    0.0036

               lamina:  2     
              matName:  (LEP-core)
                     s           e11           e22           e12           s11           s22           s12   s11_fcT   s11_fcC   s22_fcT   s22_fcC   s12_fcS
                   (m)         (m/m)         (m/m)         (rad)          (Pa)          (Pa)          (Pa)       (-)       (-)       (-)       (-)       (-)
                0.0000   1.0067e-004  -3.9670e-005   1.1690e-005   2.5363e+004  -2.7052e+003   2.3380e+002    0.0000   -0.0000    0.0000    0.0000    0.0000
                0.0635   9.8254e-005  -3.8716e-005   7.8061e-006   2.4754e+004  -2.6400e+003   1.5612e+002    0.0000   -0.0000    0.0000    0.0000    0.0000
                0.1110   9.5152e-005  -3.7492e-005   4.9754e-006   2.3973e+004  -2.5562e+003   9.9508e+001    0.0000   -0.0000    0.0000    0.0000    0.0000
                0.1786   9.0798e-005  -3.5776e-005   1.0840e-006   2.2876e+004  -2.4389e+003   2.1681e+001    0.0000   -0.0000    0.0000    0.0000    0.0000
                0.2668   8.5155e-005  -3.3552e-005   3.7290e-006   2.1454e+004  -2.2872e+003   7.4579e+001    0.0000   -0.0000    0.0000    0.0000    0.0000
                0.3737   7.8360e-005  -3.0874e-005   9.1563e-006   1.9742e+004  -2.1046e+003   1.8313e+002    0.0000   -0.0000    0.0000    0.0000    0.0000
                0.4978   7.0671e-005  -2.7845e-005   1.4900e-005   1.7805e+004  -1.8982e+003   2.9801e+002    0.0000   -0.0000    0.0000    0.0000    0.0000
                0.6385   6.1966e-005  -2.4416e-005   2.0687e-005   1.5612e+004  -1.6645e+003   4.1374e+002    0.0000   -0.0000    0.0000    0.0000    0.0000
                0.7943   5.2389e-005  -2.0642e-005   2.6201e-005   1.3199e+004  -1.4074e+003   5.2402e+002    0.0000   -0.0000    0.0000    0.0000    0.0000
                0.9640   4.2026e-005  -1.6560e-005   3.1149e-005   1.0588e+004  -1.1291e+003   6.2298e+002    0.0000   -0.0000    0.0000    0.0000    0.0000
                0.9686   4.1810e-005  -1.6475e-005   3.1267e-005   1.0534e+004  -1.1234e+003   6.2534e+002    0.0000   -0.0000    0.0000    0.0000    0.0000

               lamina:  3     
              matName:  (blade-shell)
                     s           e11           e22           e12           s11           s22           s12   s11_fcT   s11_fcC   s22_fcT   s22_fcC   s12_fcS
                   (m)         (m/m)         (m/m)         (rad)          (Pa)          (Pa)          (Pa)       (-)       (-)       (-)       (-)       (-)
                0.0000   9.8389e-005  -3.8760e-005   1.1690e-005   2.7585e+006   9.0584e+003   8.1831e+004    0.0192   -0.0000    0.0000   -0.0000    0.0014
                0.0635   9.6354e-005  -3.7959e-005   7.8061e-006   2.7014e+006   8.8597e+003   5.4643e+004    0.0188   -0.0000    0.0000   -0.0000    0.0009
                0.1110   9.4182e-005  -3.7106e-005   4.9754e-006   2.6406e+006   8.6302e+003   3.4828e+004    0.0183   -0.0000    0.0000   -0.0000    0.0006
                0.1786   9.0303e-005  -3.5578e-005   1.0840e-006   2.5318e+006   8.2601e+003   7.5882e+003    0.0176   -0.0000    0.0000   -0.0000    0.0001
                0.2668   8.4951e-005  -3.3470e-005   3.7290e-006   2.3817e+006   7.7618e+003   2.6103e+004    0.0165   -0.0000    0.0000   -0.0000    0.0004
                0.3737   7.8365e-005  -3.0876e-005   9.1563e-006   2.1971e+006   7.1522e+003   6.4094e+004    0.0153   -0.0000    0.0000   -0.0000    0.0011
                0.4978   7.0705e-005  -2.7859e-005   1.4900e-005   1.9823e+006   6.4443e+003   1.0430e+005    0.0138   -0.0000    0.0000   -0.0000    0.0017
                0.6385   6.2024e-005  -2.4438e-005   2.0687e-005   1.7389e+006   5.6450e+003   1.4481e+005    0.0121   -0.0000    0.0000   -0.0000    0.0024
                0.7943   5.2467e-005  -2.0674e-005   2.6201e-005   1.4710e+006   4.7663e+003   1.8341e+005    0.0102   -0.0000    0.0000   -0.0000    0.0031
                0.9640   4.2115e-005  -1.6595e-005   3.1149e-005   1.1808e+006   3.8181e+003   2.1804e+005    0.0082   -0.0000    0.0000   -0.0000    0.0036
                0.9686   4.1917e-005  -1.6518e-005   3.1267e-005   1.1752e+006   3.7947e+003   2.1887e+005    0.0082   -0.0000    0.0000   -0.0000    0.0036

            panel:  2     
           lam_num    nPlies        tPly      fibAng     matID  matName
               (-)       (-)         (m)       (deg)       (-)  (-)
                 1         1    0.005000      0.0000         2  (blade-shell)
                 2         1    0.016995      0.0000         3  (spar-uni)
                 3         1    0.000002      0.0000         4  (spar-core)
                 4         1    0.016995      0.0000         3  (spar-uni)
                 5         1    0.005000      0.0000         2  (blade-shell)

               lamina:  1     
              matName:  (blade-shell)
                     s           e11           e22           e12           s11           s22           s12   s11_fcT   s11_fcC   s22_fcT   s22_fcC   s12_fcS
                   (m)         (m/m)         (m/m)         (rad)          (Pa)          (Pa)          (Pa)       (-)       (-)       (-)       (-)       (-)
                0.0000   4.0492e-005  -1.2456e-005   1.5839e-005   1.1566e+006   5.6931e+004   1.1087e+005    0.0080   -0.0000    0.0000   -0.0000    0.0018
                0.1760   2.9749e-005  -9.1385e-006   2.5445e-005   8.4978e+005   4.2018e+004   1.7811e+005    0.0059   -0.0000    0.0000   -0.0000    0.0030
                0.3672   1.8157e-005  -5.5562e-006   3.2687e-005   5.1878e+005   2.5969e+004   2.2881e+005    0.0036   -0.0000    0.0000   -0.0000    0.0038
                0.5664   6.2768e-006  -1.8845e-006   3.6752e-005   1.7956e+005   9.5302e+003   2.5726e+005    0.0012   -0.0000    0.0000   -0.0000    0.0043
                0.7719  -6.1746e-006   1.9815e-006   3.7298e-005  -1.7586e+005  -7.4322e+003   2.6108e+005    0.0000    0.0008    0.0000    0.0000    0.0044
                0.9822  -1.8138e-005   5.6810e-006   3.4117e-005  -5.1744e+005  -2.3955e+004   2.3882e+005    0.0000    0.0024    0.0000    0.0000    0.0040
                1.1961  -2.9889e-005   9.3127e-006   2.7121e-005  -8.5297e+005  -4.0216e+004   1.8985e+005    0.0000    0.0040    0.0000    0.0000    0.0032
                1.3712  -3.9235e-005   1.2199e-005   1.8632e-005  -1.1199e+006  -5.3182e+004   1.3042e+005    0.0000    0.0053    0.0000    0.0000    0.0022

               lamina:  2     
              matName:  (spar-uni)
                     s           e11           e22           e12           s11           s22           s12   s11_fcT   s11_fcC   s22_fcT   s22_fcC   s12_fcS
                   (m)         (m/m)         (m/m)         (rad)          (Pa)          (Pa)          (Pa)       (-)       (-)       (-)       (-)       (-)
                0.0000   4.1444e-005  -1.2786e-005   1.5839e-005   1.7359e+006  -1.6978e+004   4.7517e+004    0.0018   -0.0000    0.0000    0.0000    0.0016
                0.1760   3.0781e-005  -9.4958e-006   2.5445e-005   1.2893e+006  -1.2610e+004   7.6334e+004    0.0013   -0.0000    0.0000    0.0000    0.0025
                0.3672   1.9350e-005  -5.9694e-006   3.2687e-005   8.1048e+005  -7.9270e+003   9.8060e+004    0.0008   -0.0000    0.0000    0.0000    0.0033
                0.5664   7.6490e-006  -2.3597e-006   3.6752e-005   3.2038e+005  -3.1335e+003   1.1026e+005    0.0003   -0.0000    0.0000    0.0000    0.0037
                0.7719  -5.7145e-006   1.8221e-006   3.7298e-005  -2.3911e+005   3.1918e+003   1.1189e+005    0.0000    0.0003    0.0000   -0.0000    0.0037
                0.9822  -1.7624e-005   5.5031e-006   3.4117e-005  -7.3793e+005   8.1699e+003   1.0235e+005    0.0000    0.0011    0.0000   -0.0000    0.0034
                1.1961  -2.9335e-005   9.1210e-006   2.7121e-005  -1.2284e+006   1.3041e+004   8.1363e+004    0.0000    0.0017    0.0000   -0.0000    0.0027
                1.3712  -3.8662e-005   1.2001e-005   1.8632e-005  -1.6191e+006   1.6897e+004   5.5895e+004    0.0000    0.0023    0.0000   -0.0000    0.0019

               lamina:  3     
              matName:  (spar-core)
                     s           e11           e22           e12           s11           s22           s12   s11_fcT   s11_fcC   s22_fcT   s22_fcC   s12_fcS
                   (m)         (m/m)         (m/m)         (rad)          (Pa)          (Pa)          (Pa)       (-)       (-)       (-)       (-)       (-)
                0.0000   4.1445e-005  -1.2786e-005   1.5839e-005   1.0745e+004  -1.0062e+002   3.1678e+002    0.0000   -0.0000    0.0000    0.0000    0.0000
                0.1760   3.0781e-005  -9.4958e-006   2.5445e-005   7.9806e+003  -7.4730e+001   5.0889e+002    0.0000   -0.0000    0.0000    0.0000    0.0000
                0.3672   1.9350e-005  -5.9695e-006   3.2687e-005   5.0170e+003  -4.6979e+001   6.5373e+002    0.0000   -0.0000    0.0000    0.0000    0.0000
                0.5664   7.6491e-006  -2.3597e-006   3.6752e-005   1.9832e+003  -1.8571e+001   7.3504e+002    0.0000   -0.0000    0.0000    0.0000    0.0000
                0.7719  -4.1504e-006   1.2804e-006   3.7298e-005  -1.0761e+003   1.0077e+001   7.4596e+002    0.0000    0.0000    0.0000   -0.0000    0.0000
                0.9822  -1.5878e-005   4.8983e-006   3.4117e-005  -4.1167e+003   3.8549e+001   6.8235e+002    0.0000    0.0000    0.0000   -0.0000    0.0000
                1.1961  -2.7454e-005   8.4694e-006   2.7121e-005  -7.1179e+003   6.6652e+001   5.4242e+002    0.0000    0.0000    0.0000   -0.0000    0.0000
                1.3712  -3.6716e-005   1.1327e-005   1.8632e-005  -9.5195e+003   8.9140e+001   3.7263e+002    0.0000    0.0000    0.0000   -0.0000    0.0000

               lamina:  4     
              matName:  (spar-uni)
                     s           e11           e22           e12           s11           s22           s12   s11_fcT   s11_fcC   s22_fcT   s22_fcC   s12_fcS
                   (m)         (m/m)         (m/m)         (rad)          (Pa)          (Pa)          (Pa)       (-)       (-)       (-)       (-)       (-)
                0.0000   4.2397e-005  -1.3115e-005   1.5839e-005   1.7757e+006  -1.7886e+004   4.7517e+004    0.0018   -0.0000    0.0000    0.0000    0.0016
                0.1760   3.1813e-005  -9.8532e-006   2.5445e-005   1.3323e+006  -1.3594e+004   7.6334e+004    0.0014   -0.0000    0.0000    0.0000    0.0025
                0.3672   2.0543e-005  -6.3827e-006   3.2687e-005   8.6029e+005  -9.0650e+003   9.8060e+004    0.0009   -0.0000    0.0000    0.0000    0.0033
                0.5664   9.0213e-006  -2.8350e-006   3.6752e-005   3.7765e+005  -4.4421e+003   1.1026e+005    0.0004   -0.0000    0.0000    0.0000    0.0037
                0.7719  -4.1502e-006   1.2803e-006   3.7298e-005  -1.7383e+005   1.7001e+003   1.1189e+005    0.0000    0.0002    0.0000   -0.0000    0.0037
                0.9822  -1.5878e-005   4.8982e-006   3.4117e-005  -6.6504e+005   6.5045e+003   1.0235e+005    0.0000    0.0009    0.0000   -0.0000    0.0034
                1.1961  -2.7453e-005   8.4693e-006   2.7121e-005  -1.1499e+006   1.1247e+004   8.1363e+004    0.0000    0.0016    0.0000   -0.0000    0.0027
                1.3712  -3.6716e-005   1.1327e-005   1.8632e-005  -1.5379e+006   1.5041e+004   5.5895e+004    0.0000    0.0022    0.0000   -0.0000    0.0019

               lamina:  5     
              matName:  (blade-shell)
                     s           e11           e22           e12           s11           s22           s12   s11_fcT   s11_fcC   s22_fcT   s22_fcC   s12_fcS
                   (m)         (m/m)         (m/m)         (rad)          (Pa)          (Pa)          (Pa)       (-)       (-)       (-)       (-)       (-)
                0.0000   4.2677e-005  -1.3212e-005   1.5839e-005   1.2184e+006   5.8715e+004   1.1087e+005    0.0085   -0.0000    0.0000   -0.0000    0.0018
                0.1760   3.2116e-005  -9.9583e-006   2.5445e-005   9.1684e+005   4.3951e+004   1.7811e+005    0.0064   -0.0000    0.0000   -0.0000    0.0030
                0.3672   2.0894e-005  -6.5043e-006   3.2687e-005   5.9633e+005   2.8205e+004   2.2881e+005    0.0041   -0.0000    0.0000   -0.0000    0.0038
                0.5664   9.4250e-006  -2.9748e-006   3.6752e-005   2.6874e+005   1.2101e+004   2.5726e+005    0.0019   -0.0000    0.0000   -0.0000    0.0043
                0.7719  -2.5861e-006   7.3862e-007   3.7298e-005  -7.4211e+004  -4.5016e+003   2.6108e+005    0.0000    0.0003    0.0000    0.0000    0.0044
                0.9822  -1.4131e-005   4.2935e-006   3.4117e-005  -4.0395e+005  -2.0683e+004   2.3882e+005    0.0000    0.0019    0.0000    0.0000    0.0040
                1.1961  -2.5572e-005   7.8176e-006   2.7121e-005  -7.3069e+005  -3.6691e+004   1.8985e+005    0.0000    0.0034    0.0000    0.0000    0.0032
                1.3712  -3.4770e-005   1.0653e-005   1.8632e-005  -9.9338e+005  -4.9536e+004   1.3042e+005    0.0000    0.0047    0.0000    0.0000    0.0022

            panel:  3     
           lam_num    nPlies        tPly      fibAng     matID  matName
               (-)       (-)         (m)       (deg)       (-)  (-)
                 1         1    0.005000      0.0000         2  (blade-shell)
                 2         1    0.010000      0.0000         6  (TEP-core)
                 3         1    0.005000      0.0000         2  (blade-shell)

               lamina:  1     
              matName:  (blade-shell)
                     s           e11           e22           e12           s11           s22           s12   s11_fcT   s11_fcC   s22_fcT   s22_fcC   s12_fcS
                   (m)         (m/m)         (m/m)         (rad)          (Pa)          (Pa)          (Pa)       (-)       (-)       (-)       (-)       (-)
                0.0000  -3.7709e-005   1.5015e-005   4.5642e-005  -1.0563e+006  -1.0435e+003   3.1949e+005    0.0000    0.0050    0.0000    0.0000    0.0053
                0.0012  -3.7775e-005   1.5041e-005   4.5613e-005  -1.0581e+006  -1.0453e+003   3.1929e+005    0.0000    0.0050    0.0000    0.0000    0.0053

               lamina:  2     
              matName:  (TEP-core)
                     s           e11           e22           e12           s11           s22           s12   s11_fcT   s11_fcC   s22_fcT   s22_fcC   s12_fcS
                   (m)         (m/m)         (m/m)         (rad)          (Pa)          (Pa)          (Pa)       (-)       (-)       (-)       (-)       (-)
                0.0000  -3.7416e-005   1.4898e-005   4.5642e-005  -9.4133e+003   1.0495e+003   9.1284e+002    0.0000    0.0000    0.0000   -0.0000    0.0000
                0.0012  -3.7482e-005   1.4924e-005   4.5613e-005  -9.4299e+003   1.0513e+003   9.1227e+002    0.0000    0.0000    0.0000   -0.0000    0.0000

               lamina:  3     
              matName:  (blade-shell)
                     s           e11           e22           e12           s11           s22           s12   s11_fcT   s11_fcC   s22_fcT   s22_fcC   s12_fcS
                   (m)         (m/m)         (m/m)         (rad)          (Pa)          (Pa)          (Pa)       (-)       (-)       (-)       (-)       (-)
                0.0000  -3.6830e-005   1.4664e-005   4.5642e-005  -1.0317e+006  -1.0399e+003   3.1949e+005    0.0000    0.0048    0.0000    0.0000    0.0053
                0.0012  -3.6896e-005   1.4690e-005   4.5613e-005  -1.0335e+006  -1.0418e+003   3.1929e+005    0.0000    0.0049    0.0000    0.0000    0.0053

            panel:  4     
           lam_num    nPlies        tPly      fibAng     matID  matName
               (-)       (-)         (m)       (deg)       (-)  (-)
                 1         1    0.005000      0.0000         2  (blade-shell)
                 2         1    0.010000      0.0000         6  (TEP-core)
                 3         1    0.005000      0.0000         2  (blade-shell)

               lamina:  1     
              matName:  (blade-shell)
                     s           e11           e22           e12           s11           s22           s12   s11_fcT   s11_fcC   s22_fcT   s22_fcC   s12_fcS
                   (m)         (m/m)         (m/m)         (rad)          (Pa)          (Pa)          (Pa)       (-)       (-)       (-)       (-)       (-)
                0.0000  -3.7775e-005   1.5041e-005   7.8737e-005  -1.0581e+006  -1.0453e+003   5.5116e+005    0.0000    0.0050    0.0000    0.0000    0.0092
                0.0385  -3.9841e-005   1.5864e-005   7.8709e-005  -1.1160e+006  -1.1026e+003   5.5096e+005    0.0000    0.0052    0.0000    0.0000    0.0092
                0.2529  -5.0930e-005   2.0279e-005   7.8709e-005  -1.4266e+006  -1.4132e+003   5.5096e+005    0.0000    0.0067    0.0000    0.0000    0.0092
                0.4635  -6.1618e-005   2.4535e-005   7.7808e-005  -1.7260e+006  -1.7125e+003   5.4465e+005    0.0000    0.0081    0.0000    0.0000    0.0091
                0.6680  -7.1837e-005   2.8603e-005   7.1937e-005  -2.0122e+006  -1.9986e+003   5.0356e+005    0.0000    0.0094    0.0000    0.0000    0.0084
                0.8641  -8.1483e-005   3.2444e-005   6.4766e-005  -2.2824e+006  -2.2689e+003   4.5336e+005    0.0000    0.0107    0.0000    0.0000    0.0076
                1.0492  -9.0509e-005   3.6038e-005   5.6499e-005  -2.5353e+006  -2.5218e+003   3.9549e+005    0.0000    0.0119    0.0000    0.0000    0.0066
                1.2211  -9.8835e-005   3.9353e-005   4.7381e-005  -2.7685e+006  -2.7552e+003   3.3167e+005    0.0000    0.0130    0.0000    0.0000    0.0055
                1.3776  -1.0640e-004   4.2363e-005   3.7718e-005  -2.9803e+006  -2.9672e+003   2.6402e+005    0.0000    0.0140    0.0000    0.0000    0.0044
                1.5170  -1.1312e-004   4.5042e-005   2.7832e-005  -3.1687e+006  -3.1559e+003   1.9482e+005    0.0000    0.0149    0.0000    0.0000    0.0032
                1.6375  -1.1895e-004   4.7364e-005   1.8066e-005  -3.3321e+006  -3.3194e+003   1.2646e+005    0.0000    0.0156    0.0000    0.0000    0.0021
                1.7381  -1.2380e-004   4.9291e-005   8.7646e-006  -3.4677e+006  -3.4550e+003   6.1352e+004    0.0000    0.0163    0.0000    0.0000    0.0010
                1.8178  -1.2759e-004   5.0801e-005   2.5748e-007  -3.5739e+006  -3.5613e+003   1.8024e+003    0.0000    0.0168    0.0000    0.0000    0.0000
                1.8754  -1.3034e-004   5.1897e-005   7.1713e-006  -3.6510e+006  -3.6388e+003   5.0199e+004    0.0000    0.0171    0.0000    0.0000    0.0008
                1.9100  -1.3202e-004   5.2568e-005   1.3271e-005  -3.6982e+006  -3.6864e+003   9.2900e+004    0.0000    0.0174    0.0000    0.0000    0.0015
                1.9216  -1.3259e-004   5.2793e-005   1.7789e-005  -3.7140e+006  -3.7024e+003   1.2453e+005    0.0000    0.0174    0.0000    0.0000    0.0021

               lamina:  2     
              matName:  (TEP-core)
                     s           e11           e22           e12           s11           s22           s12   s11_fcT   s11_fcC   s22_fcT   s22_fcC   s12_fcS
                   (m)         (m/m)         (m/m)         (rad)          (Pa)          (Pa)          (Pa)       (-)       (-)       (-)       (-)       (-)
                0.0000  -3.7482e-005   1.4924e-005   7.8737e-005  -9.4299e+003   1.0513e+003   1.5747e+003    0.0000    0.0000    0.0000   -0.0000    0.0000
                0.0385  -3.9534e-005   1.5741e-005   7.8709e-005  -9.9462e+003   1.1089e+003   1.5742e+003    0.0000    0.0000    0.0000   -0.0000    0.0000
                0.2529  -5.0615e-005   2.0153e-005   7.8709e-005  -1.2734e+004   1.4196e+003   1.5742e+003    0.0000    0.0000    0.0000   -0.0000    0.0000
                0.4635  -6.1293e-005   2.4405e-005   7.7808e-005  -1.5420e+004   1.7191e+003   1.5562e+003    0.0000    0.0000    0.0000   -0.0000    0.0000
                0.6680  -7.1503e-005   2.8470e-005   7.1937e-005  -1.7989e+004   2.0054e+003   1.4387e+003    0.0000    0.0000    0.0000   -0.0000    0.0000
                0.8641  -8.1143e-005   3.2308e-005   6.4766e-005  -2.0414e+004   2.2758e+003   1.2953e+003    0.0000    0.0000    0.0000   -0.0000    0.0000
                1.0492  -9.0165e-005   3.5900e-005   5.6499e-005  -2.2684e+004   2.5288e+003   1.1300e+003    0.0000    0.0000    0.0000   -0.0000    0.0000
                1.2211  -9.8489e-005   3.9215e-005   4.7381e-005  -2.4778e+004   2.7623e+003   9.4762e+002    0.0000    0.0000    0.0000   -0.0000    0.0000
                1.3776  -1.0605e-004   4.2224e-005   3.7718e-005  -2.6680e+004   2.9743e+003   7.5435e+002    0.0000    0.0000    0.0000   -0.0000    0.0000
                1.5170  -1.1278e-004   4.4904e-005   2.7832e-005  -2.8373e+004   3.1630e+003   5.5664e+002    0.0000    0.0000    0.0000   -0.0000    0.0000
                1.6375  -1.1861e-004   4.7225e-005   1.8066e-005  -2.9840e+004   3.3265e+003   3.6132e+002    0.0000    0.0000    0.0000   -0.0000    0.0000
                1.7381  -1.2344e-004   4.9151e-005   8.7646e-006  -3.1057e+004   3.4621e+003   1.7529e+002    0.0000    0.0000    0.0000   -0.0000    0.0000
                1.8178  -1.2723e-004   5.0660e-005   2.5748e-007  -3.2010e+004   3.5684e+003   5.1496e+000    0.0000    0.0000    0.0000   -0.0000    0.0000
                1.8754  -1.2999e-004   5.1759e-005   7.1713e-006  -3.2705e+004   3.6458e+003   1.4343e+002    0.0000    0.0000    0.0000   -0.0000    0.0000
                1.9100  -1.3169e-004   5.2432e-005   1.3271e-005  -3.3130e+004   3.6933e+003   2.6543e+002    0.0000    0.0000    0.0000   -0.0000    0.0000
                1.9216  -1.3225e-004   5.2659e-005   1.7789e-005  -3.3273e+004   3.7092e+003   3.5579e+002    0.0000    0.0000    0.0000   -0.0000    0.0000

               lamina:  3     
              matName:  (blade-shell)
                     s           e11           e22           e12           s11           s22           s12   s11_fcT   s11_fcC   s22_fcT   s22_fcC   s12_fcS
                   (m)         (m/m)         (m/m)         (rad)          (Pa)          (Pa)          (Pa)       (-)       (-)       (-)       (-)       (-)
                0.0000  -3.6896e-005   1.4690e-005   7.8737e-005  -1.0335e+006  -1.0418e+003   5.5116e+005    0.0000    0.0049    0.0000    0.0000    0.0092
                0.0385  -3.8921e-005   1.5496e-005   7.8709e-005  -1.0902e+006  -1.0989e+003   5.5096e+005    0.0000    0.0051    0.0000    0.0000    0.0092
                0.2529  -4.9985e-005   1.9901e-005   7.8709e-005  -1.4001e+006  -1.4094e+003   5.5096e+005    0.0000    0.0066    0.0000    0.0000    0.0092
                0.4635  -6.0642e-005   2.4145e-005   7.7808e-005  -1.6987e+006  -1.7085e+003   5.4465e+005    0.0000    0.0080    0.0000    0.0000    0.0091
                0.6680  -7.0835e-005   2.8203e-005   7.1937e-005  -1.9842e+006  -1.9946e+003   5.0356e+005    0.0000    0.0093    0.0000    0.0000    0.0084
                0.8641  -8.0462e-005   3.2036e-005   6.4766e-005  -2.2539e+006  -2.2647e+003   4.5336e+005    0.0000    0.0106    0.0000    0.0000    0.0076
                1.0492  -8.9476e-005   3.5625e-005   5.6499e-005  -2.5063e+006  -2.5176e+003   3.9549e+005    0.0000    0.0118    0.0000    0.0000    0.0066
                1.2211  -9.7796e-005   3.8938e-005   4.7381e-005  -2.7394e+006  -2.7510e+003   3.3167e+005    0.0000    0.0129    0.0000    0.0000    0.0055
                1.3776  -1.0535e-004   4.1947e-005   3.7718e-005  -2.9511e+006  -2.9630e+003   2.6402e+005    0.0000    0.0139    0.0000    0.0000    0.0044
                1.5170  -1.1208e-004   4.4627e-005   2.7832e-005  -3.1396e+006  -3.1517e+003   1.9482e+005    0.0000    0.0147    0.0000    0.0000    0.0032
                1.6375  -1.1791e-004   4.6947e-005   1.8066e-005  -3.3028e+006  -3.3151e+003   1.2646e+005    0.0000    0.0155    0.0000    0.0000    0.0021
                1.7381  -1.2274e-004   4.8869e-005   8.7646e-006  -3.4381e+006  -3.4507e+003   6.1352e+004    0.0000    0.0161    0.0000    0.0000    0.0010
                1.8178  -1.2653e-004   5.0378e-005   2.5748e-007  -3.5442e+006  -3.5570e+003   1.8024e+003    0.0000    0.0166    0.0000    0.0000    0.0000
                1.8754  -1.2930e-004   5.1483e-005   7.1713e-006  -3.6220e+006  -3.6346e+003   5.0199e+004    0.0000    0.0170    0.0000    0.0000    0.0008
                1.9100  -1.3101e-004   5.2162e-005   1.3271e-005  -3.6697e+006  -3.6822e+003   9.2900e+004    0.0000    0.0172    0.0000    0.0000    0.0015
                1.9216  -1.3158e-004   5.2390e-005   1.7789e-005  -3.6858e+006  -3.6983e+003   1.2453e+005    0.0000    0.0173    0.0000    0.0000    0.0021

  Bottom:  panel  nNode   nLam     xc_St    xc_End         b         t         E_eff         G_eff      nu_eff     density  buckleCrit
            (-)    (-)    (-)       (-)       (-)       (m)       (m)          (Pa)          (Pa)         (-)    (kg/m^3)         (-)
              1     11      3    0.0000    0.2074    0.8765    0.0440   6.5681e+009   1.6067e+009      0.3940    575.0901      0.0000
              2      8      5    0.2074    0.5426    1.3702    0.0440   3.8854e+010   3.9091e+009      0.3085   1904.0096      0.0000
              3      2      3    0.5426    0.5429    0.0012    0.0200   1.4131e+010   3.5100e+009      0.3982   1025.0000      0.0000
              4     16      3    0.5429    1.0000    1.8858    0.0200   1.4131e+010   3.5100e+009      0.3982   1025.0000      0.0453

            panel:  1     
           lam_num    nPlies        tPly      fibAng     matID  matName
               (-)       (-)         (m)       (deg)       (-)  (-)
                 1         1    0.005000      0.0000         2  (blade-shell)
                 2         1    0.033989      0.0000         5  (LEP-core)
                 3         1    0.005000      0.0000         2  (blade-shell)

               lamina:  1     
              matName:  (blade-shell)
                     s           e11           e22           e12           s11           s22           s12   s11_fcT   s11_fcC   s22_fcT   s22_fcC   s12_fcS
                   (m)         (m/m)         (m/m)         (rad)          (Pa)          (Pa)          (Pa)       (-)       (-)       (-)       (-)       (-)
                0.0000   1.0108e-004  -3.9833e-005   1.1690e-005   2.8339e+006   9.1069e+003   8.1831e+004    0.0197   -0.0000    0.0000   -0.0000    0.0014
                0.0214   1.0105e-004  -3.9822e-005   1.3009e-005   2.8331e+006   9.1073e+003   9.1061e+004    0.0197   -0.0000    0.0000   -0.0000    0.0015
                0.0634   1.0002e-004  -3.9415e-005   1.5589e-005   2.8041e+006   9.0249e+003   1.0912e+005    0.0195   -0.0000    0.0000   -0.0000    0.0018
                0.1219   9.7628e-005  -3.8471e-005   1.9132e-005   2.7371e+006   8.8219e+003   1.3392e+005    0.0190   -0.0000    0.0000   -0.0000    0.0022
                0.2007   9.3940e-005  -3.7018e-005   2.3758e-005   2.6337e+006   8.4952e+003   1.6631e+005    0.0183   -0.0000    0.0000   -0.0000    0.0028
                0.2997   8.9071e-005  -3.5099e-005   2.9322e-005   2.4972e+006   8.0571e+003   2.0525e+005    0.0173   -0.0000    0.0000   -0.0000    0.0034
                0.4175   8.3032e-005  -3.2719e-005   3.5541e-005   2.3279e+006   7.5108e+003   2.4879e+005    0.0162   -0.0000    0.0000   -0.0000    0.0041
                0.5530   7.5902e-005  -2.9910e-005   4.2150e-005   2.1280e+006   6.8637e+003   2.9505e+005    0.0148   -0.0000    0.0000   -0.0000    0.0049
                0.7048   6.7761e-005  -2.6702e-005   4.8838e-005   1.8998e+006   6.1236e+003   3.4187e+005    0.0132   -0.0000    0.0000   -0.0000    0.0057
                0.8716   5.8691e-005  -2.3128e-005   5.5296e-005   1.6455e+006   5.2972e+003   3.8707e+005    0.0114   -0.0000    0.0000   -0.0000    0.0065
                0.8765   5.8377e-005  -2.3005e-005   5.5471e-005   1.6367e+006   5.2715e+003   3.8830e+005    0.0114   -0.0000    0.0000   -0.0000    0.0065

               lamina:  2     
              matName:  (LEP-core)
                     s           e11           e22           e12           s11           s22           s12   s11_fcT   s11_fcC   s22_fcT   s22_fcC   s12_fcS
                   (m)         (m/m)         (m/m)         (rad)          (Pa)          (Pa)          (Pa)       (-)       (-)       (-)       (-)       (-)
                0.0000   1.0067e-004  -3.9671e-005   1.1690e-005   2.5363e+004  -2.7056e+003   2.3380e+002    0.0000   -0.0000    0.0000    0.0000    0.0000
                0.0214   1.0065e-004  -3.9664e-005   1.3009e-005   2.5359e+004  -2.7050e+003   2.6017e+002    0.0000   -0.0000    0.0000    0.0000    0.0000
                0.0634   9.9662e-005  -3.9272e-005   1.5589e-005   2.5109e+004  -2.6782e+003   3.1178e+002    0.0000   -0.0000    0.0000    0.0000    0.0000
                0.1219   9.7322e-005  -3.8350e-005   1.9132e-005   2.4519e+004  -2.6151e+003   3.8263e+002    0.0000   -0.0000    0.0000    0.0000    0.0000
                0.2007   9.3668e-005  -3.6909e-005   2.3758e-005   2.3599e+004  -2.5169e+003   4.7516e+002    0.0000   -0.0000    0.0000    0.0000    0.0000
                0.2997   8.8821e-005  -3.4999e-005   2.9322e-005   2.2378e+004  -2.3866e+003   5.8644e+002    0.0000   -0.0000    0.0000    0.0000    0.0000
                0.4175   8.2799e-005  -3.2626e-005   3.5541e-005   2.0860e+004  -2.2248e+003   7.1083e+002    0.0000   -0.0000    0.0000    0.0000    0.0000
                0.5530   7.5682e-005  -2.9822e-005   4.2150e-005   1.9067e+004  -2.0336e+003   8.4300e+002    0.0000   -0.0000    0.0000    0.0000    0.0000
                0.7048   6.7551e-005  -2.6618e-005   4.8838e-005   1.7019e+004  -1.8152e+003   9.7677e+002    0.0000   -0.0000    0.0000    0.0000    0.0000
                0.8716   5.8486e-005  -2.3047e-005   5.5296e-005   1.4735e+004  -1.5717e+003   1.1059e+003    0.0000   -0.0000    0.0000    0.0000    0.0000
                0.8765   5.8183e-005  -2.2927e-005   5.5471e-005   1.4658e+004  -1.5635e+003   1.1094e+003    0.0000   -0.0000    0.0000    0.0000    0.0000

               lamina:  3     
              matName:  (blade-shell)
                     s           e11           e22           e12           s11           s22           s12   s11_fcT   s11_fcC   s22_fcT   s22_fcC   s12_fcS
                   (m)         (m/m)         (m/m)         (rad)          (Pa)          (Pa)          (Pa)       (-)       (-)       (-)       (-)       (-)
                0.0000   9.7906e-005  -3.8569e-005   1.1690e-005   2.7450e+006   9.0305e+003   8.1831e+004    0.0191   -0.0000    0.0000   -0.0000    0.0014
                0.0214   9.7955e-005  -3.8589e-005   1.3009e-005   2.7464e+006   9.0327e+003   9.1061e+004    0.0191   -0.0000    0.0000   -0.0000    0.0015
                0.0634   9.7236e-005  -3.8306e-005   1.5589e-005   2.7262e+006   8.9579e+003   1.0912e+005    0.0189   -0.0000    0.0000   -0.0000    0.0018
                0.1219   9.5248e-005  -3.7523e-005   1.9132e-005   2.6704e+006   8.7646e+003   1.3392e+005    0.0185   -0.0000    0.0000   -0.0000    0.0022
                0.2007   9.1821e-005  -3.6173e-005   2.3758e-005   2.5744e+006   8.4441e+003   1.6631e+005    0.0179   -0.0000    0.0000   -0.0000    0.0028
                0.2997   8.7120e-005  -3.4322e-005   2.9322e-005   2.4426e+006   8.0101e+003   2.0525e+005    0.0170   -0.0000    0.0000   -0.0000    0.0034
                0.4175   8.1214e-005  -3.1995e-005   3.5541e-005   2.2770e+006   7.4670e+003   2.4879e+005    0.0158   -0.0000    0.0000   -0.0000    0.0041
                0.5530   7.4183e-005  -2.9225e-005   4.2150e-005   2.0798e+006   6.8223e+003   2.9505e+005    0.0144   -0.0000    0.0000   -0.0000    0.0049
                0.7048   6.6124e-005  -2.6050e-005   4.8838e-005   1.8539e+006   6.0842e+003   3.4187e+005    0.0129   -0.0000    0.0000   -0.0000    0.0057
                0.8716   5.7094e-005  -2.2492e-005   5.5296e-005   1.6007e+006   5.2587e+003   3.8707e+005    0.0111   -0.0000    0.0000   -0.0000    0.0065
                0.8765   5.6859e-005  -2.2400e-005   5.5471e-005   1.5941e+006   5.2350e+003   3.8830e+005    0.0111   -0.0000    0.0000   -0.0000    0.0065

            panel:  2     
           lam_num    nPlies        tPly      fibAng     matID  matName
               (-)       (-)         (m)       (deg)       (-)  (-)
                 1         1    0.005000      0.0000         2  (blade-shell)
                 2         1    0.016995      0.0000         3  (spar-uni)
                 3         1    0.000002      0.0000         4  (spar-core)
                 4         1    0.016995      0.0000         3  (spar-uni)
                 5         1    0.005000      0.0000         2  (blade-shell)

               lamina:  1     
              matName:  (blade-shell)
                     s           e11           e22           e12           s11           s22           s12   s11_fcT   s11_fcC   s22_fcT   s22_fcC   s12_fcS
                   (m)         (m/m)         (m/m)         (rad)          (Pa)          (Pa)          (Pa)       (-)       (-)       (-)       (-)       (-)
                0.0000   5.9753e-005  -1.8518e-005   2.1357e-005   1.7059e+006   8.1917e+004   1.4950e+005    0.0118   -0.0000    0.0000   -0.0000    0.0025
                0.1741   5.0096e-005  -1.5537e-005   3.5226e-005   1.4301e+006   6.8501e+004   2.4658e+005    0.0099   -0.0000    0.0000   -0.0000    0.0041
                0.3644   3.9348e-005  -1.2217e-005   4.7475e-005   1.1232e+006   5.3600e+004   3.3233e+005    0.0078   -0.0000    0.0000   -0.0000    0.0055
                0.5635   2.7910e-005  -8.6831e-006   5.6995e-005   7.9659e+005   3.7755e+004   3.9896e+005    0.0055   -0.0000    0.0000   -0.0000    0.0066
                0.7694   1.5858e-005  -4.9582e-006   6.3235e-005   4.5244e+005   2.1073e+004   4.4264e+005    0.0031   -0.0000    0.0000   -0.0000    0.0074
                0.9805   3.2780e-006  -1.0708e-006   6.5759e-005   9.3248e+004   3.6590e+003   4.6032e+005    0.0006   -0.0000    0.0000   -0.0000    0.0077
                1.1950  -9.9332e-006   3.0219e-006   6.4248e-005  -2.8392e+005  -1.4477e+004   4.4973e+005    0.0000    0.0013    0.0000    0.0000    0.0075
                1.3702  -2.0476e-005   6.2757e-006   5.9932e-005  -5.8497e+005  -2.9134e+004   4.1952e+005    0.0000    0.0027    0.0000    0.0000    0.0070

               lamina:  2     
              matName:  (spar-uni)
                     s           e11           e22           e12           s11           s22           s12   s11_fcT   s11_fcC   s22_fcT   s22_fcC   s12_fcS
                   (m)         (m/m)         (m/m)         (rad)          (Pa)          (Pa)          (Pa)       (-)       (-)       (-)       (-)       (-)
                0.0000   5.9246e-005  -1.8342e-005   2.1357e-005   2.4813e+006  -2.5209e+004   6.4070e+004    0.0026   -0.0000    0.0000    0.0000    0.0021
                0.1741   4.9601e-005  -1.5365e-005   3.5226e-005   2.0773e+006  -2.1236e+004   1.0568e+005    0.0021   -0.0000    0.0000    0.0000    0.0035
                0.3644   3.8878e-005  -1.2054e-005   4.7475e-005   1.6282e+006  -1.6795e+004   1.4243e+005    0.0017   -0.0000    0.0000    0.0000    0.0047
                0.5635   2.7473e-005  -8.5316e-006   5.6995e-005   1.1505e+006  -1.2064e+004   1.7098e+005    0.0012   -0.0000    0.0000    0.0000    0.0057
                0.7694   1.5460e-005  -4.8205e-006   6.3235e-005   6.4734e+005  -7.0686e+003   1.8970e+005    0.0007   -0.0000    0.0000    0.0000    0.0063
                0.9805   2.9206e-006  -9.4696e-007   6.5759e-005   1.2214e+005  -1.8574e+003   1.9728e+005    0.0001   -0.0000    0.0000    0.0000    0.0066
                1.1950  -1.1055e-005   3.4105e-006   6.4248e-005  -4.6305e+005   4.5289e+003   1.9274e+005    0.0000    0.0007    0.0000   -0.0000    0.0064
                1.3702  -2.1557e-005   6.6504e-006   5.9932e-005  -9.0294e+005   8.8313e+003   1.7980e+005    0.0000    0.0013    0.0000   -0.0000    0.0060

               lamina:  3     
              matName:  (spar-core)
                     s           e11           e22           e12           s11           s22           s12   s11_fcT   s11_fcC   s22_fcT   s22_fcC   s12_fcS
                   (m)         (m/m)         (m/m)         (rad)          (Pa)          (Pa)          (Pa)       (-)       (-)       (-)       (-)       (-)
                0.0000   5.7521e-005  -1.7745e-005   2.1357e-005   1.4914e+004  -1.3965e+002   4.2713e+002    0.0000   -0.0000    0.0000    0.0000    0.0000
                0.1741   4.7918e-005  -1.4782e-005   3.5226e-005   1.2424e+004  -1.1633e+002   7.0453e+002    0.0000   -0.0000    0.0000    0.0000    0.0000
                0.3644   3.7283e-005  -1.1502e-005   4.7475e-005   9.6664e+003  -9.0515e+001   9.4950e+002    0.0000   -0.0000    0.0000    0.0000    0.0000
                0.5635   2.5986e-005  -8.0165e-006   5.6995e-005   6.7373e+003  -6.3088e+001   1.1399e+003    0.0000   -0.0000    0.0000    0.0000    0.0000
                0.7694   1.4108e-005  -4.3524e-006   6.3235e-005   3.6579e+003  -3.4253e+001   1.2647e+003    0.0000   -0.0000    0.0000    0.0000    0.0000
                0.9805   1.7056e-006  -5.2617e-007   6.5759e-005   4.4221e+002  -4.1415e+000   1.3152e+003    0.0000   -0.0000    0.0000    0.0000    0.0000
                1.1950  -1.1055e-005   3.4106e-006   6.4248e-005  -2.8664e+003   2.6841e+001   1.2850e+003    0.0000    0.0000    0.0000   -0.0000    0.0000
                1.3702  -2.1557e-005   6.6504e-006   5.9932e-005  -5.5892e+003   5.2337e+001   1.1986e+003    0.0000    0.0000    0.0000   -0.0000    0.0000

               lamina:  4     
              matName:  (spar-uni)
                     s           e11           e22           e12           s11           s22           s12   s11_fcT   s11_fcC   s22_fcT   s22_fcC   s12_fcS
                   (m)         (m/m)         (m/m)         (rad)          (Pa)          (Pa)          (Pa)       (-)       (-)       (-)       (-)       (-)
                0.0000   5.7521e-005  -1.7745e-005   2.1357e-005   2.4093e+006  -2.3564e+004   6.4070e+004    0.0025   -0.0000    0.0000    0.0000    0.0021
                0.1741   4.7917e-005  -1.4782e-005   3.5226e-005   2.0070e+006  -1.9630e+004   1.0568e+005    0.0021   -0.0000    0.0000    0.0000    0.0035
                0.3644   3.7283e-005  -1.1502e-005   4.7475e-005   1.5616e+006  -1.5273e+004   1.4243e+005    0.0016   -0.0000    0.0000    0.0000    0.0047
                0.5635   2.5985e-005  -8.0164e-006   5.6995e-005   1.0884e+006  -1.0645e+004   1.7098e+005    0.0011   -0.0000    0.0000    0.0000    0.0057
                0.7694   1.4108e-005  -4.3523e-006   6.3235e-005   5.9092e+005  -5.7796e+003   1.8970e+005    0.0006   -0.0000    0.0000    0.0000    0.0063
                0.9805   1.7054e-006  -5.2612e-007   6.5759e-005   7.1433e+004  -6.9862e+002   1.9728e+005    0.0001   -0.0000    0.0000    0.0000    0.0066
                1.1950  -1.2177e-005   3.7992e-006   6.4248e-005  -5.0988e+005   5.5990e+003   1.9274e+005    0.0000    0.0007    0.0000   -0.0000    0.0064
                1.3702  -2.2639e-005   7.0251e-006   5.9932e-005  -9.4809e+005   9.8630e+003   1.7980e+005    0.0000    0.0014    0.0000   -0.0000    0.0060

               lamina:  5     
              matName:  (blade-shell)
                     s           e11           e22           e12           s11           s22           s12   s11_fcT   s11_fcC   s22_fcT   s22_fcC   s12_fcS
                   (m)         (m/m)         (m/m)         (rad)          (Pa)          (Pa)          (Pa)       (-)       (-)       (-)       (-)       (-)
                0.0000   5.5796e-005  -1.7148e-005   2.1357e-005   1.5938e+006   7.8685e+004   1.4950e+005    0.0111   -0.0000    0.0000   -0.0000    0.0025
                0.1741   4.6234e-005  -1.4199e-005   3.5226e-005   1.3207e+006   6.5347e+004   2.4658e+005    0.0092   -0.0000    0.0000   -0.0000    0.0041
                0.3644   3.5687e-005  -1.0949e-005   4.7475e-005   1.0195e+006   5.0611e+004   3.3233e+005    0.0071   -0.0000    0.0000   -0.0000    0.0055
                0.5635   2.4498e-005  -7.5014e-006   5.6995e-005   6.9994e+005   3.4969e+004   3.9896e+005    0.0049   -0.0000    0.0000   -0.0000    0.0066
                0.7694   1.2757e-005  -3.8842e-006   6.3235e-005   3.6460e+005   1.8541e+004   4.4264e+005    0.0025   -0.0000    0.0000   -0.0000    0.0074
                0.9805   4.9047e-007  -1.0534e-007   6.5759e-005   1.4286e+004   1.3825e+003   4.6032e+005    0.0001   -0.0000    0.0000   -0.0000    0.0077
                1.1950  -1.2508e-005   3.9135e-006   6.4248e-005  -3.5684e+005  -1.6580e+004   4.4973e+005    0.0000    0.0017    0.0000    0.0000    0.0075
                1.3702  -2.2958e-005   7.1353e-006   5.9932e-005  -6.5528e+005  -3.1161e+004   4.1952e+005    0.0000    0.0031    0.0000    0.0000    0.0070

            panel:  3     
           lam_num    nPlies        tPly      fibAng     matID  matName
               (-)       (-)         (m)       (deg)       (-)  (-)
                 1         1    0.005000      0.0000         2  (blade-shell)
                 2         1    0.010000      0.0000         6  (TEP-core)
                 3         1    0.005000      0.0000         2  (blade-shell)

               lamina:  1     
              matName:  (blade-shell)
                     s           e11           e22           e12           s11           s22           s12   s11_fcT   s11_fcC   s22_fcT   s22_fcC   s12_fcS
                   (m)         (m/m)         (m/m)         (rad)          (Pa)          (Pa)          (Pa)       (-)       (-)       (-)       (-)       (-)
                0.0000  -2.1168e-005   8.4281e-006   1.4681e-004  -5.9296e+005  -5.9757e+002   1.0277e+006    0.0000    0.0028    0.0000    0.0000    0.0171
                0.0012  -2.1243e-005   8.4579e-006   1.4680e-004  -5.9505e+005  -5.9967e+002   1.0276e+006    0.0000    0.0028    0.0000    0.0000    0.0171

               lamina:  2     
              matName:  (TEP-core)
                     s           e11           e22           e12           s11           s22           s12   s11_fcT   s11_fcC   s22_fcT   s22_fcC   s12_fcS
                   (m)         (m/m)         (m/m)         (rad)          (Pa)          (Pa)          (Pa)       (-)       (-)       (-)       (-)       (-)
                0.0000  -2.1494e-005   8.5583e-006   1.4681e-004  -5.4076e+003   6.0287e+002   2.9363e+003    0.0000    0.0000    0.0000   -0.0000    0.0000
                0.0012  -2.1569e-005   8.5881e-006   1.4680e-004  -5.4264e+003   6.0497e+002   2.9360e+003    0.0000    0.0000    0.0000   -0.0000    0.0000

               lamina:  3     
              matName:  (blade-shell)
                     s           e11           e22           e12           s11           s22           s12   s11_fcT   s11_fcC   s22_fcT   s22_fcC   s12_fcS
                   (m)         (m/m)         (m/m)         (rad)          (Pa)          (Pa)          (Pa)       (-)       (-)       (-)       (-)       (-)
                0.0000  -2.1657e-005   8.6234e-006   1.4681e-004  -6.0664e+005  -5.9956e+002   1.0277e+006    0.0000    0.0028    0.0000    0.0000    0.0171
                0.0012  -2.1732e-005   8.6532e-006   1.4680e-004  -6.0873e+005  -6.0166e+002   1.0276e+006    0.0000    0.0029    0.0000    0.0000    0.0171

            panel:  4     
           lam_num    nPlies        tPly      fibAng     matID  matName
               (-)       (-)         (m)       (deg)       (-)  (-)
                 1         1    0.005000      0.0000         2  (blade-shell)
                 2         1    0.010000      0.0000         6  (TEP-core)
                 3         1    0.005000      0.0000         2  (blade-shell)

               lamina:  1     
              matName:  (blade-shell)
                     s           e11           e22           e12           s11           s22           s12   s11_fcT   s11_fcC   s22_fcT   s22_fcC   s12_fcS
                   (m)         (m/m)         (m/m)         (rad)          (Pa)          (Pa)          (Pa)       (-)       (-)       (-)       (-)       (-)
                0.0000  -2.1243e-005   8.4579e-006   1.1136e-004  -5.9505e+005  -5.9967e+002   7.7952e+005    0.0000    0.0028    0.0000    0.0000    0.0130
                0.0387  -2.3569e-005   9.3838e-006   1.1134e-004  -6.6019e+005  -6.6474e+002   7.7941e+005    0.0000    0.0031    0.0000    0.0000    0.0130
                0.2523  -3.6423e-005   1.4502e-005   1.1134e-004  -1.0203e+006  -1.0252e+003   7.7941e+005    0.0000    0.0048    0.0000    0.0000    0.0130
                0.4614  -4.9037e-005   1.9524e-005   1.1081e-004  -1.3736e+006  -1.3789e+003   7.7567e+005    0.0000    0.0064    0.0000    0.0000    0.0129
                0.6636  -6.1235e-005   2.4381e-005   1.0687e-004  -1.7153e+006  -1.7210e+003   7.4809e+005    0.0000    0.0081    0.0000    0.0000    0.0125
                0.8565  -7.2847e-005   2.9004e-005   1.0138e-004  -2.0405e+006  -2.0467e+003   7.0968e+005    0.0000    0.0096    0.0000    0.0000    0.0118
                1.0378  -8.3727e-005   3.3336e-005   9.4541e-005  -2.3453e+006  -2.3521e+003   6.6179e+005    0.0000    0.0110    0.0000    0.0000    0.0110
                1.2056  -9.3719e-005   3.7314e-005   8.6610e-005  -2.6252e+006  -2.6326e+003   6.0627e+005    0.0000    0.0123    0.0000    0.0000    0.0101
                1.3578  -1.0271e-004   4.0893e-005   7.7903e-005  -2.8769e+006  -2.8849e+003   5.4532e+005    0.0000    0.0135    0.0000    0.0000    0.0091
                1.4931  -1.1062e-004   4.4043e-005   6.8780e-005  -3.0986e+006  -3.1072e+003   4.8146e+005    0.0000    0.0145    0.0000    0.0000    0.0080
                1.6102  -1.1736e-004   4.6727e-005   5.9614e-005  -3.2874e+006  -3.2968e+003   4.1730e+005    0.0000    0.0154    0.0000    0.0000    0.0070
                1.7079  -1.2283e-004   4.8905e-005   5.0766e-005  -3.4406e+006  -3.4508e+003   3.5536e+005    0.0000    0.0162    0.0000    0.0000    0.0059
                1.7855  -1.2704e-004   5.0580e-005   4.2583e-005  -3.5584e+006  -3.5694e+003   2.9808e+005    0.0000    0.0167    0.0000    0.0000    0.0050
                1.8420  -1.2998e-004   5.1753e-005   3.5382e-005  -3.6409e+006  -3.6526e+003   2.4768e+005    0.0000    0.0171    0.0000    0.0000    0.0041
                1.8759  -1.3172e-004   5.2445e-005   2.9441e-005  -3.6896e+006  -3.7012e+003   2.0608e+005    0.0000    0.0173    0.0000    0.0000    0.0034
                1.8858  -1.3234e-004   5.2693e-005   2.4986e-005  -3.7071e+006  -3.7172e+003   1.7490e+005    0.0000    0.0174    0.0000    0.0000    0.0029

               lamina:  2     
              matName:  (TEP-core)
                     s           e11           e22           e12           s11           s22           s12   s11_fcT   s11_fcC   s22_fcT   s22_fcC   s12_fcS
                   (m)         (m/m)         (m/m)         (rad)          (Pa)          (Pa)          (Pa)       (-)       (-)       (-)       (-)       (-)
                0.0000  -2.1569e-005   8.5881e-006   1.1136e-004  -5.4264e+003   6.0497e+002   2.2272e+003    0.0000    0.0000    0.0000   -0.0000    0.0000
                0.0387  -2.3882e-005   9.5092e-006   1.1134e-004  -6.0084e+003   6.6985e+002   2.2269e+003    0.0000    0.0000    0.0000   -0.0000    0.0000
                0.2523  -3.6731e-005   1.4625e-005   1.1134e-004  -9.2410e+003   1.0302e+003   2.2269e+003    0.0000    0.0000    0.0000   -0.0000    0.0000
                0.4614  -4.9340e-005   1.9645e-005   1.1081e-004  -1.2413e+004   1.3838e+003   2.2162e+003    0.0000    0.0000    0.0000   -0.0000    0.0000
                0.6636  -6.1540e-005   2.4503e-005   1.0687e-004  -1.5483e+004   1.7260e+003   2.1374e+003    0.0000    0.0000    0.0000   -0.0000    0.0000
                0.8565  -7.3161e-005   2.9130e-005   1.0138e-004  -1.8406e+004   2.0519e+003   2.0276e+003    0.0000    0.0000    0.0000   -0.0000    0.0000
                1.0378  -8.4056e-005   3.3468e-005   9.4541e-005  -2.1147e+004   2.3574e+003   1.8908e+003    0.0000    0.0000    0.0000   -0.0000    0.0000
                1.2056  -9.4072e-005   3.7456e-005   8.6610e-005  -2.3667e+004   2.6383e+003   1.7322e+003    0.0000    0.0000    0.0000   -0.0000    0.0000
                1.3578  -1.0308e-004   4.1044e-005   7.7903e-005  -2.5935e+004   2.8911e+003   1.5581e+003    0.0000    0.0000    0.0000   -0.0000    0.0000
                1.4931  -1.1103e-004   4.4206e-005   6.8780e-005  -2.7933e+004   3.1138e+003   1.3756e+003    0.0000    0.0000    0.0000   -0.0000    0.0000
                1.6102  -1.1781e-004   4.6908e-005   5.9614e-005  -2.9640e+004   3.3041e+003   1.1923e+003    0.0000    0.0000    0.0000   -0.0000    0.0000
                1.7079  -1.2334e-004   4.9108e-005   5.0766e-005  -3.1030e+004   3.4591e+003   1.0153e+003    0.0000    0.0000    0.0000   -0.0000    0.0000
                1.7855  -1.2760e-004   5.0804e-005   4.2583e-005  -3.2102e+004   3.5786e+003   8.5165e+002    0.0000    0.0000    0.0000   -0.0000    0.0000
                1.8420  -1.3059e-004   5.1996e-005   3.5382e-005  -3.2855e+004   3.6625e+003   7.0764e+002    0.0000    0.0000    0.0000   -0.0000    0.0000
                1.8759  -1.3231e-004   5.2682e-005   2.9441e-005  -3.3288e+004   3.7109e+003   5.8881e+002    0.0000    0.0000    0.0000   -0.0000    0.0000
                1.8858  -1.3281e-004   5.2882e-005   2.4986e-005  -3.3414e+004   3.7249e+003   4.9973e+002    0.0000    0.0000    0.0000   -0.0000    0.0000

               lamina:  3     
              matName:  (blade-shell)
                     s           e11           e22           e12           s11           s22           s12   s11_fcT   s11_fcC   s22_fcT   s22_fcC   s12_fcS
                   (m)         (m/m)         (m/m)         (rad)          (Pa)          (Pa)          (Pa)       (-)       (-)       (-)       (-)       (-)
                0.0000  -2.1732e-005   8.6532e-006   1.1136e-004  -6.0873e+005  -6.0166e+002   7.7952e+005    0.0000    0.0029    0.0000    0.0000    0.0130
                0.0387  -2.4039e-005   9.5718e-006   1.1134e-004  -6.7336e+005  -6.6665e+002   7.7941e+005    0.0000    0.0032    0.0000    0.0000    0.0130
                0.2523  -3.6885e-005   1.4686e-005   1.1134e-004  -1.0332e+006  -1.0271e+003   7.7941e+005    0.0000    0.0049    0.0000    0.0000    0.0130
                0.4614  -4.9492e-005   1.9706e-005   1.1081e-004  -1.3863e+006  -1.3807e+003   7.7567e+005    0.0000    0.0065    0.0000    0.0000    0.0129
                0.6636  -6.1693e-005   2.4564e-005   1.0687e-004  -1.7281e+006  -1.7228e+003   7.4809e+005    0.0000    0.0081    0.0000    0.0000    0.0125
                0.8565  -7.3318e-005   2.9192e-005   1.0138e-004  -2.0537e+006  -2.0487e+003   7.0968e+005    0.0000    0.0096    0.0000    0.0000    0.0118
                1.0378  -8.4221e-005   3.3534e-005   9.4541e-005  -2.3591e+006  -2.3541e+003   6.6179e+005    0.0000    0.0111    0.0000    0.0000    0.0110
                1.2056  -9.4248e-005   3.7526e-005   8.6610e-005  -2.6400e+006  -2.6347e+003   6.0627e+005    0.0000    0.0124    0.0000    0.0000    0.0101
                1.3578  -1.0327e-004   4.1120e-005   7.7903e-005  -2.8928e+006  -2.8872e+003   5.4532e+005    0.0000    0.0136    0.0000    0.0000    0.0091
                1.4931  -1.1123e-004   4.4288e-005   6.8780e-005  -3.1157e+006  -3.1097e+003   4.8146e+005    0.0000    0.0146    0.0000    0.0000    0.0080
                1.6102  -1.1804e-004   4.6999e-005   5.9614e-005  -3.3064e+006  -3.2995e+003   4.1730e+005    0.0000    0.0155    0.0000    0.0000    0.0070
                1.7079  -1.2359e-004   4.9210e-005   5.0766e-005  -3.4619e+006  -3.4539e+003   3.5536e+005    0.0000    0.0163    0.0000    0.0000    0.0059
                1.7855  -1.2788e-004   5.0917e-005   4.2583e-005  -3.5820e+006  -3.5729e+003   2.9808e+005    0.0000    0.0168    0.0000    0.0000    0.0050
                1.8420  -1.3090e-004   5.2118e-005   3.5382e-005  -3.6665e+006  -3.6563e+003   2.4768e+005    0.0000    0.0172    0.0000    0.0000    0.0041
                1.8759  -1.3261e-004   5.2801e-005   2.9441e-005  -3.7146e+006  -3.7048e+003   2.0608e+005    0.0000    0.0174    0.0000    0.0000    0.0034
                1.8858  -1.3305e-004   5.2976e-005   2.4986e-005  -3.7269e+006  -3.7201e+003   1.7490e+005    0.0000    0.0175    0.0000    0.0000    0.0029

     Web:  panel  nNode   nLam     xc_St    xc_End         b         t         E_eff         G_eff      nu_eff     density  buckleCrit
            (-)    (-)    (-)       (-)       (-)       (m)       (m)          (Pa)          (Pa)         (-)    (kg/m^3)         (-)
              1     10      3    0.2074    0.2074    0.5586    0.0830   7.6445e+008   4.5301e+008      0.4420    257.1084      0.0000
              2     10      3    0.5429    0.5429    0.5764    0.0830   7.6445e+008   4.5301e+008      0.4420    257.1084      0.0000

            panel:  1     
           lam_num    nPlies        tPly      fibAng     matID  matName
               (-)       (-)         (m)       (deg)       (-)  (-)
                 1         1    0.001500      0.0000         7  (web-shell)
                 2         1    0.080000      0.0000         8  (web-core)
                 3         1    0.001500      0.0000         7  (web-shell)

               lamina:  1     
              matName:  (web-shell)
                     s           e11           e22           e12           s11           s22           s12   s11_fcT   s11_fcC   s22_fcT   s22_fcC   s12_fcS
                   (m)         (m/m)         (m/m)         (rad)          (Pa)          (Pa)          (Pa)       (-)       (-)       (-)       (-)       (-)
                0.0000   3.8758e-005  -1.7026e-005   1.3667e-005   5.6457e+005   4.3923e+004   1.6401e+005    0.0039   -0.0000    0.0000   -0.0000    0.0018
                0.0621   4.0430e-005  -1.7765e-005   1.2988e-005   5.8888e+005   4.5732e+004   1.5586e+005    0.0041   -0.0000    0.0000   -0.0000    0.0017
                0.1241   4.2102e-005  -1.8504e-005   1.2282e-005   6.1320e+005   4.7542e+004   1.4739e+005    0.0043   -0.0000    0.0000   -0.0000    0.0016
                0.1862   4.3774e-005  -1.9243e-005   1.1550e-005   6.3752e+005   4.9351e+004   1.3860e+005    0.0044   -0.0000    0.0000   -0.0000    0.0015
                0.2483   4.5447e-005  -1.9983e-005   1.0791e-005   6.6183e+005   5.1161e+004   1.2949e+005    0.0046   -0.0000    0.0000   -0.0000    0.0014
                0.3104   4.7119e-005  -2.0722e-005   1.0005e-005   6.8615e+005   5.2971e+004   1.2006e+005    0.0048   -0.0000    0.0000   -0.0000    0.0013
                0.3724   4.8791e-005  -2.1461e-005   9.1927e-006   7.1047e+005   5.4780e+004   1.1031e+005    0.0049   -0.0000    0.0000   -0.0000    0.0012
                0.4345   5.0464e-005  -2.2200e-005   8.3538e-006   7.3478e+005   5.6590e+004   1.0025e+005    0.0051   -0.0000    0.0000   -0.0000    0.0011
                0.4966   5.2136e-005  -2.2939e-005   7.4882e-006   7.5910e+005   5.8400e+004   8.9858e+004    0.0053   -0.0000    0.0000   -0.0000    0.0010
                0.5586   5.3808e-005  -2.3679e-005   6.5960e-006   7.8342e+005   6.0209e+004   7.9152e+004    0.0054   -0.0000    0.0000   -0.0000    0.0009

               lamina:  2     
              matName:  (web-core)
                     s           e11           e22           e12           s11           s22           s12   s11_fcT   s11_fcC   s22_fcT   s22_fcC   s12_fcS
                   (m)         (m/m)         (m/m)         (rad)          (Pa)          (Pa)          (Pa)       (-)       (-)       (-)       (-)       (-)
                0.0000   4.4861e-005  -1.9936e-005   1.3667e-005   1.1109e+004  -1.8508e+003   2.7334e+002    0.0000   -0.0000    0.0000    0.0000    0.0000
                0.0621   4.6533e-005  -2.0675e-005   1.2988e-005   1.1523e+004  -1.9187e+003   2.5976e+002    0.0000   -0.0000    0.0000    0.0000    0.0000
                0.1241   4.8206e-005  -2.1414e-005   1.2282e-005   1.1938e+004  -1.9865e+003   2.4564e+002    0.0000   -0.0000    0.0000    0.0000    0.0000
                0.1862   4.9878e-005  -2.2154e-005   1.1550e-005   1.2352e+004  -2.0544e+003   2.3099e+002    0.0000   -0.0000    0.0000    0.0000    0.0000
                0.2483   5.1550e-005  -2.2893e-005   1.0791e-005   1.2766e+004  -2.1222e+003   2.1581e+002    0.0000   -0.0000    0.0000    0.0000    0.0000
                0.3104   5.3223e-005  -2.3632e-005   1.0005e-005   1.3181e+004  -2.1901e+003   2.0010e+002    0.0000   -0.0000    0.0000    0.0000    0.0000
                0.3724   5.4895e-005  -2.4371e-005   9.1927e-006   1.3595e+004  -2.2580e+003   1.8385e+002    0.0000   -0.0000    0.0000    0.0000    0.0000
                0.4345   5.6567e-005  -2.5110e-005   8.3538e-006   1.4010e+004  -2.3258e+003   1.6708e+002    0.0000   -0.0000    0.0000    0.0000    0.0000
                0.4966   5.8239e-005  -2.5850e-005   7.4882e-006   1.4424e+004  -2.3937e+003   1.4976e+002    0.0000   -0.0000    0.0000    0.0000    0.0000
                0.5586   5.9912e-005  -2.6589e-005   6.5960e-006   1.4839e+004  -2.4615e+003   1.3192e+002    0.0000   -0.0000    0.0000    0.0000    0.0000

               lamina:  3     
              matName:  (web-shell)
                     s           e11           e22           e12           s11           s22           s12   s11_fcT   s11_fcC   s22_fcT   s22_fcC   s12_fcS
                   (m)         (m/m)         (m/m)         (rad)          (Pa)          (Pa)          (Pa)       (-)       (-)       (-)       (-)       (-)
                0.0000   4.4976e-005  -1.9991e-005   1.3667e-005   6.5296e+005   4.6613e+004   1.6401e+005    0.0045   -0.0000    0.0000   -0.0000    0.0018
                0.0621   4.6648e-005  -2.0730e-005   1.2988e-005   6.7728e+005   4.8422e+004   1.5586e+005    0.0047   -0.0000    0.0000   -0.0000    0.0017
                0.1241   4.8320e-005  -2.1469e-005   1.2282e-005   7.0160e+005   5.0232e+004   1.4739e+005    0.0049   -0.0000    0.0000   -0.0000    0.0016
                0.1862   4.9992e-005  -2.2208e-005   1.1550e-005   7.2591e+005   5.2042e+004   1.3860e+005    0.0050   -0.0000    0.0000   -0.0000    0.0015
                0.2483   5.1665e-005  -2.2947e-005   1.0791e-005   7.5023e+005   5.3851e+004   1.2949e+005    0.0052   -0.0000    0.0000   -0.0000    0.0014
                0.3104   5.3337e-005  -2.3687e-005   1.0005e-005   7.7455e+005   5.5661e+004   1.2006e+005    0.0054   -0.0000    0.0000   -0.0000    0.0013
                0.3724   5.5009e-005  -2.4426e-005   9.1927e-006   7.9886e+005   5.7470e+004   1.1031e+005    0.0055   -0.0000    0.0000   -0.0000    0.0012
                0.4345   5.6681e-005  -2.5165e-005   8.3538e-006   8.2318e+005   5.9280e+004   1.0025e+005    0.0057   -0.0000    0.0000   -0.0000    0.0011
                0.4966   5.8354e-005  -2.5904e-005   7.4882e-006   8.4750e+005   6.1090e+004   8.9858e+004    0.0059   -0.0000    0.0000   -0.0000    0.0010
                0.5586   6.0026e-005  -2.6643e-005   6.5960e-006   8.7181e+005   6.2899e+004   7.9152e+004    0.0061   -0.0000    0.0000   -0.0000    0.0009

            panel:  2     
           lam_num    nPlies        tPly      fibAng     matID  matName
               (-)       (-)         (m)       (deg)       (-)  (-)
                 1         1    0.001500      0.0000         7  (web-shell)
                 2         1    0.080000      0.0000         8  (web-core)
                 3         1    0.001500      0.0000         7  (web-shell)

               lamina:  1     
              matName:  (web-shell)
                     s           e11           e22           e12           s11           s22           s12   s11_fcT   s11_fcC   s22_fcT   s22_fcC   s12_fcS
                   (m)         (m/m)         (m/m)         (rad)          (Pa)          (Pa)          (Pa)       (-)       (-)       (-)       (-)       (-)
                0.0000  -4.0029e-005   1.7804e-005   6.1843e-005  -5.8103e+005  -4.1252e+004   7.4212e+005    0.0000    0.0027    0.0000    0.0000    0.0082
                0.0640  -3.8334e-005   1.7055e-005   6.2434e-005  -5.5638e+005  -3.9417e+004   7.4921e+005    0.0000    0.0026    0.0000    0.0000    0.0083
                0.1281  -3.6639e-005   1.6306e-005   6.2998e-005  -5.3173e+005  -3.7583e+004   7.5597e+005    0.0000    0.0025    0.0000    0.0000    0.0084
                0.1921  -3.4943e-005   1.5557e-005   6.3533e-005  -5.0708e+005  -3.5749e+004   7.6240e+005    0.0000    0.0024    0.0000    0.0000    0.0085
                0.2562  -3.3248e-005   1.4807e-005   6.4041e-005  -4.8244e+005  -3.3915e+004   7.6849e+005    0.0000    0.0023    0.0000    0.0000    0.0085
                0.3202  -3.1553e-005   1.4058e-005   6.4521e-005  -4.5779e+005  -3.2080e+004   7.7425e+005    0.0000    0.0021    0.0000    0.0000    0.0086
                0.3842  -2.9858e-005   1.3309e-005   6.4973e-005  -4.3314e+005  -3.0246e+004   7.7968e+005    0.0000    0.0020    0.0000    0.0000    0.0087
                0.4483  -2.8163e-005   1.2560e-005   6.5397e-005  -4.0849e+005  -2.8412e+004   7.8477e+005    0.0000    0.0019    0.0000    0.0000    0.0087
                0.5123  -2.6468e-005   1.1810e-005   6.5794e-005  -3.8384e+005  -2.6578e+004   7.8953e+005    0.0000    0.0018    0.0000    0.0000    0.0088
                0.5764  -2.4773e-005   1.1061e-005   6.6162e-005  -3.5920e+005  -2.4743e+004   7.9395e+005    0.0000    0.0017    0.0000    0.0000    0.0088

               lamina:  2     
              matName:  (web-core)
                     s           e11           e22           e12           s11           s22           s12   s11_fcT   s11_fcC   s22_fcT   s22_fcC   s12_fcS
                   (m)         (m/m)         (m/m)         (rad)          (Pa)          (Pa)          (Pa)       (-)       (-)       (-)       (-)       (-)
                0.0000  -3.9914e-005   1.7750e-005   6.1843e-005  -9.8825e+003   1.6501e+003   1.2369e+003    0.0000    0.0000    0.0000   -0.0000    0.0000
                0.0640  -3.8219e-005   1.7000e-005   6.2434e-005  -9.4625e+003   1.5814e+003   1.2487e+003    0.0000    0.0000    0.0000   -0.0000    0.0000
                0.1281  -3.6524e-005   1.6251e-005   6.2998e-005  -9.0424e+003   1.5126e+003   1.2600e+003    0.0000    0.0000    0.0000   -0.0000    0.0000
                0.1921  -3.4829e-005   1.5502e-005   6.3533e-005  -8.6223e+003   1.4438e+003   1.2707e+003    0.0000    0.0000    0.0000   -0.0000    0.0000
                0.2562  -3.3134e-005   1.4753e-005   6.4041e-005  -8.2022e+003   1.3750e+003   1.2808e+003    0.0000    0.0000    0.0000   -0.0000    0.0000
                0.3202  -3.1439e-005   1.4003e-005   6.4521e-005  -7.7821e+003   1.3062e+003   1.2904e+003    0.0000    0.0000    0.0000   -0.0000    0.0000
                0.3842  -2.9743e-005   1.3254e-005   6.4973e-005  -7.3621e+003   1.2374e+003   1.2995e+003    0.0000    0.0000    0.0000   -0.0000    0.0000
                0.4483  -2.8048e-005   1.2505e-005   6.5397e-005  -6.9420e+003   1.1687e+003   1.3079e+003    0.0000    0.0000    0.0000   -0.0000    0.0000
                0.5123  -2.6353e-005   1.1756e-005   6.5794e-005  -6.5219e+003   1.0999e+003   1.3159e+003    0.0000    0.0000    0.0000   -0.0000    0.0000
                0.5764  -2.4658e-005   1.1006e-005   6.6162e-005  -6.1018e+003   1.0311e+003   1.3232e+003    0.0000    0.0000    0.0000   -0.0000    0.0000

               lamina:  3     
              matName:  (web-shell)
                     s           e11           e22           e12           s11           s22           s12   s11_fcT   s11_fcC   s22_fcT   s22_fcC   s12_fcS
                   (m)         (m/m)         (m/m)         (rad)          (Pa)          (Pa)          (Pa)       (-)       (-)       (-)       (-)       (-)
                0.0000  -3.3786e-005   1.4828e-005   6.1843e-005  -4.9228e+005  -3.8551e+004   7.4212e+005    0.0000    0.0023    0.0000    0.0000    0.0082
                0.0640  -3.2091e-005   1.4079e-005   6.2434e-005  -4.6764e+005  -3.6717e+004   7.4921e+005    0.0000    0.0022    0.0000    0.0000    0.0083
                0.1281  -3.0396e-005   1.3329e-005   6.2998e-005  -4.4299e+005  -3.4882e+004   7.5597e+005    0.0000    0.0021    0.0000    0.0000    0.0084
                0.1921  -2.8701e-005   1.2580e-005   6.3533e-005  -4.1834e+005  -3.3048e+004   7.6240e+005    0.0000    0.0020    0.0000    0.0000    0.0085
                0.2562  -2.7006e-005   1.1831e-005   6.4041e-005  -3.9369e+005  -3.1214e+004   7.6849e+005    0.0000    0.0018    0.0000    0.0000    0.0085
                0.3202  -2.5311e-005   1.1082e-005   6.4521e-005  -3.6905e+005  -2.9380e+004   7.7425e+005    0.0000    0.0017    0.0000    0.0000    0.0086
                0.3842  -2.3616e-005   1.0332e-005   6.4973e-005  -3.4440e+005  -2.7545e+004   7.7968e+005    0.0000    0.0016    0.0000    0.0000    0.0087
                0.4483  -2.1921e-005   9.5831e-006   6.5397e-005  -3.1975e+005  -2.5711e+004   7.8477e+005    0.0000    0.0015    0.0000    0.0000    0.0087
                0.5123  -2.0226e-005   8.8339e-006   6.5794e-005  -2.9510e+005  -2.3877e+004   7.8953e+005    0.0000    0.0014    0.0000    0.0000    0.0088
                0.5764  -1.8531e-005   8.0846e-006   6.6162e-005  -2.7045e+005  -2.2043e+004   7.9395e+005    0.0000    0.0013    0.0000    0.0000    0.0088

================================================================================
sec        =  29     
zSec       =  87.1000  (m)
nPanelsTop =  4      
nPanelsBot =  4      
nWebs      =  2      

    Top:  panel  nNode   nLam     xc_St    xc_End         b         t         E_eff         G_eff      nu_eff     density  buckleCrit
            (-)    (-)    (-)       (-)       (-)       (m)       (m)          (Pa)          (Pa)         (-)    (kg/m^3)         (-)
              1     10      3    0.0000    0.1941    0.8461    0.0327   8.7567e+009   2.1575e+009      0.3959    705.2791      0.0000
              2     10      5    0.1941    0.5559    1.3646    0.0327   3.7756e+010   4.2247e+009      0.3182   1898.4599      0.0000
              3      2      3    0.5559    0.5561    0.0008    0.0200   1.4131e+010   3.5100e+009      0.3982   1025.0000      0.0000
              4     15      3    0.5561    1.0000    1.7193    0.0200   1.4131e+010   3.5100e+009      0.3982   1025.0000      0.0444

            panel:  1     
           lam_num    nPlies        tPly      fibAng     matID  matName
               (-)       (-)         (m)       (deg)       (-)  (-)
                 1         1    0.005000      0.0000         2  (blade-shell)
                 2         1    0.022655      0.0000         5  (LEP-core)
                 3         1    0.005000      0.0000         2  (blade-shell)

               lamina:  1     
              matName:  (blade-shell)
                     s           e11           e22           e12           s11           s22           s12   s11_fcT   s11_fcC   s22_fcT   s22_fcC   s12_fcS
                   (m)         (m/m)         (m/m)         (rad)          (Pa)          (Pa)          (Pa)       (-)       (-)       (-)       (-)       (-)
                0.0000   4.9299e-005  -1.9520e-005   5.3058e-006   1.3816e+006   3.0328e+003   3.7140e+004    0.0096   -0.0000    0.0000   -0.0000    0.0006
                0.0593   4.7755e-005  -1.8909e-005   2.8234e-006   1.3383e+006   2.9432e+003   1.9764e+004    0.0093   -0.0000    0.0000   -0.0000    0.0003
                0.1045   4.5963e-005  -1.8198e-005   9.8689e-007   1.2881e+006   2.8459e+003   6.9082e+003    0.0089   -0.0000    0.0000   -0.0000    0.0001
                0.1675   4.3622e-005  -1.7271e-005   1.4669e-006   1.2225e+006   2.7073e+003   1.0268e+004    0.0085   -0.0000    0.0000   -0.0000    0.0002
                0.2491   4.0692e-005  -1.6110e-005   4.4684e-006   1.1404e+006   2.5286e+003   3.1279e+004    0.0079   -0.0000    0.0000   -0.0000    0.0005
                0.3479   3.7202e-005  -1.4729e-005   7.8285e-006   1.0426e+006   2.3142e+003   5.4800e+004    0.0072   -0.0000    0.0000   -0.0000    0.0009
                0.4625   3.3225e-005  -1.3154e-005   1.1358e-005   9.3112e+005   2.0691e+003   7.9508e+004    0.0065   -0.0000    0.0000   -0.0000    0.0013
                0.5923   2.8798e-005  -1.1401e-005   1.4885e-005   8.0706e+005   1.7958e+003   1.0420e+005    0.0056   -0.0000    0.0000   -0.0000    0.0017
                0.7360   2.3983e-005  -9.4947e-006   1.8215e-005   6.7212e+005   1.4980e+003   1.2750e+005    0.0047   -0.0000    0.0000   -0.0000    0.0021
                0.8461   2.0370e-005  -8.0644e-006   2.0362e-005   5.7088e+005   1.2745e+003   1.4253e+005    0.0040   -0.0000    0.0000   -0.0000    0.0024

               lamina:  2     
              matName:  (LEP-core)
                     s           e11           e22           e12           s11           s22           s12   s11_fcT   s11_fcC   s22_fcT   s22_fcC   s12_fcS
                   (m)         (m/m)         (m/m)         (rad)          (Pa)          (Pa)          (Pa)       (-)       (-)       (-)       (-)       (-)
                0.0000   4.9119e-005  -1.9449e-005   5.3058e-006   1.2367e+004  -1.3465e+003   1.0612e+002    0.0000   -0.0000    0.0000    0.0000    0.0000
                0.0593   4.7616e-005  -1.8853e-005   2.8234e-006   1.1989e+004  -1.3052e+003   5.6467e+001    0.0000   -0.0000    0.0000    0.0000    0.0000
                0.1045   4.5913e-005  -1.8178e-005   9.8689e-007   1.1560e+004  -1.2584e+003   1.9738e+001    0.0000   -0.0000    0.0000    0.0000    0.0000
                0.1675   4.3615e-005  -1.7268e-005   1.4669e-006   1.0981e+004  -1.1953e+003   2.9338e+001    0.0000   -0.0000    0.0000    0.0000    0.0000
                0.2491   4.0779e-005  -1.6145e-005   4.4684e-006   1.0267e+004  -1.1176e+003   8.9369e+001    0.0000   -0.0000    0.0000    0.0000    0.0000
                0.3479   3.7386e-005  -1.4802e-005   7.8285e-006   9.4130e+003  -1.0247e+003   1.5657e+002    0.0000   -0.0000    0.0000    0.0000    0.0000
                0.4625   3.3487e-005  -1.3258e-005   1.1358e-005   8.4312e+003  -9.1784e+002   2.2717e+002    0.0000   -0.0000    0.0000    0.0000    0.0000
                0.5923   2.9121e-005  -1.1530e-005   1.4885e-005   7.3321e+003  -7.9824e+002   2.9770e+002    0.0000   -0.0000    0.0000    0.0000    0.0000
                0.7360   2.4358e-005  -9.6443e-006   1.8215e-005   6.1327e+003  -6.6771e+002   3.6430e+002    0.0000   -0.0000    0.0000    0.0000    0.0000
                0.8461   2.0777e-005  -8.2266e-006   2.0362e-005   5.2311e+003  -5.6958e+002   4.0724e+002    0.0000   -0.0000    0.0000    0.0000    0.0000

               lamina:  3     
              matName:  (blade-shell)
                     s           e11           e22           e12           s11           s22           s12   s11_fcT   s11_fcC   s22_fcT   s22_fcC   s12_fcS
                   (m)         (m/m)         (m/m)         (rad)          (Pa)          (Pa)          (Pa)       (-)       (-)       (-)       (-)       (-)
                0.0000   4.8306e-005  -1.9124e-005   5.3058e-006   1.3538e+006   3.0187e+003   3.7140e+004    0.0094   -0.0000    0.0000   -0.0000    0.0006
                0.0593   4.6982e-005  -1.8600e-005   2.8234e-006   1.3167e+006   2.9322e+003   1.9764e+004    0.0091   -0.0000    0.0000   -0.0000    0.0003
                0.1045   4.5685e-005  -1.8087e-005   9.8689e-007   1.2803e+006   2.8420e+003   6.9082e+003    0.0089   -0.0000    0.0000   -0.0000    0.0001
                0.1675   4.3584e-005  -1.7256e-005   1.4669e-006   1.2214e+006   2.7068e+003   1.0268e+004    0.0085   -0.0000    0.0000   -0.0000    0.0002
                0.2491   4.0799e-005  -1.6153e-005   4.4684e-006   1.1434e+006   2.5301e+003   3.1279e+004    0.0079   -0.0000    0.0000   -0.0000    0.0005
                0.3479   3.7427e-005  -1.4818e-005   7.8285e-006   1.0489e+006   2.3174e+003   5.4800e+004    0.0073   -0.0000    0.0000   -0.0000    0.0009
                0.4625   3.3544e-005  -1.3281e-005   1.1358e-005   9.4007e+005   2.0737e+003   7.9508e+004    0.0065   -0.0000    0.0000   -0.0000    0.0013
                0.5923   2.9193e-005  -1.1559e-005   1.4885e-005   8.1812e+005   1.8014e+003   1.0420e+005    0.0057   -0.0000    0.0000   -0.0000    0.0017
                0.7360   2.4440e-005  -9.6773e-006   1.8215e-005   6.8493e+005   1.5045e+003   1.2750e+005    0.0048   -0.0000    0.0000   -0.0000    0.0021
                0.8461   2.0866e-005  -8.2623e-006   2.0362e-005   5.8477e+005   1.2815e+003   1.4253e+005    0.0041   -0.0000    0.0000   -0.0000    0.0024

            panel:  2     
           lam_num    nPlies        tPly      fibAng     matID  matName
               (-)       (-)         (m)       (deg)       (-)  (-)
                 1         1    0.005000      0.0000         2  (blade-shell)
                 2         1    0.011328      0.0000         3  (spar-uni)
                 3         1    0.000002      0.0000         4  (spar-core)
                 4         1    0.011328      0.0000         3  (spar-uni)
                 5         1    0.005000      0.0000         2  (blade-shell)

               lamina:  1     
              matName:  (blade-shell)
                     s           e11           e22           e12           s11           s22           s12   s11_fcT   s11_fcC   s22_fcT   s22_fcC   s12_fcS
                   (m)         (m/m)         (m/m)         (rad)          (Pa)          (Pa)          (Pa)       (-)       (-)       (-)       (-)       (-)
                0.0000   2.0072e-005  -6.3654e-006   1.3771e-005   5.7213e+005   2.5311e+004   9.6396e+004    0.0040   -0.0000    0.0000   -0.0000    0.0016
                0.0456   1.8533e-005  -5.8739e-006   1.5508e-005   5.2831e+005   2.3427e+004   1.0856e+005    0.0037   -0.0000    0.0000   -0.0000    0.0018
                0.2128   1.3136e-005  -4.1545e-006   2.0773e-005   3.7450e+005   1.6736e+004   1.4541e+005    0.0026   -0.0000    0.0000   -0.0000    0.0024
                0.3890   7.5467e-006  -2.3735e-006   2.4482e-005   2.1524e+005   9.8184e+003   1.7138e+005    0.0015   -0.0000    0.0000   -0.0000    0.0029
                0.5726   1.8733e-006  -5.6537e-007   2.6384e-005   5.3572e+004   2.7992e+003   1.8469e+005    0.0004   -0.0000    0.0000   -0.0000    0.0031
                0.7620  -4.1352e-006   1.3644e-006   2.6308e-005  -1.1755e+005  -4.4085e+003   1.8416e+005    0.0000    0.0006    0.0000    0.0000    0.0031
                0.9560  -9.7201e-006   3.1455e-006   2.4166e-005  -2.7668e+005  -1.1299e+004   1.6916e+005    0.0000    0.0013    0.0000    0.0000    0.0028
                1.1530  -1.5148e-005   4.8757e-006   1.9938e-005  -4.3134e+005  -1.8008e+004   1.3957e+005    0.0000    0.0020    0.0000    0.0000    0.0023
                1.3513  -2.0400e-005   6.5483e-006   1.3669e-005  -5.8100e+005  -2.4523e+004   9.5684e+004    0.0000    0.0027    0.0000    0.0000    0.0016
                1.3646  -2.0787e-005   6.6735e-006   1.3177e-005  -5.9202e+005  -2.4974e+004   9.2241e+004    0.0000    0.0028    0.0000    0.0000    0.0015

               lamina:  2     
              matName:  (spar-uni)
                     s           e11           e22           e12           s11           s22           s12   s11_fcT   s11_fcC   s22_fcT   s22_fcC   s12_fcS
                   (m)         (m/m)         (m/m)         (rad)          (Pa)          (Pa)          (Pa)       (-)       (-)       (-)       (-)       (-)
                0.0000   2.0573e-005  -6.5468e-006   1.3771e-005   8.6092e+005  -1.1302e+004   4.1313e+004    0.0009   -0.0000    0.0000    0.0000    0.0014
                0.0456   1.9082e-005  -6.0721e-006   1.5508e-005   7.9850e+005  -1.0483e+004   4.6525e+004    0.0008   -0.0000    0.0000    0.0000    0.0016
                0.2128   1.3725e-005  -4.3676e-006   2.0773e-005   5.7435e+005  -7.5399e+003   6.2319e+004    0.0006   -0.0000    0.0000    0.0000    0.0021
                0.3890   8.1944e-006  -2.6076e-006   2.4482e-005   3.4290e+005  -4.5016e+003   7.3447e+004    0.0004   -0.0000    0.0000    0.0000    0.0024
                0.5726   2.5845e-006  -8.2243e-007   2.6384e-005   1.0815e+005  -1.4198e+003   7.9153e+004    0.0001   -0.0000    0.0000    0.0000    0.0026
                0.7620  -3.7915e-006   1.2402e-006   2.6308e-005  -1.5853e+005   2.5667e+003   7.8925e+004    0.0000    0.0002    0.0000   -0.0000    0.0026
                0.9560  -9.3485e-006   3.0112e-006   2.4166e-005  -3.9105e+005   5.6587e+003   7.2499e+004    0.0000    0.0006    0.0000   -0.0000    0.0024
                1.1530  -1.4755e-005   4.7336e-006   1.9938e-005  -6.1727e+005   8.6588e+003   5.9814e+004    0.0000    0.0009    0.0000   -0.0000    0.0020
                1.3513  -1.9997e-005   6.4027e-006   1.3669e-005  -8.3663e+005   1.1552e+004   4.1007e+004    0.0000    0.0012    0.0000   -0.0000    0.0014
                1.3646  -2.0369e-005   6.5226e-006   1.3177e-005  -8.5220e+005   1.1778e+004   3.9532e+004    0.0000    0.0012    0.0000   -0.0000    0.0013

               lamina:  3     
              matName:  (spar-core)
                     s           e11           e22           e12           s11           s22           s12   s11_fcT   s11_fcC   s22_fcT   s22_fcC   s12_fcS
                   (m)         (m/m)         (m/m)         (rad)          (Pa)          (Pa)          (Pa)       (-)       (-)       (-)       (-)       (-)
                0.0000   2.0574e-005  -6.5468e-006   1.3771e-005   5.3170e+003  -1.0707e+002   2.7542e+002    0.0000   -0.0000    0.0000    0.0000    0.0000
                0.0456   1.9082e-005  -6.0721e-006   1.5508e-005   4.9315e+003  -9.9302e+001   3.1017e+002    0.0000   -0.0000    0.0000    0.0000    0.0000
                0.2128   1.3725e-005  -4.3676e-006   2.0773e-005   3.5472e+003  -7.1427e+001   4.1546e+002    0.0000   -0.0000    0.0000    0.0000    0.0000
                0.3890   8.1945e-006  -2.6076e-006   2.4482e-005   2.1178e+003  -4.2645e+001   4.8965e+002    0.0000   -0.0000    0.0000    0.0000    0.0000
                0.5726   2.5846e-006  -8.2247e-007   2.6384e-005   6.6797e+002  -1.3451e+001   5.2769e+002    0.0000   -0.0000    0.0000    0.0000    0.0000
                0.7620  -3.0129e-006   9.5874e-007   2.6308e-005  -7.7865e+002   1.5680e+001   5.2617e+002    0.0000    0.0000    0.0000   -0.0000    0.0000
                0.9560  -8.5066e-006   2.7069e-006   2.4166e-005  -2.1984e+003   4.4269e+001   4.8333e+002    0.0000    0.0000    0.0000   -0.0000    0.0000
                1.1530  -1.3864e-005   4.4118e-006   1.9938e-005  -3.5830e+003   7.2150e+001   3.9876e+002    0.0000    0.0000    0.0000   -0.0000    0.0000
                1.3513  -1.9084e-005   6.0728e-006   1.3669e-005  -4.9320e+003   9.9314e+001   2.7338e+002    0.0000    0.0000    0.0000   -0.0000    0.0000
                1.3646  -1.9423e-005   6.1807e-006   1.3177e-005  -5.0197e+003   1.0108e+002   2.6355e+002    0.0000    0.0000    0.0000   -0.0000    0.0000

               lamina:  4     
              matName:  (spar-uni)
                     s           e11           e22           e12           s11           s22           s12   s11_fcT   s11_fcC   s22_fcT   s22_fcC   s12_fcS
                   (m)         (m/m)         (m/m)         (rad)          (Pa)          (Pa)          (Pa)       (-)       (-)       (-)       (-)       (-)
                0.0000   2.1075e-005  -6.7281e-006   1.3771e-005   8.8183e+005  -1.1889e+004   4.1313e+004    0.0009   -0.0000    0.0000    0.0000    0.0014
                0.0456   1.9630e-005  -6.2703e-006   1.5508e-005   8.2135e+005  -1.1125e+004   4.6525e+004    0.0008   -0.0000    0.0000    0.0000    0.0016
                0.2128   1.4315e-005  -4.5806e-006   2.0773e-005   5.9891e+005  -8.2300e+003   6.2319e+004    0.0006   -0.0000    0.0000    0.0000    0.0021
                0.3890   8.8422e-006  -2.8417e-006   2.4482e-005   3.6990e+005  -5.2599e+003   7.3447e+004    0.0004   -0.0000    0.0000    0.0000    0.0024
                0.5726   3.2959e-006  -1.0795e-006   2.6384e-005   1.3780e+005  -2.2525e+003   7.9153e+004    0.0001   -0.0000    0.0000    0.0000    0.0026
                0.7620  -3.0127e-006   9.5869e-007   2.6308e-005  -1.2607e+005   1.6550e+003   7.8925e+004    0.0000    0.0002    0.0000   -0.0000    0.0026
                0.9560  -8.5064e-006   2.7069e-006   2.4166e-005  -3.5596e+005   4.6730e+003   7.2499e+004    0.0000    0.0005    0.0000   -0.0000    0.0024
                1.1530  -1.3864e-005   4.4117e-006   1.9938e-005  -5.8016e+005   7.6162e+003   5.9814e+004    0.0000    0.0008    0.0000   -0.0000    0.0020
                1.3513  -1.9084e-005   6.0727e-006   1.3669e-005  -7.9859e+005   1.0484e+004   4.1007e+004    0.0000    0.0011    0.0000   -0.0000    0.0014
                1.3646  -1.9423e-005   6.1807e-006   1.3177e-005  -8.1278e+005   1.0670e+004   3.9532e+004    0.0000    0.0012    0.0000   -0.0000    0.0013

               lamina:  5     
              matName:  (blade-shell)
                     s           e11           e22           e12           s11           s22           s12   s11_fcT   s11_fcC   s22_fcT   s22_fcC   s12_fcS
                   (m)         (m/m)         (m/m)         (rad)          (Pa)          (Pa)          (Pa)       (-)       (-)       (-)       (-)       (-)
                0.0000   2.1297e-005  -6.8082e-006   1.3771e-005   6.0672e+005   2.6030e+004   9.6396e+004    0.0042   -0.0000    0.0000   -0.0000    0.0016
                0.0456   1.9872e-005  -6.3578e-006   1.5508e-005   5.6611e+005   2.4213e+004   1.0856e+005    0.0039   -0.0000    0.0000   -0.0000    0.0018
                0.2128   1.4575e-005  -4.6746e-006   2.0773e-005   4.1513e+005   1.7581e+004   1.4541e+005    0.0029   -0.0000    0.0000   -0.0000    0.0024
                0.3890   9.1281e-006  -2.9450e-006   2.4482e-005   2.5988e+005   1.0747e+004   1.7138e+005    0.0018   -0.0000    0.0000   -0.0000    0.0029
                0.5726   3.6098e-006  -1.1930e-006   2.6384e-005   1.0260e+005   3.8184e+003   1.8469e+005    0.0007   -0.0000    0.0000   -0.0000    0.0031
                0.7620  -2.2341e-006   6.7726e-007   2.6308e-005  -6.3871e+004  -3.2926e+003   1.8416e+005    0.0000    0.0003    0.0000    0.0000    0.0031
                0.9560  -7.6645e-006   2.4026e-006   2.4166e-005  -2.1864e+005  -1.0093e+004   1.6916e+005    0.0000    0.0010    0.0000    0.0000    0.0028
                1.1530  -1.2974e-005   4.0899e-006   1.9938e-005  -3.6995e+005  -1.6732e+004   1.3957e+005    0.0000    0.0017    0.0000    0.0000    0.0023
                1.3513  -1.8171e-005   5.7429e-006   1.3669e-005  -5.1808e+005  -2.3216e+004   9.5684e+004    0.0000    0.0024    0.0000    0.0000    0.0016
                1.3646  -1.8477e-005   5.8388e-006   1.3177e-005  -5.2680e+005  -2.3618e+004   9.2241e+004    0.0000    0.0025    0.0000    0.0000    0.0015

            panel:  3     
           lam_num    nPlies        tPly      fibAng     matID  matName
               (-)       (-)         (m)       (deg)       (-)  (-)
                 1         1    0.005000      0.0000         2  (blade-shell)
                 2         1    0.010000      0.0000         6  (TEP-core)
                 3         1    0.005000      0.0000         2  (blade-shell)

               lamina:  1     
              matName:  (blade-shell)
                     s           e11           e22           e12           s11           s22           s12   s11_fcT   s11_fcC   s22_fcT   s22_fcC   s12_fcS
                   (m)         (m/m)         (m/m)         (rad)          (Pa)          (Pa)          (Pa)       (-)       (-)       (-)       (-)       (-)
                0.0000  -1.9993e-005   7.9609e-006   2.5898e-005  -5.6001e+005  -5.5070e+002   1.8128e+005    0.0000    0.0026    0.0000    0.0000    0.0030
                0.0008  -2.0012e-005   7.9686e-006   2.5885e-005  -5.6056e+005  -5.5124e+002   1.8119e+005    0.0000    0.0026    0.0000    0.0000    0.0030

               lamina:  2     
              matName:  (TEP-core)
                     s           e11           e22           e12           s11           s22           s12   s11_fcT   s11_fcC   s22_fcT   s22_fcC   s12_fcS
                   (m)         (m/m)         (m/m)         (rad)          (Pa)          (Pa)          (Pa)       (-)       (-)       (-)       (-)       (-)
                0.0000  -1.9784e-005   7.8775e-006   2.5898e-005  -4.9774e+003   5.5494e+002   5.1795e+002    0.0000    0.0000    0.0000   -0.0000    0.0000
                0.0008  -1.9804e-005   7.8853e-006   2.5885e-005  -4.9823e+003   5.5549e+002   5.1770e+002    0.0000    0.0000    0.0000   -0.0000    0.0000

               lamina:  3     
              matName:  (blade-shell)
                     s           e11           e22           e12           s11           s22           s12   s11_fcT   s11_fcC   s22_fcT   s22_fcC   s12_fcS
                   (m)         (m/m)         (m/m)         (rad)          (Pa)          (Pa)          (Pa)       (-)       (-)       (-)       (-)       (-)
                0.0000  -1.9367e-005   7.7109e-006   2.5898e-005  -5.4250e+005  -5.4815e+002   1.8128e+005    0.0000    0.0025    0.0000    0.0000    0.0030
                0.0008  -1.9387e-005   7.7187e-006   2.5885e-005  -5.4305e+005  -5.4870e+002   1.8119e+005    0.0000    0.0025    0.0000    0.0000    0.0030

            panel:  4     
           lam_num    nPlies        tPly      fibAng     matID  matName
               (-)       (-)         (m)       (deg)       (-)  (-)
                 1         1    0.005000      0.0000         2  (blade-shell)
                 2         1    0.010000      0.0000         6  (TEP-core)
                 3         1    0.005000      0.0000         2  (blade-shell)

               lamina:  1     
              matName:  (blade-shell)
                     s           e11           e22           e12           s11           s22           s12   s11_fcT   s11_fcC   s22_fcT   s22_fcC   s12_fcS
                   (m)         (m/m)         (m/m)         (rad)          (Pa)          (Pa)          (Pa)       (-)       (-)       (-)       (-)       (-)
                0.0000  -2.0012e-005   7.9686e-006   4.6936e-005  -5.6056e+005  -5.5124e+002   3.2855e+005    0.0000    0.0026    0.0000    0.0000    0.0055
                0.1828  -2.4678e-005   9.8265e-006   4.6923e-005  -6.9126e+005  -6.8195e+002   3.2846e+005    0.0000    0.0032    0.0000    0.0000    0.0055
                0.3767  -2.9500e-005   1.1746e-005   4.6923e-005  -8.2633e+005  -8.1694e+002   3.2846e+005    0.0000    0.0039    0.0000    0.0000    0.0055
                0.5650  -3.4085e-005   1.3572e-005   4.3458e-005  -9.5477e+005  -9.4533e+002   3.0421e+005    0.0000    0.0045    0.0000    0.0000    0.0051
                0.7455  -3.8390e-005   1.5286e-005   3.8987e-005  -1.0753e+006  -1.0659e+003   2.7291e+005    0.0000    0.0050    0.0000    0.0000    0.0045
                0.9159  -4.2405e-005   1.6885e-005   3.3883e-005  -1.1878e+006  -1.1784e+003   2.3718e+005    0.0000    0.0056    0.0000    0.0000    0.0040
                1.0742  -4.6101e-005   1.8356e-005   2.8295e-005  -1.2913e+006  -1.2820e+003   1.9807e+005    0.0000    0.0061    0.0000    0.0000    0.0033
                1.2184  -4.9453e-005   1.9691e-005   2.2408e-005  -1.3852e+006  -1.3760e+003   1.5686e+005    0.0000    0.0065    0.0000    0.0000    0.0026
                1.3467  -5.2437e-005   2.0879e-005   1.6414e-005  -1.4688e+006  -1.4597e+003   1.1490e+005    0.0000    0.0069    0.0000    0.0000    0.0019
                1.4577  -5.5024e-005   2.1909e-005   1.0515e-005  -1.5413e+006  -1.5322e+003   7.3603e+004    0.0000    0.0072    0.0000    0.0000    0.0012
                1.5503  -5.7167e-005   2.2762e-005   4.9121e-006  -1.6013e+006  -1.5922e+003   3.4385e+004    0.0000    0.0075    0.0000    0.0000    0.0006
                1.6237  -5.8839e-005   2.3428e-005   2.0015e-007  -1.6481e+006  -1.6391e+003   1.4011e+003    0.0000    0.0077    0.0000    0.0000    0.0000
                1.6767  -6.0057e-005   2.3913e-005   4.6561e-006  -1.6823e+006  -1.6734e+003   3.2593e+004    0.0000    0.0079    0.0000    0.0000    0.0005
                1.7086  -6.0808e-005   2.4212e-005   8.3101e-006  -1.7033e+006  -1.6947e+003   5.8171e+004    0.0000    0.0080    0.0000    0.0000    0.0010
                1.7193  -6.1061e-005   2.4312e-005   1.1014e-005  -1.7104e+006  -1.7018e+003   7.7101e+004    0.0000    0.0080    0.0000    0.0000    0.0013

               lamina:  2     
              matName:  (TEP-core)
                     s           e11           e22           e12           s11           s22           s12   s11_fcT   s11_fcC   s22_fcT   s22_fcC   s12_fcS
                   (m)         (m/m)         (m/m)         (rad)          (Pa)          (Pa)          (Pa)       (-)       (-)       (-)       (-)       (-)
                0.0000  -1.9804e-005   7.8853e-006   4.6936e-005  -4.9823e+003   5.5549e+002   9.3871e+002    0.0000    0.0000    0.0000   -0.0000    0.0000
                0.1828  -2.4467e-005   9.7419e-006   4.6923e-005  -6.1554e+003   6.8626e+002   9.3846e+002    0.0000    0.0000    0.0000   -0.0000    0.0000
                0.3767  -2.9284e-005   1.1660e-005   4.6923e-005  -7.3673e+003   8.2135e+002   9.3846e+002    0.0000    0.0000    0.0000   -0.0000    0.0000
                0.5650  -3.3865e-005   1.3484e-005   4.3458e-005  -8.5199e+003   9.4983e+002   8.6916e+002    0.0000    0.0000    0.0000   -0.0000    0.0000
                0.7455  -3.8166e-005   1.5196e-005   3.8987e-005  -9.6020e+003   1.0705e+003   7.7975e+002    0.0000    0.0000    0.0000   -0.0000    0.0000
                0.9159  -4.2179e-005   1.6794e-005   3.3883e-005  -1.0612e+004   1.1830e+003   6.7766e+002    0.0000    0.0000    0.0000   -0.0000    0.0000
                1.0742  -4.5874e-005   1.8265e-005   2.8295e-005  -1.1541e+004   1.2866e+003   5.6591e+002    0.0000    0.0000    0.0000   -0.0000    0.0000
                1.2184  -4.9226e-005   1.9600e-005   2.2408e-005  -1.2385e+004   1.3806e+003   4.4817e+002    0.0000    0.0000    0.0000   -0.0000    0.0000
                1.3467  -5.2210e-005   2.0788e-005   1.6414e-005  -1.3135e+004   1.4643e+003   3.2828e+002    0.0000    0.0000    0.0000   -0.0000    0.0000
                1.4577  -5.4796e-005   2.1818e-005   1.0515e-005  -1.3786e+004   1.5369e+003   2.1029e+002    0.0000    0.0000    0.0000   -0.0000    0.0000
                1.5503  -5.6937e-005   2.2670e-005   4.9121e-006  -1.4325e+004   1.5969e+003   9.8242e+001    0.0000    0.0000    0.0000   -0.0000    0.0000
                1.6237  -5.8609e-005   2.3336e-005   2.0015e-007  -1.4745e+004   1.6438e+003   4.0030e+000    0.0000    0.0000    0.0000   -0.0000    0.0000
                1.6767  -5.9831e-005   2.3822e-005   4.6561e-006  -1.5053e+004   1.6781e+003   9.3122e+001    0.0000    0.0000    0.0000   -0.0000    0.0000
                1.7086  -6.0585e-005   2.4123e-005   8.3101e-006  -1.5242e+004   1.6992e+003   1.6620e+002    0.0000    0.0000    0.0000   -0.0000    0.0000
                1.7193  -6.0839e-005   2.4224e-005   1.1014e-005  -1.5306e+004   1.7063e+003   2.2029e+002    0.0000    0.0000    0.0000   -0.0000    0.0000

               lamina:  3     
              matName:  (blade-shell)
                     s           e11           e22           e12           s11           s22           s12   s11_fcT   s11_fcC   s22_fcT   s22_fcC   s12_fcS
                   (m)         (m/m)         (m/m)         (rad)          (Pa)          (Pa)          (Pa)       (-)       (-)       (-)       (-)       (-)
                0.0000  -1.9387e-005   7.7187e-006   4.6936e-005  -5.4305e+005  -5.4870e+002   3.2855e+005    0.0000    0.0025    0.0000    0.0000    0.0055
                0.1828  -2.4043e-005   9.5727e-006   4.6923e-005  -6.7349e+005  -6.7937e+002   3.2846e+005    0.0000    0.0032    0.0000    0.0000    0.0055
                0.3767  -2.8850e-005   1.1487e-005   4.6923e-005  -8.0814e+005  -8.1430e+002   3.2846e+005    0.0000    0.0038    0.0000    0.0000    0.0055
                0.5650  -3.3423e-005   1.3307e-005   4.3458e-005  -9.3622e+005  -9.4264e+002   3.0421e+005    0.0000    0.0044    0.0000    0.0000    0.0051
                0.7455  -3.7718e-005   1.5017e-005   3.8987e-005  -1.0565e+006  -1.0632e+003   2.7291e+005    0.0000    0.0050    0.0000    0.0000    0.0045
                0.9159  -4.1728e-005   1.6614e-005   3.3883e-005  -1.1689e+006  -1.1757e+003   2.3718e+005    0.0000    0.0055    0.0000    0.0000    0.0040
                1.0742  -4.5420e-005   1.8084e-005   2.8295e-005  -1.2723e+006  -1.2792e+003   1.9807e+005    0.0000    0.0060    0.0000    0.0000    0.0033
                1.2184  -4.8772e-005   1.9418e-005   2.2408e-005  -1.3662e+006  -1.3732e+003   1.5686e+005    0.0000    0.0064    0.0000    0.0000    0.0026
                1.3467  -5.1756e-005   2.0607e-005   1.6414e-005  -1.4498e+006  -1.4569e+003   1.1490e+005    0.0000    0.0068    0.0000    0.0000    0.0019
                1.4577  -5.4341e-005   2.1636e-005   1.0515e-005  -1.5222e+006  -1.5295e+003   7.3603e+004    0.0000    0.0071    0.0000    0.0000    0.0012
                1.5503  -5.6478e-005   2.2487e-005   4.9121e-006  -1.5820e+006  -1.5894e+003   3.4385e+004    0.0000    0.0074    0.0000    0.0000    0.0006
                1.6237  -5.8149e-005   2.3152e-005   2.0015e-007  -1.6288e+006  -1.6363e+003   1.4011e+003    0.0000    0.0076    0.0000    0.0000    0.0000
                1.6767  -5.9378e-005   2.3641e-005   4.6561e-006  -1.6633e+006  -1.6707e+003   3.2593e+004    0.0000    0.0078    0.0000    0.0000    0.0005
                1.7086  -6.0139e-005   2.3944e-005   8.3101e-006  -1.6846e+006  -1.6919e+003   5.8171e+004    0.0000    0.0079    0.0000    0.0000    0.0010
                1.7193  -6.0395e-005   2.4046e-005   1.1014e-005  -1.6917e+006  -1.6991e+003   7.7101e+004    0.0000    0.0079    0.0000    0.0000    0.0013

  Bottom:  panel  nNode   nLam     xc_St    xc_End         b         t         E_eff         G_eff      nu_eff     density  buckleCrit
            (-)    (-)    (-)       (-)       (-)       (m)       (m)          (Pa)          (Pa)         (-)    (kg/m^3)         (-)
              1     10      3    0.0000    0.1941    0.7612    0.0327   8.7567e+009   2.1575e+009      0.3959    705.2791      0.0000
              2     10      5    0.1941    0.5559    1.3628    0.0327   3.7756e+010   4.2247e+009      0.3182   1898.4599      0.0000
              3      2      3    0.5559    0.5561    0.0008    0.0200   1.4131e+010   3.5100e+009      0.3982   1025.0000      0.0000
              4     15      3    0.5561    1.0000    1.6864    0.0200   1.4131e+010   3.5100e+009      0.3982   1025.0000      0.0180

            panel:  1     
           lam_num    nPlies        tPly      fibAng     matID  matName
               (-)       (-)         (m)       (deg)       (-)  (-)
                 1         1    0.005000      0.0000         2  (blade-shell)
                 2         1    0.022655      0.0000         5  (LEP-core)
                 3         1    0.005000      0.0000         2  (blade-shell)

               lamina:  1     
              matName:  (blade-shell)
                     s           e11           e22           e12           s11           s22           s12   s11_fcT   s11_fcC   s22_fcT   s22_fcC   s12_fcS
                   (m)         (m/m)         (m/m)         (rad)          (Pa)          (Pa)          (Pa)       (-)       (-)       (-)       (-)       (-)
                0.0000   4.9359e-005  -1.9545e-005   5.3058e-006   1.3833e+006   3.0265e+003   3.7140e+004    0.0096   -0.0000    0.0000   -0.0000    0.0006
                0.0205   4.9479e-005  -1.9592e-005   6.1745e-006   1.3866e+006   3.0337e+003   4.3222e+004    0.0096   -0.0000    0.0000   -0.0000    0.0007
                0.0603   4.9184e-005  -1.9475e-005   7.8578e-006   1.3784e+006   3.0176e+003   5.5004e+004    0.0096   -0.0000    0.0000   -0.0000    0.0009
                0.1150   4.8224e-005  -1.9095e-005   1.0150e-005   1.3515e+006   2.9618e+003   7.1048e+004    0.0094   -0.0000    0.0000   -0.0000    0.0012
                0.1880   4.6630e-005  -1.8464e-005   1.3127e-005   1.3068e+006   2.8654e+003   9.1886e+004    0.0091   -0.0000    0.0000   -0.0000    0.0015
                0.2795   4.4471e-005  -1.7609e-005   1.6713e-005   1.2463e+006   2.7332e+003   1.1699e+005    0.0087   -0.0000    0.0000   -0.0000    0.0019
                0.3881   4.1746e-005  -1.6530e-005   2.0742e-005   1.1699e+006   2.5654e+003   1.4520e+005    0.0081   -0.0000    0.0000   -0.0000    0.0024
                0.5131   3.8493e-005  -1.5242e-005   2.5053e-005   1.0788e+006   2.3645e+003   1.7537e+005    0.0075   -0.0000    0.0000   -0.0000    0.0029
                0.6530   3.4750e-005  -1.3760e-005   2.9459e-005   9.7385e+005   2.1329e+003   2.0621e+005    0.0068   -0.0000    0.0000   -0.0000    0.0034
                0.7612   3.1788e-005  -1.2587e-005   3.2550e-005   8.9086e+005   1.9495e+003   2.2785e+005    0.0062   -0.0000    0.0000   -0.0000    0.0038

               lamina:  2     
              matName:  (LEP-core)
                     s           e11           e22           e12           s11           s22           s12   s11_fcT   s11_fcC   s22_fcT   s22_fcC   s12_fcS
                   (m)         (m/m)         (m/m)         (rad)          (Pa)          (Pa)          (Pa)       (-)       (-)       (-)       (-)       (-)
                0.0000   4.9115e-005  -1.9447e-005   5.3058e-006   1.2366e+004  -1.3465e+003   1.0612e+002    0.0000   -0.0000    0.0000    0.0000    0.0000
                0.0205   4.9233e-005  -1.9494e-005   6.1745e-006   1.2396e+004  -1.3498e+003   1.2349e+002    0.0000   -0.0000    0.0000    0.0000    0.0000
                0.0603   4.8953e-005  -1.9383e-005   7.8578e-006   1.2325e+004  -1.3421e+003   1.5716e+002    0.0000   -0.0000    0.0000    0.0000    0.0000
                0.1150   4.8017e-005  -1.9012e-005   1.0150e-005   1.2090e+004  -1.3164e+003   2.0299e+002    0.0000   -0.0000    0.0000    0.0000    0.0000
                0.1880   4.6439e-005  -1.8388e-005   1.3127e-005   1.1692e+004  -1.2731e+003   2.6253e+002    0.0000   -0.0000    0.0000    0.0000    0.0000
                0.2795   4.4292e-005  -1.7538e-005   1.6713e-005   1.1152e+004  -1.2142e+003   3.3426e+002    0.0000   -0.0000    0.0000    0.0000    0.0000
                0.3881   4.1576e-005  -1.6462e-005   2.0742e-005   1.0468e+004  -1.1398e+003   4.1485e+002    0.0000   -0.0000    0.0000    0.0000    0.0000
                0.5131   3.8330e-005  -1.5177e-005   2.5053e-005   9.6506e+003  -1.0508e+003   5.0107e+002    0.0000   -0.0000    0.0000    0.0000    0.0000
                0.6530   3.4592e-005  -1.3697e-005   2.9459e-005   8.7094e+003  -9.4834e+002   5.8918e+002    0.0000   -0.0000    0.0000    0.0000    0.0000
                0.7612   3.1634e-005  -1.2525e-005   3.2550e-005   7.9646e+003  -8.6726e+002   6.5099e+002    0.0000   -0.0000    0.0000    0.0000    0.0000

               lamina:  3     
              matName:  (blade-shell)
                     s           e11           e22           e12           s11           s22           s12   s11_fcT   s11_fcC   s22_fcT   s22_fcC   s12_fcS
                   (m)         (m/m)         (m/m)         (rad)          (Pa)          (Pa)          (Pa)       (-)       (-)       (-)       (-)       (-)
                0.0000   4.8012e-005  -1.9007e-005   5.3058e-006   1.3455e+006   3.0074e+003   3.7140e+004    0.0093   -0.0000    0.0000   -0.0000    0.0006
                0.0205   4.8121e-005  -1.9050e-005   6.1745e-006   1.3486e+006   3.0144e+003   4.3222e+004    0.0094   -0.0000    0.0000   -0.0000    0.0007
                0.0603   4.7905e-005  -1.8965e-005   7.8578e-006   1.3426e+006   2.9995e+003   5.5004e+004    0.0093   -0.0000    0.0000   -0.0000    0.0009
                0.1150   4.7079e-005  -1.8638e-005   1.0150e-005   1.3194e+006   2.9455e+003   7.1048e+004    0.0092   -0.0000    0.0000   -0.0000    0.0012
                0.1880   4.5578e-005  -1.8044e-005   1.3127e-005   1.2773e+006   2.8505e+003   9.1886e+004    0.0089   -0.0000    0.0000   -0.0000    0.0015
                0.2795   4.3481e-005  -1.7214e-005   1.6713e-005   1.2186e+006   2.7191e+003   1.1699e+005    0.0085   -0.0000    0.0000   -0.0000    0.0019
                0.3881   4.0806e-005  -1.6155e-005   2.0742e-005   1.1436e+006   2.5520e+003   1.4520e+005    0.0079   -0.0000    0.0000   -0.0000    0.0024
                0.5131   3.7591e-005  -1.4882e-005   2.5053e-005   1.0535e+006   2.3517e+003   1.7537e+005    0.0073   -0.0000    0.0000   -0.0000    0.0029
                0.6530   3.3876e-005  -1.3411e-005   2.9459e-005   9.4938e+005   2.1205e+003   2.0621e+005    0.0066   -0.0000    0.0000   -0.0000    0.0034
                0.7612   3.0932e-005  -1.2245e-005   3.2550e-005   8.6687e+005   1.9373e+003   2.2785e+005    0.0060   -0.0000    0.0000   -0.0000    0.0038

            panel:  2     
           lam_num    nPlies        tPly      fibAng     matID  matName
               (-)       (-)         (m)       (deg)       (-)  (-)
                 1         1    0.005000      0.0000         2  (blade-shell)
                 2         1    0.011328      0.0000         3  (spar-uni)
                 3         1    0.000002      0.0000         4  (spar-core)
                 4         1    0.011328      0.0000         3  (spar-uni)
                 5         1    0.005000      0.0000         2  (blade-shell)

               lamina:  1     
              matName:  (blade-shell)
                     s           e11           e22           e12           s11           s22           s12   s11_fcT   s11_fcC   s22_fcT   s22_fcC   s12_fcS
                   (m)         (m/m)         (m/m)         (rad)          (Pa)          (Pa)          (Pa)       (-)       (-)       (-)       (-)       (-)
                0.0000   3.2531e-005  -1.0406e-005   1.4565e-005   9.2675e+005   3.9666e+004   1.0195e+005    0.0064   -0.0000    0.0000   -0.0000    0.0017
                0.0450   3.1269e-005  -1.0003e-005   1.7214e-005   8.9077e+005   3.8118e+004   1.2050e+005    0.0062   -0.0000    0.0000   -0.0000    0.0020
                0.2103   2.6624e-005  -8.5232e-006   2.6023e-005   7.5841e+005   3.2358e+004   1.8216e+005    0.0053   -0.0000    0.0000   -0.0000    0.0030
                0.3856   2.1595e-005  -6.9211e-006   3.3748e-005   6.1511e+005   2.6128e+004   2.3623e+005    0.0043   -0.0000    0.0000   -0.0000    0.0039
                0.5691   1.6212e-005  -5.2056e-006   4.0017e-005   4.6171e+005   1.9464e+004   2.8012e+005    0.0032   -0.0000    0.0000   -0.0000    0.0047
                0.7589   1.0499e-005  -3.3848e-006   4.4503e-005   2.9893e+005   1.2399e+004   3.1152e+005    0.0021   -0.0000    0.0000   -0.0000    0.0052
                0.9534   4.4840e-006  -1.4677e-006   4.6937e-005   1.2754e+005   4.9594e+003   3.2856e+005    0.0009   -0.0000    0.0000   -0.0000    0.0055
                1.1509  -1.9944e-006   6.0782e-007   4.7114e-005  -5.7000e+004  -2.8905e+003   3.2980e+005    0.0000    0.0003    0.0000    0.0000    0.0055
                1.3493  -8.2544e-006   2.6004e-006   4.4931e-005  -2.3539e+005  -1.0672e+004   3.1452e+005    0.0000    0.0011    0.0000    0.0000    0.0052
                1.3628  -8.7007e-006   2.7432e-006   4.4695e-005  -2.4811e+005  -1.1217e+004   3.1286e+005    0.0000    0.0012    0.0000    0.0000    0.0052

               lamina:  2     
              matName:  (spar-uni)
                     s           e11           e22           e12           s11           s22           s12   s11_fcT   s11_fcC   s22_fcT   s22_fcC   s12_fcS
                   (m)         (m/m)         (m/m)         (rad)          (Pa)          (Pa)          (Pa)       (-)       (-)       (-)       (-)       (-)
                0.0000   3.2149e-005  -1.0268e-005   1.4565e-005   1.3452e+006  -1.8199e+004   4.3694e+004    0.0014   -0.0000    0.0000    0.0000    0.0015
                0.0450   3.0897e-005  -9.8683e-006   1.7214e-005   1.2928e+006  -1.7496e+004   5.1642e+004    0.0013   -0.0000    0.0000    0.0000    0.0017
                0.2103   2.6262e-005  -8.3923e-006   2.6023e-005   1.0988e+006  -1.4937e+004   7.8068e+004    0.0011   -0.0000    0.0000    0.0000    0.0026
                0.3856   2.1247e-005  -6.7951e-006   3.3748e-005   8.8895e+005  -1.2162e+004   1.0124e+005    0.0009   -0.0000    0.0000    0.0000    0.0034
                0.5691   1.5880e-005  -5.0857e-006   4.0017e-005   6.6438e+005  -9.1907e+003   1.2005e+005    0.0007   -0.0000    0.0000    0.0000    0.0040
                0.7589   1.0188e-005  -3.2725e-006   4.4503e-005   4.2622e+005  -6.0343e+003   1.3351e+005    0.0004   -0.0000    0.0000    0.0000    0.0045
                0.9534   4.1947e-006  -1.3631e-006   4.6937e-005   1.7542e+005  -2.7116e+003   1.4081e+005    0.0002   -0.0000    0.0000    0.0000    0.0047
                1.1509  -2.6153e-006   8.3222e-007   4.7114e-005  -1.0944e+005   1.4367e+003   1.4134e+005    0.0000    0.0002    0.0000   -0.0000    0.0047
                1.3493  -8.8610e-006   2.8197e-006   4.4931e-005  -3.7080e+005   4.8678e+003   1.3479e+005    0.0000    0.0005    0.0000   -0.0000    0.0045
                1.3628  -9.2915e-006   2.9567e-006   4.4695e-005  -3.8881e+005   5.1043e+003   1.3408e+005    0.0000    0.0006    0.0000   -0.0000    0.0045

               lamina:  3     
              matName:  (spar-core)
                     s           e11           e22           e12           s11           s22           s12   s11_fcT   s11_fcC   s22_fcT   s22_fcC   s12_fcS
                   (m)         (m/m)         (m/m)         (rad)          (Pa)          (Pa)          (Pa)       (-)       (-)       (-)       (-)       (-)
                0.0000   3.1283e-005  -9.9546e-006   1.4565e-005   8.0847e+003  -1.6280e+002   2.9129e+002    0.0000   -0.0000    0.0000    0.0000    0.0000
                0.0450   3.0056e-005  -9.5641e-006   1.7214e-005   7.7676e+003  -1.5641e+002   3.4428e+002    0.0000   -0.0000    0.0000    0.0000    0.0000
                0.2103   2.5441e-005  -8.0958e-006   2.6023e-005   6.5750e+003  -1.3240e+002   5.2046e+002    0.0000   -0.0000    0.0000    0.0000    0.0000
                0.3856   2.0457e-005  -6.5097e-006   3.3748e-005   5.2869e+003  -1.0646e+002   6.7496e+002    0.0000   -0.0000    0.0000    0.0000    0.0000
                0.5691   1.5128e-005  -4.8140e-006   4.0017e-005   3.9097e+003  -7.8727e+001   8.0033e+002    0.0000   -0.0000    0.0000    0.0000    0.0000
                0.7589   9.4843e-006  -3.0180e-006   4.4503e-005   2.4511e+003  -4.9357e+001   8.9005e+002    0.0000   -0.0000    0.0000    0.0000    0.0000
                0.9534   3.5393e-006  -1.1263e-006   4.6937e-005   9.1469e+002  -1.8419e+001   9.3873e+002    0.0000   -0.0000    0.0000    0.0000    0.0000
                1.1509  -2.6154e-006   8.3226e-007   4.7114e-005  -6.7592e+002   1.3611e+001   9.4228e+002    0.0000    0.0000    0.0000   -0.0000    0.0000
                1.3493  -8.8611e-006   2.8197e-006   4.4931e-005  -2.2901e+003   4.6114e+001   8.9863e+002    0.0000    0.0000    0.0000   -0.0000    0.0000
                1.3628  -9.2916e-006   2.9567e-006   4.4695e-005  -2.4013e+003   4.8354e+001   8.9390e+002    0.0000    0.0000    0.0000   -0.0000    0.0000

               lamina:  4     
              matName:  (spar-uni)
                     s           e11           e22           e12           s11           s22           s12   s11_fcT   s11_fcC   s22_fcT   s22_fcC   s12_fcS
                   (m)         (m/m)         (m/m)         (rad)          (Pa)          (Pa)          (Pa)       (-)       (-)       (-)       (-)       (-)
                0.0000   3.1283e-005  -9.9546e-006   1.4565e-005   1.3091e+006  -1.7185e+004   4.3694e+004    0.0013   -0.0000    0.0000    0.0000    0.0015
                0.0450   3.0056e-005  -9.5641e-006   1.7214e-005   1.2577e+006  -1.6511e+004   5.1642e+004    0.0013   -0.0000    0.0000    0.0000    0.0017
                0.2103   2.5441e-005  -8.0957e-006   2.6023e-005   1.0646e+006  -1.3976e+004   7.8068e+004    0.0011   -0.0000    0.0000    0.0000    0.0026
                0.3856   2.0457e-005  -6.5097e-006   3.3748e-005   8.5604e+005  -1.1238e+004   1.0124e+005    0.0009   -0.0000    0.0000    0.0000    0.0034
                0.5691   1.5128e-005  -4.8139e-006   4.0017e-005   6.3305e+005  -8.3105e+003   1.2005e+005    0.0007   -0.0000    0.0000    0.0000    0.0040
                0.7589   9.4842e-006  -3.0180e-006   4.4503e-005   3.9688e+005  -5.2101e+003   1.3351e+005    0.0004   -0.0000    0.0000    0.0000    0.0045
                0.9534   3.5392e-006  -1.1262e-006   4.6937e-005   1.4810e+005  -1.9442e+003   1.4081e+005    0.0002   -0.0000    0.0000    0.0000    0.0047
                1.1509  -3.2363e-006   1.0567e-006   4.7114e-005  -1.3532e+005   2.1636e+003   1.4134e+005    0.0000    0.0002    0.0000   -0.0000    0.0047
                1.3493  -9.4678e-006   3.0390e-006   4.4931e-005  -3.9609e+005   5.5781e+003   1.3479e+005    0.0000    0.0006    0.0000   -0.0000    0.0045
                1.3628  -9.8824e-006   3.1703e-006   4.4695e-005  -4.1344e+005   5.7960e+003   1.3408e+005    0.0000    0.0006    0.0000   -0.0000    0.0045

               lamina:  5     
              matName:  (blade-shell)
                     s           e11           e22           e12           s11           s22           s12   s11_fcT   s11_fcC   s22_fcT   s22_fcC   s12_fcS
                   (m)         (m/m)         (m/m)         (rad)          (Pa)          (Pa)          (Pa)       (-)       (-)       (-)       (-)       (-)
                0.0000   3.0416e-005  -9.6415e-006   1.4565e-005   8.6703e+005   3.8425e+004   1.0195e+005    0.0060   -0.0000    0.0000   -0.0000    0.0017
                0.0450   2.9214e-005  -9.2600e-006   1.7214e-005   8.3276e+005   3.6912e+004   1.2050e+005    0.0058   -0.0000    0.0000   -0.0000    0.0020
                0.2103   2.4621e-005  -7.7992e-006   2.6023e-005   7.0185e+005   3.1182e+004   1.8216e+005    0.0049   -0.0000    0.0000   -0.0000    0.0030
                0.3856   1.9667e-005  -6.2243e-006   3.3748e-005   5.6068e+005   2.4997e+004   2.3623e+005    0.0039   -0.0000    0.0000   -0.0000    0.0039
                0.5691   1.4376e-005  -4.5422e-006   4.0017e-005   4.0989e+005   1.8387e+004   2.8012e+005    0.0028   -0.0000    0.0000   -0.0000    0.0047
                0.7589   8.7802e-006  -2.7636e-006   4.4503e-005   2.5040e+005   1.1391e+004   3.1152e+005    0.0017   -0.0000    0.0000   -0.0000    0.0052
                0.9534   2.8838e-006  -8.8933e-007   4.6937e-005   8.2353e+004   4.0201e+003   3.2856e+005    0.0006   -0.0000    0.0000   -0.0000    0.0055
                1.1509  -3.5103e-006   1.1557e-006   4.7114e-005  -9.9801e+004  -3.7803e+003   3.2980e+005    0.0000    0.0005    0.0000    0.0000    0.0055
                1.3493  -9.7356e-006   3.1358e-006   4.4931e-005  -2.7721e+005  -1.1542e+004   3.1452e+005    0.0000    0.0013    0.0000    0.0000    0.0052
                1.3628  -1.0143e-005   3.2645e-006   4.4695e-005  -2.8883e+005  -1.2064e+004   3.1286e+005    0.0000    0.0014    0.0000    0.0000    0.0052

            panel:  3     
           lam_num    nPlies        tPly      fibAng     matID  matName
               (-)       (-)         (m)       (deg)       (-)  (-)
                 1         1    0.005000      0.0000         2  (blade-shell)
                 2         1    0.010000      0.0000         6  (TEP-core)
                 3         1    0.005000      0.0000         2  (blade-shell)

               lamina:  1     
              matName:  (blade-shell)
                     s           e11           e22           e12           s11           s22           s12   s11_fcT   s11_fcC   s22_fcT   s22_fcC   s12_fcS
                   (m)         (m/m)         (m/m)         (rad)          (Pa)          (Pa)          (Pa)       (-)       (-)       (-)       (-)       (-)
                0.0000  -9.0660e-006   3.6095e-006   8.7840e-005  -2.5395e+005  -2.5738e+002   6.1488e+005    0.0000    0.0012    0.0000    0.0000    0.0102
                0.0008  -9.0902e-006   3.6191e-006   8.7834e-005  -2.5463e+005  -2.5805e+002   6.1484e+005    0.0000    0.0012    0.0000    0.0000    0.0102

               lamina:  2     
              matName:  (TEP-core)
                     s           e11           e22           e12           s11           s22           s12   s11_fcT   s11_fcC   s22_fcT   s22_fcC   s12_fcS
                   (m)         (m/m)         (m/m)         (rad)          (Pa)          (Pa)          (Pa)       (-)       (-)       (-)       (-)       (-)
                0.0000  -9.3264e-006   3.7136e-006   8.7840e-005  -2.3464e+003   2.6162e+002   1.7568e+003    0.0000    0.0000    0.0000   -0.0000    0.0000
                0.0008  -9.3506e-006   3.7232e-006   8.7834e-005  -2.3525e+003   2.6229e+002   1.7567e+003    0.0000    0.0000    0.0000   -0.0000    0.0000

               lamina:  3     
              matName:  (blade-shell)
                     s           e11           e22           e12           s11           s22           s12   s11_fcT   s11_fcC   s22_fcT   s22_fcC   s12_fcS
                   (m)         (m/m)         (m/m)         (rad)          (Pa)          (Pa)          (Pa)       (-)       (-)       (-)       (-)       (-)
                0.0000  -9.4566e-006   3.7656e-006   8.7840e-005  -2.6489e+005  -2.5897e+002   6.1488e+005    0.0000    0.0012    0.0000    0.0000    0.0102
                0.0008  -9.4807e-006   3.7752e-006   8.7834e-005  -2.6556e+005  -2.5964e+002   6.1484e+005    0.0000    0.0012    0.0000    0.0000    0.0102

            panel:  4     
           lam_num    nPlies        tPly      fibAng     matID  matName
               (-)       (-)         (m)       (deg)       (-)  (-)
                 1         1    0.005000      0.0000         2  (blade-shell)
                 2         1    0.010000      0.0000         6  (TEP-core)
                 3         1    0.005000      0.0000         2  (blade-shell)

               lamina:  1     
              matName:  (blade-shell)
                     s           e11           e22           e12           s11           s22           s12   s11_fcT   s11_fcC   s22_fcT   s22_fcC   s12_fcS
                   (m)         (m/m)         (m/m)         (rad)          (Pa)          (Pa)          (Pa)       (-)       (-)       (-)       (-)       (-)
                0.0000  -9.0902e-006   3.6191e-006   6.5351e-005  -2.5463e+005  -2.5805e+002   4.5746e+005    0.0000    0.0012    0.0000    0.0000    0.0076
                0.1821  -1.4865e-005   5.9184e-006   6.5345e-005  -4.1638e+005  -4.1998e+002   4.5742e+005    0.0000    0.0020    0.0000    0.0000    0.0076
                0.3747  -2.0992e-005   8.3579e-006   6.5345e-005  -5.8801e+005  -5.9178e+002   4.5742e+005    0.0000    0.0028    0.0000    0.0000    0.0076
                0.5609  -2.6918e-005   1.0717e-005   6.3439e-005  -7.5400e+005  -7.5799e+002   4.4407e+005    0.0000    0.0035    0.0000    0.0000    0.0074
                0.7385  -3.2554e-005   1.2961e-005   6.0433e-005  -9.1187e+005  -9.1610e+002   4.2303e+005    0.0000    0.0043    0.0000    0.0000    0.0071
                0.9055  -3.7825e-005   1.5060e-005   5.6556e-005  -1.0595e+006  -1.0640e+003   3.9589e+005    0.0000    0.0050    0.0000    0.0000    0.0066
                1.0599  -4.2648e-005   1.6980e-005   5.1970e-005  -1.1946e+006  -1.1994e+003   3.6379e+005    0.0000    0.0056    0.0000    0.0000    0.0061
                1.2001  -4.6966e-005   1.8700e-005   4.6869e-005  -1.3156e+006  -1.3207e+003   3.2808e+005    0.0000    0.0062    0.0000    0.0000    0.0055
                1.3247  -5.0750e-005   2.0206e-005   4.1477e-005  -1.4216e+006  -1.4270e+003   2.9034e+005    0.0000    0.0067    0.0000    0.0000    0.0048
                1.4326  -5.3953e-005   2.1481e-005   3.6028e-005  -1.5113e+006  -1.5171e+003   2.5220e+005    0.0000    0.0071    0.0000    0.0000    0.0042
                1.5226  -5.6522e-005   2.2504e-005   3.0747e-005  -1.5833e+006  -1.5895e+003   2.1523e+005    0.0000    0.0074    0.0000    0.0000    0.0036
                1.5941  -5.8474e-005   2.3281e-005   2.5850e-005  -1.6379e+006  -1.6446e+003   1.8095e+005    0.0000    0.0077    0.0000    0.0000    0.0030
                1.6462  -5.9821e-005   2.3818e-005   2.1534e-005  -1.6757e+006  -1.6826e+003   1.5074e+005    0.0000    0.0079    0.0000    0.0000    0.0025
                1.6774  -6.0607e-005   2.4131e-005   1.7970e-005  -1.6977e+006  -1.7046e+003   1.2579e+005    0.0000    0.0080    0.0000    0.0000    0.0021
                1.6864  -6.0901e-005   2.4248e-005   1.5297e-005  -1.7059e+006  -1.7121e+003   1.0708e+005    0.0000    0.0080    0.0000    0.0000    0.0018

               lamina:  2     
              matName:  (TEP-core)
                     s           e11           e22           e12           s11           s22           s12   s11_fcT   s11_fcC   s22_fcT   s22_fcC   s12_fcS
                   (m)         (m/m)         (m/m)         (rad)          (Pa)          (Pa)          (Pa)       (-)       (-)       (-)       (-)       (-)
                0.0000  -9.3506e-006   3.7232e-006   6.5351e-005  -2.3525e+003   2.6229e+002   1.3070e+003    0.0000    0.0000    0.0000   -0.0000    0.0000
                0.1821  -1.5123e-005   6.0216e-006   6.5345e-005  -3.8048e+003   4.2418e+002   1.3069e+003    0.0000    0.0000    0.0000   -0.0000    0.0000
                0.3747  -2.1248e-005   8.4602e-006   6.5345e-005  -5.3457e+003   5.9595e+002   1.3069e+003    0.0000    0.0000    0.0000   -0.0000    0.0000
                0.5609  -2.7175e-005   1.0820e-005   6.3439e-005  -6.8368e+003   7.6217e+002   1.2688e+003    0.0000    0.0000    0.0000   -0.0000    0.0000
                0.7385  -3.2815e-005   1.3066e-005   6.0433e-005  -8.2559e+003   9.2036e+002   1.2087e+003    0.0000    0.0000    0.0000   -0.0000    0.0000
                0.9055  -3.8094e-005   1.5168e-005   5.6556e-005  -9.5840e+003   1.0684e+003   1.1311e+003    0.0000    0.0000    0.0000   -0.0000    0.0000
                1.0599  -4.2930e-005   1.7093e-005   5.1970e-005  -1.0801e+004   1.2040e+003   1.0394e+003    0.0000    0.0000    0.0000   -0.0000    0.0000
                1.2001  -4.7261e-005   1.8818e-005   4.6869e-005  -1.1890e+004   1.3255e+003   9.3738e+002    0.0000    0.0000    0.0000   -0.0000    0.0000
                1.3247  -5.1061e-005   2.0331e-005   4.1477e-005  -1.2846e+004   1.4321e+003   8.2955e+002    0.0000    0.0000    0.0000   -0.0000    0.0000
                1.4326  -5.4287e-005   2.1615e-005   3.6028e-005  -1.3658e+004   1.5225e+003   7.2056e+002    0.0000    0.0000    0.0000   -0.0000    0.0000
                1.5226  -5.6884e-005   2.2649e-005   3.0747e-005  -1.4311e+004   1.5954e+003   6.1495e+002    0.0000    0.0000    0.0000   -0.0000    0.0000
                1.5941  -5.8863e-005   2.3437e-005   2.5850e-005  -1.4809e+004   1.6509e+003   5.1700e+002    0.0000    0.0000    0.0000   -0.0000    0.0000
                1.6462  -6.0234e-005   2.3983e-005   2.1534e-005  -1.5154e+004   1.6893e+003   4.3068e+002    0.0000    0.0000    0.0000   -0.0000    0.0000
                1.6774  -6.1013e-005   2.4293e-005   1.7970e-005  -1.5350e+004   1.7112e+003   3.5940e+002    0.0000    0.0000    0.0000   -0.0000    0.0000
                1.6864  -6.1244e-005   2.4385e-005   1.5297e-005  -1.5408e+004   1.7177e+003   3.0595e+002    0.0000    0.0000    0.0000   -0.0000    0.0000

               lamina:  3     
              matName:  (blade-shell)
                     s           e11           e22           e12           s11           s22           s12   s11_fcT   s11_fcC   s22_fcT   s22_fcC   s12_fcS
                   (m)         (m/m)         (m/m)         (rad)          (Pa)          (Pa)          (Pa)       (-)       (-)       (-)       (-)       (-)
                0.0000  -9.4807e-006   3.7752e-006   6.5351e-005  -2.6556e+005  -2.5964e+002   4.5746e+005    0.0000    0.0012    0.0000    0.0000    0.0076
                0.1821  -1.5252e-005   6.0732e-006   6.5345e-005  -4.2723e+005  -4.2156e+002   4.5742e+005    0.0000    0.0020    0.0000    0.0000    0.0076
                0.3747  -2.1376e-005   8.5113e-006   6.5345e-005  -5.9876e+005  -5.9335e+002   4.5742e+005    0.0000    0.0028    0.0000    0.0000    0.0076
                0.5609  -2.7304e-005   1.0871e-005   6.3439e-005  -7.6480e+005  -7.5956e+002   4.4407e+005    0.0000    0.0036    0.0000    0.0000    0.0074
                0.7385  -3.2946e-005   1.3118e-005   6.0433e-005  -9.2286e+005  -9.1770e+002   4.2303e+005    0.0000    0.0043    0.0000    0.0000    0.0071
                0.9055  -3.8229e-005   1.5222e-005   5.6556e-005  -1.0708e+006  -1.0657e+003   3.9589e+005    0.0000    0.0050    0.0000    0.0000    0.0066
                1.0599  -4.3071e-005   1.7149e-005   5.1970e-005  -1.2065e+006  -1.2012e+003   3.6379e+005    0.0000    0.0057    0.0000    0.0000    0.0061
                1.2001  -4.7409e-005   1.8877e-005   4.6869e-005  -1.3280e+006  -1.3225e+003   3.2808e+005    0.0000    0.0062    0.0000    0.0000    0.0055
                1.3247  -5.1217e-005   2.0393e-005   4.1477e-005  -1.4346e+006  -1.4289e+003   2.9034e+005    0.0000    0.0067    0.0000    0.0000    0.0048
                1.4326  -5.4454e-005   2.1682e-005   3.6028e-005  -1.5253e+006  -1.5191e+003   2.5220e+005    0.0000    0.0072    0.0000    0.0000    0.0042
                1.5226  -5.7065e-005   2.2721e-005   3.0747e-005  -1.5984e+006  -1.5917e+003   2.1523e+005    0.0000    0.0075    0.0000    0.0000    0.0036
                1.5941  -5.9057e-005   2.3515e-005   2.5850e-005  -1.6543e+006  -1.6469e+003   1.8095e+005    0.0000    0.0078    0.0000    0.0000    0.0030
                1.6462  -6.0440e-005   2.4065e-005   2.1534e-005  -1.6930e+006  -1.6851e+003   1.5074e+005    0.0000    0.0079    0.0000    0.0000    0.0025
                1.6774  -6.1215e-005   2.4374e-005   1.7970e-005  -1.7147e+006  -1.7071e+003   1.2579e+005    0.0000    0.0081    0.0000    0.0000    0.0021
                1.6864  -6.1415e-005   2.4454e-005   1.5297e-005  -1.7203e+006  -1.7142e+003   1.0708e+005    0.0000    0.0081    0.0000    0.0000    0.0018

     Web:  panel  nNode   nLam     xc_St    xc_End         b         t         E_eff         G_eff      nu_eff     density  buckleCrit
            (-)    (-)    (-)       (-)       (-)       (m)       (m)          (Pa)          (Pa)         (-)    (kg/m^3)         (-)
              1     10      3    0.1941    0.1941    0.5151    0.0830   7.6445e+008   4.5301e+008      0.4420    257.1084      0.0000
              2     10      3    0.5561    0.5561    0.5137    0.0830   7.6445e+008   4.5301e+008      0.4420    257.1084      0.0000

            panel:  1     
           lam_num    nPlies        tPly      fibAng     matID  matName
               (-)       (-)         (m)       (deg)       (-)  (-)
                 1         1    0.001500      0.0000         7  (web-shell)
                 2         1    0.080000      0.0000         8  (web-core)
                 3         1    0.001500      0.0000         7  (web-shell)

               lamina:  1     
              matName:  (web-shell)
                     s           e11           e22           e12           s11           s22           s12   s11_fcT   s11_fcC   s22_fcT   s22_fcC   s12_fcS
                   (m)         (m/m)         (m/m)         (rad)          (Pa)          (Pa)          (Pa)       (-)       (-)       (-)       (-)       (-)
                0.0000   1.9220e-005  -8.4412e-006   1.2376e-005   2.7998e+005   2.1813e+004   1.4852e+005    0.0019   -0.0000    0.0000   -0.0000    0.0017
                0.0572   2.0346e-005  -8.9392e-006   1.1934e-005   2.9636e+005   2.3032e+004   1.4320e+005    0.0021   -0.0000    0.0000   -0.0000    0.0016
                0.1145   2.1473e-005  -9.4372e-006   1.1467e-005   3.1274e+005   2.4251e+004   1.3761e+005    0.0022   -0.0000    0.0000   -0.0000    0.0015
                0.1717   2.2599e-005  -9.9352e-006   1.0978e-005   3.2913e+005   2.5470e+004   1.3173e+005    0.0023   -0.0000    0.0000   -0.0000    0.0015
                0.2289   2.3726e-005  -1.0433e-005   1.0464e-005   3.4551e+005   2.6690e+004   1.2557e+005    0.0024   -0.0000    0.0000   -0.0000    0.0014
                0.2862   2.4853e-005  -1.0931e-005   9.9280e-006   3.6189e+005   2.7909e+004   1.1914e+005    0.0025   -0.0000    0.0000   -0.0000    0.0013
                0.3434   2.5979e-005  -1.1429e-005   9.3682e-006   3.7827e+005   2.9128e+004   1.1242e+005    0.0026   -0.0000    0.0000   -0.0000    0.0012
                0.4006   2.7106e-005  -1.1927e-005   8.7850e-006   3.9466e+005   3.0347e+004   1.0542e+005    0.0027   -0.0000    0.0000   -0.0000    0.0012
                0.4579   2.8233e-005  -1.2425e-005   8.1784e-006   4.1104e+005   3.1566e+004   9.8141e+004    0.0029   -0.0000    0.0000   -0.0000    0.0011
                0.5151   2.9359e-005  -1.2923e-005   7.5485e-006   4.2742e+005   3.2785e+004   9.0582e+004    0.0030   -0.0000    0.0000   -0.0000    0.0010

               lamina:  2     
              matName:  (web-core)
                     s           e11           e22           e12           s11           s22           s12   s11_fcT   s11_fcC   s22_fcT   s22_fcC   s12_fcS
                   (m)         (m/m)         (m/m)         (rad)          (Pa)          (Pa)          (Pa)       (-)       (-)       (-)       (-)       (-)
                0.0000   2.2345e-005  -9.9317e-006   1.2376e-005   5.5331e+003  -9.2230e+002   2.4753e+002    0.0000   -0.0000    0.0000    0.0000    0.0000
                0.0572   2.3472e-005  -1.0430e-005   1.1934e-005   5.8123e+003  -9.6802e+002   2.3867e+002    0.0000   -0.0000    0.0000    0.0000    0.0000
                0.1145   2.4599e-005  -1.0928e-005   1.1467e-005   6.0915e+003  -1.0137e+003   2.2934e+002    0.0000   -0.0000    0.0000    0.0000    0.0000
                0.1717   2.5725e-005  -1.1426e-005   1.0978e-005   6.3707e+003  -1.0595e+003   2.1955e+002    0.0000   -0.0000    0.0000    0.0000    0.0000
                0.2289   2.6852e-005  -1.1924e-005   1.0464e-005   6.6499e+003  -1.1052e+003   2.0929e+002    0.0000   -0.0000    0.0000    0.0000    0.0000
                0.2862   2.7978e-005  -1.2422e-005   9.9280e-006   6.9291e+003  -1.1509e+003   1.9856e+002    0.0000   -0.0000    0.0000    0.0000    0.0000
                0.3434   2.9105e-005  -1.2920e-005   9.3682e-006   7.2083e+003  -1.1966e+003   1.8736e+002    0.0000   -0.0000    0.0000    0.0000    0.0000
                0.4006   3.0232e-005  -1.3418e-005   8.7850e-006   7.4875e+003  -1.2423e+003   1.7570e+002    0.0000   -0.0000    0.0000    0.0000    0.0000
                0.4579   3.1358e-005  -1.3916e-005   8.1784e-006   7.7668e+003  -1.2880e+003   1.6357e+002    0.0000   -0.0000    0.0000    0.0000    0.0000
                0.5151   3.2485e-005  -1.4414e-005   7.5485e-006   8.0460e+003  -1.3338e+003   1.5097e+002    0.0000   -0.0000    0.0000    0.0000    0.0000

               lamina:  3     
              matName:  (web-shell)
                     s           e11           e22           e12           s11           s22           s12   s11_fcT   s11_fcC   s22_fcT   s22_fcC   s12_fcS
                   (m)         (m/m)         (m/m)         (rad)          (Pa)          (Pa)          (Pa)       (-)       (-)       (-)       (-)       (-)
                0.0000   2.2404e-005  -9.9596e-006   1.2376e-005   3.2525e+005   2.3191e+004   1.4852e+005    0.0023   -0.0000    0.0000   -0.0000    0.0017
                0.0572   2.3531e-005  -1.0458e-005   1.1934e-005   3.4163e+005   2.4410e+004   1.4320e+005    0.0024   -0.0000    0.0000   -0.0000    0.0016
                0.1145   2.4657e-005  -1.0956e-005   1.1467e-005   3.5802e+005   2.5629e+004   1.3761e+005    0.0025   -0.0000    0.0000   -0.0000    0.0015
                0.1717   2.5784e-005  -1.1454e-005   1.0978e-005   3.7440e+005   2.6848e+004   1.3173e+005    0.0026   -0.0000    0.0000   -0.0000    0.0015
                0.2289   2.6910e-005  -1.1952e-005   1.0464e-005   3.9078e+005   2.8067e+004   1.2557e+005    0.0027   -0.0000    0.0000   -0.0000    0.0014
                0.2862   2.8037e-005  -1.2450e-005   9.9280e-006   4.0716e+005   2.9286e+004   1.1914e+005    0.0028   -0.0000    0.0000   -0.0000    0.0013
                0.3434   2.9164e-005  -1.2948e-005   9.3682e-006   4.2354e+005   3.0506e+004   1.1242e+005    0.0029   -0.0000    0.0000   -0.0000    0.0012
                0.4006   3.0290e-005  -1.3446e-005   8.7850e-006   4.3993e+005   3.1725e+004   1.0542e+005    0.0031   -0.0000    0.0000   -0.0000    0.0012
                0.4579   3.1417e-005  -1.3944e-005   8.1784e-006   4.5631e+005   3.2944e+004   9.8141e+004    0.0032   -0.0000    0.0000   -0.0000    0.0011
                0.5151   3.2544e-005  -1.4442e-005   7.5485e-006   4.7269e+005   3.4163e+004   9.0582e+004    0.0033   -0.0000    0.0000   -0.0000    0.0010

            panel:  2     
           lam_num    nPlies        tPly      fibAng     matID  matName
               (-)       (-)         (m)       (deg)       (-)  (-)
                 1         1    0.001500      0.0000         7  (web-shell)
                 2         1    0.080000      0.0000         8  (web-core)
                 3         1    0.001500      0.0000         7  (web-shell)

               lamina:  1     
              matName:  (web-shell)
                     s           e11           e22           e12           s11           s22           s12   s11_fcT   s11_fcC   s22_fcT   s22_fcC   s12_fcS
                   (m)         (m/m)         (m/m)         (rad)          (Pa)          (Pa)          (Pa)       (-)       (-)       (-)       (-)       (-)
                0.0000  -2.0985e-005   9.3327e-006   3.9303e-005  -3.0461e+005  -2.1649e+004   4.7163e+005    0.0000    0.0014    0.0000    0.0000    0.0052
                0.0571  -1.9876e-005   8.8424e-006   3.9691e-005  -2.8848e+005  -2.0449e+004   4.7630e+005    0.0000    0.0014    0.0000    0.0000    0.0053
                0.1142  -1.8766e-005   8.3521e-006   4.0057e-005  -2.7235e+005  -1.9248e+004   4.8069e+005    0.0000    0.0013    0.0000    0.0000    0.0053
                0.1712  -1.7657e-005   7.8618e-006   4.0400e-005  -2.5623e+005  -1.8048e+004   4.8480e+005    0.0000    0.0012    0.0000    0.0000    0.0054
                0.2283  -1.6548e-005   7.3715e-006   4.0720e-005  -2.4010e+005  -1.6848e+004   4.8864e+005    0.0000    0.0011    0.0000    0.0000    0.0054
                0.2854  -1.5439e-005   6.8811e-006   4.1017e-005  -2.2397e+005  -1.5647e+004   4.9221e+005    0.0000    0.0011    0.0000    0.0000    0.0055
                0.3425  -1.4330e-005   6.3908e-006   4.1291e-005  -2.0784e+005  -1.4447e+004   4.9549e+005    0.0000    0.0010    0.0000    0.0000    0.0055
                0.3995  -1.3220e-005   5.9005e-006   4.1542e-005  -1.9171e+005  -1.3247e+004   4.9851e+005    0.0000    0.0009    0.0000    0.0000    0.0055
                0.4566  -1.2111e-005   5.4102e-006   4.1771e-005  -1.7558e+005  -1.2047e+004   5.0125e+005    0.0000    0.0008    0.0000    0.0000    0.0056
                0.5137  -1.1002e-005   4.9199e-006   4.1976e-005  -1.5945e+005  -1.0846e+004   5.0371e+005    0.0000    0.0007    0.0000    0.0000    0.0056

               lamina:  2     
              matName:  (web-core)
                     s           e11           e22           e12           s11           s22           s12   s11_fcT   s11_fcC   s22_fcT   s22_fcC   s12_fcS
                   (m)         (m/m)         (m/m)         (rad)          (Pa)          (Pa)          (Pa)       (-)       (-)       (-)       (-)       (-)
                0.0000  -2.0926e-005   9.3046e-006   3.9303e-005  -5.1813e+003   8.6480e+002   7.8605e+002    0.0000    0.0000    0.0000   -0.0000    0.0000
                0.0571  -1.9817e-005   8.8143e-006   3.9691e-005  -4.9064e+003   8.1978e+002   7.9383e+002    0.0000    0.0000    0.0000   -0.0000    0.0000
                0.1142  -1.8708e-005   8.3240e-006   4.0057e-005  -4.6315e+003   7.7477e+002   8.0114e+002    0.0000    0.0000    0.0000   -0.0000    0.0000
                0.1712  -1.7598e-005   7.8336e-006   4.0400e-005  -4.3566e+003   7.2976e+002   8.0800e+002    0.0000    0.0000    0.0000   -0.0000    0.0000
                0.2283  -1.6489e-005   7.3433e-006   4.0720e-005  -4.0817e+003   6.8475e+002   8.1440e+002    0.0000    0.0000    0.0000   -0.0000    0.0000
                0.2854  -1.5380e-005   6.8530e-006   4.1017e-005  -3.8068e+003   6.3974e+002   8.2034e+002    0.0000    0.0000    0.0000   -0.0000    0.0000
                0.3425  -1.4271e-005   6.3627e-006   4.1291e-005  -3.5320e+003   5.9473e+002   8.2582e+002    0.0000    0.0000    0.0000   -0.0000    0.0000
                0.3995  -1.3161e-005   5.8724e-006   4.1542e-005  -3.2571e+003   5.4971e+002   8.3085e+002    0.0000    0.0000    0.0000   -0.0000    0.0000
                0.4566  -1.2052e-005   5.3821e-006   4.1771e-005  -2.9822e+003   5.0470e+002   8.3541e+002    0.0000    0.0000    0.0000   -0.0000    0.0000
                0.5137  -1.0943e-005   4.8918e-006   4.1976e-005  -2.7073e+003   4.5969e+002   8.3952e+002    0.0000    0.0000    0.0000   -0.0000    0.0000

               lamina:  3     
              matName:  (web-shell)
                     s           e11           e22           e12           s11           s22           s12   s11_fcT   s11_fcC   s22_fcT   s22_fcC   s12_fcS
                   (m)         (m/m)         (m/m)         (rad)          (Pa)          (Pa)          (Pa)       (-)       (-)       (-)       (-)       (-)
                0.0000  -1.7782e-005   7.8055e-006   3.9303e-005  -2.5908e+005  -2.0263e+004   4.7163e+005    0.0000    0.0012    0.0000    0.0000    0.0052
                0.0571  -1.6673e-005   7.3152e-006   3.9691e-005  -2.4295e+005  -1.9063e+004   4.7630e+005    0.0000    0.0011    0.0000    0.0000    0.0053
                0.1142  -1.5564e-005   6.8249e-006   4.0057e-005  -2.2682e+005  -1.7863e+004   4.8069e+005    0.0000    0.0011    0.0000    0.0000    0.0053
                0.1712  -1.4454e-005   6.3346e-006   4.0400e-005  -2.1069e+005  -1.6662e+004   4.8480e+005    0.0000    0.0010    0.0000    0.0000    0.0054
                0.2283  -1.3345e-005   5.8443e-006   4.0720e-005  -1.9456e+005  -1.5462e+004   4.8864e+005    0.0000    0.0009    0.0000    0.0000    0.0054
                0.2854  -1.2236e-005   5.3540e-006   4.1017e-005  -1.7843e+005  -1.4262e+004   4.9221e+005    0.0000    0.0008    0.0000    0.0000    0.0055
                0.3425  -1.1127e-005   4.8636e-006   4.1291e-005  -1.6231e+005  -1.3061e+004   4.9549e+005    0.0000    0.0008    0.0000    0.0000    0.0055
                0.3995  -1.0018e-005   4.3733e-006   4.1542e-005  -1.4618e+005  -1.1861e+004   4.9851e+005    0.0000    0.0007    0.0000    0.0000    0.0055
                0.4566  -8.9083e-006   3.8830e-006   4.1771e-005  -1.3005e+005  -1.0661e+004   5.0125e+005    0.0000    0.0006    0.0000    0.0000    0.0056
                0.5137  -7.7991e-006   3.3927e-006   4.1976e-005  -1.1392e+005  -9.4606e+003   5.0371e+005    0.0000    0.0005    0.0000    0.0000    0.0056

================================================================================
sec        =  30     
zSec       =  91.6000  (m)
nPanelsTop =  4      
nPanelsBot =  4      
nWebs      =  2      

    Top:  panel  nNode   nLam     xc_St    xc_End         b         t         E_eff         G_eff      nu_eff     density  buckleCrit
            (-)    (-)    (-)       (-)       (-)       (m)       (m)          (Pa)          (Pa)         (-)    (kg/m^3)         (-)
              1     10      3    0.0000    0.1676    0.6484    0.0228   1.2403e+010   3.0751e+009      0.3976    922.2031      0.0000
              2     10      5    0.1676    0.5824    1.3616    0.0228   3.5922e+010   4.7504e+009      0.3342   1889.2132      0.0001
              3      2      3    0.5824    0.5825    0.0003    0.0200   1.4131e+010   3.5100e+009      0.3982   1025.0000      0.0000
              4     15      3    0.5825    1.0000    1.4037    0.0200   1.4131e+010   3.5100e+009      0.3982   1025.0000      0.0145

            panel:  1     
           lam_num    nPlies        tPly      fibAng     matID  matName
               (-)       (-)         (m)       (deg)       (-)  (-)
                 1         1    0.005000      0.0000         2  (blade-shell)
                 2         1    0.012847      0.0000         5  (LEP-core)
                 3         1    0.005000      0.0000         2  (blade-shell)

               lamina:  1     
              matName:  (blade-shell)
                     s           e11           e22           e12           s11           s22           s12   s11_fcT   s11_fcC   s22_fcT   s22_fcC   s12_fcS
                   (m)         (m/m)         (m/m)         (rad)          (Pa)          (Pa)          (Pa)       (-)       (-)       (-)       (-)       (-)
                0.0000   2.0840e-005  -8.2874e-006   2.1487e-006   5.8382e+005   7.4074e+002   1.5041e+004    0.0041   -0.0000    0.0000   -0.0000    0.0003
                0.0520   1.9995e-005  -7.9512e-006   7.4307e-007   5.6014e+005   7.1233e+002   5.2015e+003    0.0039   -0.0000    0.0000   -0.0000    0.0001
                0.0924   1.9111e-005  -7.5993e-006   3.0540e-007   5.3537e+005   6.8462e+002   2.1378e+003    0.0037   -0.0000    0.0000   -0.0000    0.0000
                0.1475   1.8036e-005  -7.1718e-006   1.6721e-006   5.0526e+005   6.4726e+002   1.1705e+004    0.0035   -0.0000    0.0000   -0.0000    0.0002
                0.2186   1.6703e-005  -6.6416e-006   3.3244e-006   4.6791e+005   6.0008e+002   2.3270e+004    0.0032   -0.0000    0.0000   -0.0000    0.0004
                0.3045   1.5137e-005  -6.0191e-006   5.1567e-006   4.2406e+005   5.4446e+002   3.6097e+004    0.0029   -0.0000    0.0000   -0.0000    0.0006
                0.4041   1.3380e-005  -5.3203e-006   7.0620e-006   3.7483e+005   4.8186e+002   4.9434e+004    0.0026   -0.0000    0.0000   -0.0000    0.0008
                0.5169   1.1447e-005  -4.5517e-006   8.9431e-006   3.2069e+005   4.1289e+002   6.2602e+004    0.0022   -0.0000    0.0000   -0.0000    0.0010
                0.6419   9.3672e-006  -3.7246e-006   1.0696e-005   2.6242e+005   3.3849e+002   7.4870e+004    0.0018   -0.0000    0.0000   -0.0000    0.0012
                0.6484   9.2538e-006  -3.6795e-006   1.0778e-005   2.5924e+005   3.3468e+002   7.5443e+004    0.0018   -0.0000    0.0000   -0.0000    0.0013

               lamina:  2     
              matName:  (LEP-core)
                     s           e11           e22           e12           s11           s22           s12   s11_fcT   s11_fcC   s22_fcT   s22_fcC   s12_fcS
                   (m)         (m/m)         (m/m)         (rad)          (Pa)          (Pa)          (Pa)       (-)       (-)       (-)       (-)       (-)
                0.0000   2.0749e-005  -8.2510e-006   2.1487e-006   5.2211e+003  -5.7893e+002   4.2973e+001    0.0000   -0.0000    0.0000    0.0000    0.0000
                0.0520   1.9932e-005  -7.9258e-006   7.4307e-007   5.0154e+003  -5.5611e+002   1.4861e+001    0.0000   -0.0000    0.0000    0.0000    0.0000
                0.0924   1.9106e-005  -7.5974e-006   3.0540e-007   4.8077e+003  -5.3303e+002   6.1080e+000    0.0000   -0.0000    0.0000    0.0000    0.0000
                0.1475   1.8093e-005  -7.1947e-006   1.6721e-006   4.5528e+003  -5.0479e+002   3.3442e+001    0.0000   -0.0000    0.0000    0.0000    0.0000
                0.2186   1.6800e-005  -6.6807e-006   3.3244e-006   4.2275e+003  -4.6873e+002   6.6487e+001    0.0000   -0.0000    0.0000    0.0000    0.0000
                0.3045   1.5267e-005  -6.0712e-006   5.1567e-006   3.8418e+003  -4.2598e+002   1.0313e+002    0.0000   -0.0000    0.0000    0.0000    0.0000
                0.4041   1.3536e-005  -5.3827e-006   7.0620e-006   3.4061e+003  -3.7768e+002   1.4124e+002    0.0000   -0.0000    0.0000    0.0000    0.0000
                0.5169   1.1624e-005  -4.6223e-006   8.9431e-006   2.9249e+003  -3.2433e+002   1.7886e+002    0.0000   -0.0000    0.0000    0.0000    0.0000
                0.6419   9.5535e-006  -3.7991e-006   1.0696e-005   2.4039e+003  -2.6658e+002   2.1391e+002    0.0000   -0.0000    0.0000    0.0000    0.0000
                0.6484   9.4571e-006  -3.7608e-006   1.0778e-005   2.3797e+003  -2.6390e+002   2.1555e+002    0.0000   -0.0000    0.0000    0.0000    0.0000

               lamina:  3     
              matName:  (blade-shell)
                     s           e11           e22           e12           s11           s22           s12   s11_fcT   s11_fcC   s22_fcT   s22_fcC   s12_fcS
                   (m)         (m/m)         (m/m)         (rad)          (Pa)          (Pa)          (Pa)       (-)       (-)       (-)       (-)       (-)
                0.0000   2.0515e-005  -8.1573e-006   2.1487e-006   5.7471e+005   7.3873e+002   1.5041e+004    0.0040   -0.0000    0.0000   -0.0000    0.0003
                0.0520   1.9769e-005  -7.8608e-006   7.4307e-007   5.5381e+005   7.1094e+002   5.2015e+003    0.0038   -0.0000    0.0000   -0.0000    0.0001
                0.0924   1.9094e-005  -7.5926e-006   3.0540e-007   5.3490e+005   6.8452e+002   2.1378e+003    0.0037   -0.0000    0.0000   -0.0000    0.0000
                0.1475   1.8115e-005  -7.2036e-006   1.6721e-006   5.0749e+005   6.4775e+002   1.1705e+004    0.0035   -0.0000    0.0000   -0.0000    0.0002
                0.2186   1.6839e-005  -6.6959e-006   3.3244e-006   4.7172e+005   6.0092e+002   2.3270e+004    0.0033   -0.0000    0.0000   -0.0000    0.0004
                0.3045   1.5318e-005  -6.0914e-006   5.1567e-006   4.2913e+005   5.4557e+002   3.6097e+004    0.0030   -0.0000    0.0000   -0.0000    0.0006
                0.4041   1.3597e-005  -5.4070e-006   7.0620e-006   3.8091e+005   4.8319e+002   4.9434e+004    0.0026   -0.0000    0.0000   -0.0000    0.0008
                0.5169   1.1692e-005  -4.6497e-006   8.9431e-006   3.2755e+005   4.1440e+002   6.2602e+004    0.0023   -0.0000    0.0000   -0.0000    0.0010
                0.6419   9.6260e-006  -3.8280e-006   1.0696e-005   2.6966e+005   3.4008e+002   7.4870e+004    0.0019   -0.0000    0.0000   -0.0000    0.0012
                0.6484   9.5363e-006  -3.7924e-006   1.0778e-005   2.6715e+005   3.3642e+002   7.5443e+004    0.0019   -0.0000    0.0000   -0.0000    0.0013

            panel:  2     
           lam_num    nPlies        tPly      fibAng     matID  matName
               (-)       (-)         (m)       (deg)       (-)  (-)
                 1         1    0.005000      0.0000         2  (blade-shell)
                 2         1    0.006423      0.0000         3  (spar-uni)
                 3         1    0.000002      0.0000         4  (spar-core)
                 4         1    0.006423      0.0000         3  (spar-uni)
                 5         1    0.005000      0.0000         2  (blade-shell)

               lamina:  1     
              matName:  (blade-shell)
                     s           e11           e22           e12           s11           s22           s12   s11_fcT   s11_fcC   s22_fcT   s22_fcC   s12_fcS
                   (m)         (m/m)         (m/m)         (rad)          (Pa)          (Pa)          (Pa)       (-)       (-)       (-)       (-)       (-)
                0.0000   9.1328e-006  -3.0422e-006   9.7270e-006   2.5944e+005   9.2973e+003   6.8089e+004    0.0018   -0.0000    0.0000   -0.0000    0.0011
                0.1286   7.0540e-006  -2.3470e-006   1.2406e-005   2.0040e+005   7.2223e+003   8.6839e+004    0.0014   -0.0000    0.0000   -0.0000    0.0014
                0.2735   4.7749e-006  -1.5846e-006   1.4638e-005   1.3568e+005   4.9515e+003   1.0247e+005    0.0009   -0.0000    0.0000   -0.0000    0.0017
                0.4265   2.4431e-006  -8.0452e-007   1.6119e-005   6.9457e+004   2.6282e+003   1.1283e+005    0.0005   -0.0000    0.0000   -0.0000    0.0019
                0.5860  -1.1237e-007   6.0272e-008   1.6737e-005   3.1011e+003   3.0096e+002   1.1716e+005    0.0000   -0.0000    0.0000   -0.0000    0.0020
                0.7505  -2.4247e-006   8.3454e-007   1.6429e-005  -6.8715e+004  -2.0593e+003   1.1500e+005    0.0000    0.0003    0.0000    0.0000    0.0019
                0.9189  -4.6520e-006   1.5803e-006   1.5171e-005  -1.3196e+005  -4.2685e+003   1.0619e+005    0.0000    0.0006    0.0000    0.0000    0.0018
                1.0899  -6.7805e-006   2.2927e-006   1.2972e-005  -1.9241e+005  -6.3838e+003   9.0801e+004    0.0000    0.0009    0.0000    0.0000    0.0015
                1.2619  -8.8174e-006   2.9742e-006   9.8728e-006  -2.5025e+005  -8.4126e+003   6.9109e+004    0.0000    0.0012    0.0000    0.0000    0.0012
                1.3616  -9.9485e-006   3.3526e-006   7.6824e-006  -2.8237e+005  -9.5379e+003   5.3777e+004    0.0000    0.0013    0.0000    0.0000    0.0009

               lamina:  2     
              matName:  (spar-uni)
                     s           e11           e22           e12           s11           s22           s12   s11_fcT   s11_fcC   s22_fcT   s22_fcC   s12_fcS
                   (m)         (m/m)         (m/m)         (rad)          (Pa)          (Pa)          (Pa)       (-)       (-)       (-)       (-)       (-)
                0.0000   9.3554e-006  -3.1267e-006   9.7270e-006   3.9089e+005  -7.2907e+003   2.9181e+004    0.0004   -0.0000    0.0000    0.0000    0.0010
                0.1286   7.2856e-006  -2.4349e-006   1.2406e-005   3.0441e+005  -5.6777e+003   3.7217e+004    0.0003   -0.0000    0.0000    0.0000    0.0012
                0.2735   5.0223e-006  -1.6785e-006   1.4638e-005   2.0984e+005  -3.9138e+003   4.3915e+004    0.0002   -0.0000    0.0000    0.0000    0.0015
                0.4265   2.7067e-006  -9.0460e-007   1.6119e-005   1.1309e+005  -2.1093e+003   4.8357e+004    0.0001   -0.0000    0.0000    0.0000    0.0016
                0.5860   3.8758e-007  -1.2953e-007   1.6737e-005   1.6194e+004  -3.0201e+002   5.0212e+004    0.0000   -0.0000    0.0000    0.0000    0.0017
                0.7505  -2.1916e-006   7.4606e-007   1.6429e-005  -9.1515e+004   1.9035e+003   4.9288e+004    0.0000    0.0001    0.0000   -0.0000    0.0016
                0.9189  -4.4058e-006   1.4868e-006   1.5171e-005  -1.8403e+005   3.6401e+003   4.5512e+004    0.0000    0.0003    0.0000   -0.0000    0.0015
                1.0899  -6.5244e-006   2.1955e-006   1.2972e-005  -2.7254e+005   5.2994e+003   3.8915e+004    0.0000    0.0004    0.0000   -0.0000    0.0013
                1.2619  -8.5547e-006   2.8744e-006   9.8728e-006  -3.5737e+005   6.8872e+003   2.9618e+004    0.0000    0.0005    0.0000   -0.0000    0.0010
                1.3616  -9.6813e-006   3.2512e-006   7.6824e-006  -4.0444e+005   7.7689e+003   2.3047e+004    0.0000    0.0006    0.0000   -0.0000    0.0008

               lamina:  3     
              matName:  (spar-core)
                     s           e11           e22           e12           s11           s22           s12   s11_fcT   s11_fcC   s22_fcT   s22_fcC   s12_fcS
                   (m)         (m/m)         (m/m)         (rad)          (Pa)          (Pa)          (Pa)       (-)       (-)       (-)       (-)       (-)
                0.0000   9.3555e-006  -3.1267e-006   9.7270e-006   2.4050e+003  -9.1443e+001   1.9454e+002    0.0000   -0.0000    0.0000    0.0000    0.0000
                0.1286   7.2857e-006  -2.4349e-006   1.2406e-005   1.8729e+003  -7.1212e+001   2.4811e+002    0.0000   -0.0000    0.0000    0.0000    0.0000
                0.2735   5.0223e-006  -1.6785e-006   1.4638e-005   1.2911e+003  -4.9090e+001   2.9277e+002    0.0000   -0.0000    0.0000    0.0000    0.0000
                0.4265   2.7068e-006  -9.0463e-007   1.6119e-005   6.9583e+002  -2.6457e+001   3.2238e+002    0.0000   -0.0000    0.0000    0.0000    0.0000
                0.5860   3.8767e-007  -1.2956e-007   1.6737e-005   9.9656e+001  -3.7897e+000   3.3475e+002    0.0000   -0.0000    0.0000    0.0000    0.0000
                0.7505  -1.8922e-006   6.3239e-007   1.6429e-005  -4.8642e+002   1.8495e+001   3.2858e+002    0.0000    0.0000    0.0000   -0.0000    0.0000
                0.9189  -4.0896e-006   1.3668e-006   1.5171e-005  -1.0513e+003   3.9973e+001   3.0341e+002    0.0000    0.0000    0.0000   -0.0000    0.0000
                1.0899  -6.1954e-006   2.0706e-006   1.2972e-005  -1.5926e+003   6.0556e+001   2.5943e+002    0.0000    0.0000    0.0000   -0.0000    0.0000
                1.2619  -8.2171e-006   2.7462e-006   9.8728e-006  -2.1124e+003   8.0317e+001   1.9746e+002    0.0000    0.0000    0.0000   -0.0000    0.0000
                1.3616  -9.3380e-006   3.1209e-006   7.6824e-006  -2.4005e+003   9.1272e+001   1.5365e+002    0.0000    0.0000    0.0000   -0.0000    0.0000

               lamina:  4     
              matName:  (spar-uni)
                     s           e11           e22           e12           s11           s22           s12   s11_fcT   s11_fcC   s22_fcT   s22_fcC   s12_fcS
                   (m)         (m/m)         (m/m)         (rad)          (Pa)          (Pa)          (Pa)       (-)       (-)       (-)       (-)       (-)
                0.0000   9.5781e-006  -3.2112e-006   9.7270e-006   4.0015e+005  -7.6096e+003   2.9181e+004    0.0004   -0.0000    0.0000    0.0000    0.0010
                0.1286   7.5173e-006  -2.5229e-006   1.2406e-005   3.1404e+005  -6.0095e+003   3.7217e+004    0.0003   -0.0000    0.0000    0.0000    0.0012
                0.2735   5.2697e-006  -1.7724e-006   1.4638e-005   2.2013e+005  -4.2683e+003   4.3915e+004    0.0002   -0.0000    0.0000    0.0000    0.0015
                0.4265   2.9704e-006  -1.0047e-006   1.6119e-005   1.2406e+005  -2.4870e+003   4.8357e+004    0.0001   -0.0000    0.0000    0.0000    0.0016
                0.5860   6.6879e-007  -2.3629e-007   1.6737e-005   2.7892e+004  -7.0482e+002   5.0212e+004    0.0000   -0.0000    0.0000    0.0000    0.0017
                0.7505  -1.8921e-006   6.3236e-007   1.6429e-005  -7.9056e+004   1.4745e+003   4.9288e+004    0.0000    0.0001    0.0000   -0.0000    0.0016
                0.9189  -4.0895e-006   1.3667e-006   1.5171e-005  -1.7086e+005   3.1869e+003   4.5512e+004    0.0000    0.0002    0.0000   -0.0000    0.0015
                1.0899  -6.1953e-006   2.0705e-006   1.2972e-005  -2.5885e+005   4.8280e+003   3.8915e+004    0.0000    0.0004    0.0000   -0.0000    0.0013
                1.2619  -8.2170e-006   2.7462e-006   9.8728e-006  -3.4332e+005   6.4035e+003   2.9618e+004    0.0000    0.0005    0.0000   -0.0000    0.0010
                1.3616  -9.3379e-006   3.1208e-006   7.6824e-006  -3.9015e+005   7.2770e+003   2.3047e+004    0.0000    0.0006    0.0000   -0.0000    0.0008

               lamina:  5     
              matName:  (blade-shell)
                     s           e11           e22           e12           s11           s22           s12   s11_fcT   s11_fcC   s22_fcT   s22_fcC   s12_fcS
                   (m)         (m/m)         (m/m)         (rad)          (Pa)          (Pa)          (Pa)       (-)       (-)       (-)       (-)       (-)
                0.0000   9.7514e-006  -3.2770e-006   9.7270e-006   2.7683e+005   9.4889e+003   6.8089e+004    0.0019   -0.0000    0.0000   -0.0000    0.0011
                0.1286   7.6975e-006  -2.5913e-006   1.2406e-005   2.1850e+005   7.4217e+003   8.6839e+004    0.0015   -0.0000    0.0000   -0.0000    0.0014
                0.2735   5.4623e-006  -1.8455e-006   1.4638e-005   1.5501e+005   5.1644e+003   1.0247e+005    0.0011   -0.0000    0.0000   -0.0000    0.0017
                0.4265   3.1756e-006  -1.0826e-006   1.6119e-005   9.0059e+004   2.8551e+003   1.1283e+005    0.0006   -0.0000    0.0000   -0.0000    0.0019
                0.5860   8.8762e-007  -3.1937e-007   1.6737e-005   2.5070e+004   5.4297e+002   1.1716e+005    0.0002   -0.0000    0.0000   -0.0000    0.0020
                0.7505  -1.5927e-006   5.1869e-007   1.6429e-005  -4.5316e+004  -1.8016e+003   1.1500e+005    0.0000    0.0002    0.0000    0.0000    0.0019
                0.9189  -3.7732e-006   1.2467e-006   1.5171e-005  -1.0725e+005  -3.9962e+003   1.0619e+005    0.0000    0.0005    0.0000    0.0000    0.0018
                1.0899  -5.8663e-006   1.9456e-006   1.2972e-005  -1.6670e+005  -6.1006e+003   9.0801e+004    0.0000    0.0008    0.0000    0.0000    0.0015
                1.2619  -7.8795e-006   2.6181e-006   9.8728e-006  -2.2387e+005  -8.1220e+003   6.9109e+004    0.0000    0.0011    0.0000    0.0000    0.0012
                1.3616  -8.9946e-006   2.9905e-006   7.6824e-006  -2.5555e+005  -9.2423e+003   5.3777e+004    0.0000    0.0012    0.0000    0.0000    0.0009

            panel:  3     
           lam_num    nPlies        tPly      fibAng     matID  matName
               (-)       (-)         (m)       (deg)       (-)  (-)
                 1         1    0.005000      0.0000         2  (blade-shell)
                 2         1    0.010000      0.0000         6  (TEP-core)
                 3         1    0.005000      0.0000         2  (blade-shell)

               lamina:  1     
              matName:  (blade-shell)
                     s           e11           e22           e12           s11           s22           s12   s11_fcT   s11_fcC   s22_fcT   s22_fcC   s12_fcS
                   (m)         (m/m)         (m/m)         (rad)          (Pa)          (Pa)          (Pa)       (-)       (-)       (-)       (-)       (-)
                0.0000  -9.6211e-006   3.8311e-006   1.1878e-005  -2.6950e+005  -2.6355e+002   8.3147e+004    0.0000    0.0013    0.0000    0.0000    0.0014
                0.0003  -9.6249e-006   3.8326e-006   1.1874e-005  -2.6960e+005  -2.6366e+002   8.3118e+004    0.0000    0.0013    0.0000    0.0000    0.0014

               lamina:  2     
              matName:  (TEP-core)
                     s           e11           e22           e12           s11           s22           s12   s11_fcT   s11_fcC   s22_fcT   s22_fcC   s12_fcS
                   (m)         (m/m)         (m/m)         (rad)          (Pa)          (Pa)          (Pa)       (-)       (-)       (-)       (-)       (-)
                0.0000  -9.4903e-006   3.7788e-006   1.1878e-005  -2.3876e+003   2.6621e+002   2.3756e+002    0.0000    0.0000    0.0000   -0.0000    0.0000
                0.0003  -9.4941e-006   3.7803e-006   1.1874e-005  -2.3886e+003   2.6632e+002   2.3748e+002    0.0000    0.0000    0.0000   -0.0000    0.0000

               lamina:  3     
              matName:  (blade-shell)
                     s           e11           e22           e12           s11           s22           s12   s11_fcT   s11_fcC   s22_fcT   s22_fcC   s12_fcS
                   (m)         (m/m)         (m/m)         (rad)          (Pa)          (Pa)          (Pa)       (-)       (-)       (-)       (-)       (-)
                0.0000  -9.2287e-006   3.6743e-006   1.1878e-005  -2.5851e+005  -2.6195e+002   8.3147e+004    0.0000    0.0012    0.0000    0.0000    0.0014
                0.0003  -9.2325e-006   3.6758e-006   1.1874e-005  -2.5862e+005  -2.6206e+002   8.3118e+004    0.0000    0.0012    0.0000    0.0000    0.0014

            panel:  4     
           lam_num    nPlies        tPly      fibAng     matID  matName
               (-)       (-)         (m)       (deg)       (-)  (-)
                 1         1    0.005000      0.0000         2  (blade-shell)
                 2         1    0.010000      0.0000         6  (TEP-core)
                 3         1    0.005000      0.0000         2  (blade-shell)

               lamina:  1     
              matName:  (blade-shell)
                     s           e11           e22           e12           s11           s22           s12   s11_fcT   s11_fcC   s22_fcT   s22_fcC   s12_fcS
                   (m)         (m/m)         (m/m)         (rad)          (Pa)          (Pa)          (Pa)       (-)       (-)       (-)       (-)       (-)
                0.0000  -9.6249e-006   3.8326e-006   2.3869e-005  -2.6960e+005  -2.6366e+002   1.6708e+005    0.0000    0.0013    0.0000    0.0000    0.0028
                0.0708  -1.0424e-005   4.1507e-006   2.3864e-005  -2.9198e+005  -2.8597e+002   1.6705e+005    0.0000    0.0014    0.0000    0.0000    0.0028
                0.2390  -1.2246e-005   4.8761e-006   2.3864e-005  -3.4301e+005  -3.3699e+002   1.6705e+005    0.0000    0.0016    0.0000    0.0000    0.0028
                0.4023  -1.3963e-005   5.5600e-006   2.2944e-005  -3.9112e+005  -3.8507e+002   1.6061e+005    0.0000    0.0018    0.0000    0.0000    0.0027
                0.5589  -1.5561e-005   6.1961e-006   2.0464e-005  -4.3588e+005  -4.2981e+002   1.4325e+005    0.0000    0.0020    0.0000    0.0000    0.0024
                0.7068  -1.7044e-005   6.7866e-006   1.7673e-005  -4.7742e+005  -4.7136e+002   1.2371e+005    0.0000    0.0022    0.0000    0.0000    0.0021
                0.8441  -1.8404e-005   7.3280e-006   1.4652e-005  -5.1551e+005  -5.0948e+002   1.0256e+005    0.0000    0.0024    0.0000    0.0000    0.0017
                0.9691  -1.9635e-005   7.8182e-006   1.1496e-005  -5.5000e+005  -5.4400e+002   8.0475e+004    0.0000    0.0026    0.0000    0.0000    0.0013
                1.0804  -2.0731e-005   8.2547e-006   8.3063e-006  -5.8070e+005  -5.7475e+002   5.8144e+004    0.0000    0.0027    0.0000    0.0000    0.0010
                1.1767  -2.1682e-005   8.6334e-006   5.1847e-006  -6.0734e+005  -6.0141e+002   3.6293e+004    0.0000    0.0029    0.0000    0.0000    0.0006
                1.2570  -2.2467e-005   8.9459e-006   2.2335e-006  -6.2933e+005  -6.2338e+002   1.5634e+004    0.0000    0.0030    0.0000    0.0000    0.0003
                1.3207  -2.3075e-005   9.1880e-006   4.4977e-007  -6.4636e+005  -6.4043e+002   3.1484e+003    0.0000    0.0030    0.0000    0.0000    0.0001
                1.3667  -2.3522e-005   9.3657e-006   2.7817e-006  -6.5887e+005  -6.5302e+002   1.9472e+004    0.0000    0.0031    0.0000    0.0000    0.0003
                1.3944  -2.3800e-005   9.4764e-006   4.6899e-006  -6.6665e+005  -6.6088e+002   3.2829e+004    0.0000    0.0031    0.0000    0.0000    0.0005
                1.4037  -2.3894e-005   9.5138e-006   6.1006e-006  -6.6929e+005  -6.6354e+002   4.2704e+004    0.0000    0.0031    0.0000    0.0000    0.0007

               lamina:  2     
              matName:  (TEP-core)
                     s           e11           e22           e12           s11           s22           s12   s11_fcT   s11_fcC   s22_fcT   s22_fcC   s12_fcS
                   (m)         (m/m)         (m/m)         (rad)          (Pa)          (Pa)          (Pa)       (-)       (-)       (-)       (-)       (-)
                0.0000  -9.4941e-006   3.7803e-006   2.3869e-005  -2.3886e+003   2.6632e+002   4.7737e+002    0.0000    0.0000    0.0000   -0.0000    0.0000
                0.0708  -1.0291e-005   4.0977e-006   2.3864e-005  -2.5891e+003   2.8867e+002   4.7729e+002    0.0000    0.0000    0.0000   -0.0000    0.0000
                0.2390  -1.2111e-005   4.8224e-006   2.3864e-005  -3.0470e+003   3.3972e+002   4.7729e+002    0.0000    0.0000    0.0000   -0.0000    0.0000
                0.4023  -1.3827e-005   5.5055e-006   2.2944e-005  -3.4787e+003   3.8784e+002   4.5889e+002    0.0000    0.0000    0.0000   -0.0000    0.0000
                0.5589  -1.5423e-005   6.1412e-006   2.0464e-005  -3.8803e+003   4.3261e+002   4.0929e+002    0.0000    0.0000    0.0000   -0.0000    0.0000
                0.7068  -1.6906e-005   6.7313e-006   1.7673e-005  -4.2532e+003   4.7418e+002   3.5347e+002    0.0000    0.0000    0.0000   -0.0000    0.0000
                0.8441  -1.8265e-005   7.2725e-006   1.4652e-005  -4.5952e+003   5.1230e+002   2.9304e+002    0.0000    0.0000    0.0000   -0.0000    0.0000
                0.9691  -1.9496e-005   7.7627e-006   1.1496e-005  -4.9049e+003   5.4683e+002   2.2993e+002    0.0000    0.0000    0.0000   -0.0000    0.0000
                1.0804  -2.0592e-005   8.1992e-006   8.3063e-006  -5.1807e+003   5.7757e+002   1.6613e+002    0.0000    0.0000    0.0000   -0.0000    0.0000
                1.1767  -2.1543e-005   8.5778e-006   5.1847e-006  -5.4199e+003   6.0424e+002   1.0369e+002    0.0000    0.0000    0.0000   -0.0000    0.0000
                1.2570  -2.2327e-005   8.8899e-006   2.2335e-006  -5.6172e+003   6.2623e+002   4.4669e+001    0.0000    0.0000    0.0000   -0.0000    0.0000
                1.3207  -2.2935e-005   9.1320e-006   4.4977e-007  -5.7702e+003   6.4328e+002   8.9954e+000    0.0000    0.0000    0.0000   -0.0000    0.0000
                1.3667  -2.3383e-005   9.3103e-006   2.7817e-006  -5.8828e+003   6.5584e+002   5.5634e+001    0.0000    0.0000    0.0000   -0.0000    0.0000
                1.3944  -2.3663e-005   9.4216e-006   4.6899e-006  -5.9532e+003   6.6367e+002   9.3798e+001    0.0000    0.0000    0.0000   -0.0000    0.0000
                1.4037  -2.3757e-005   9.4592e-006   6.1006e-006  -5.9769e+003   6.6632e+002   1.2201e+002    0.0000    0.0000    0.0000   -0.0000    0.0000

               lamina:  3     
              matName:  (blade-shell)
                     s           e11           e22           e12           s11           s22           s12   s11_fcT   s11_fcC   s22_fcT   s22_fcC   s12_fcS
                   (m)         (m/m)         (m/m)         (rad)          (Pa)          (Pa)          (Pa)       (-)       (-)       (-)       (-)       (-)
                0.0000  -9.2325e-006   3.6758e-006   2.3869e-005  -2.5862e+005  -2.6206e+002   1.6708e+005    0.0000    0.0012    0.0000    0.0000    0.0028
                0.0708  -1.0026e-005   3.9917e-006   2.3864e-005  -2.8084e+005  -2.8435e+002   1.6705e+005    0.0000    0.0013    0.0000    0.0000    0.0028
                0.2390  -1.1843e-005   4.7150e-006   2.3864e-005  -3.3173e+005  -3.3534e+002   1.6705e+005    0.0000    0.0016    0.0000    0.0000    0.0028
                0.4023  -1.3555e-005   5.3967e-006   2.2944e-005  -3.7969e+005  -3.8340e+002   1.6061e+005    0.0000    0.0018    0.0000    0.0000    0.0027
                0.5589  -1.5149e-005   6.0313e-006   2.0464e-005  -4.2433e+005  -4.2813e+002   1.4325e+005    0.0000    0.0020    0.0000    0.0000    0.0024
                0.7068  -1.6629e-005   6.6208e-006   1.7673e-005  -4.6580e+005  -4.6968e+002   1.2371e+005    0.0000    0.0022    0.0000    0.0000    0.0021
                0.8441  -1.7987e-005   7.1616e-006   1.4652e-005  -5.0385e+005  -5.0778e+002   1.0256e+005    0.0000    0.0024    0.0000    0.0000    0.0017
                0.9691  -1.9218e-005   7.6517e-006   1.1496e-005  -5.3833e+005  -5.4231e+002   8.0475e+004    0.0000    0.0025    0.0000    0.0000    0.0013
                1.0804  -2.0315e-005   8.0882e-006   8.3063e-006  -5.6904e+005  -5.7305e+002   5.8144e+004    0.0000    0.0027    0.0000    0.0000    0.0010
                1.1767  -2.1265e-005   8.4666e-006   5.1847e-006  -5.9566e+005  -5.9971e+002   3.6293e+004    0.0000    0.0028    0.0000    0.0000    0.0006
                1.2570  -2.2047e-005   8.7781e-006   2.2335e-006  -6.1758e+005  -6.2167e+002   1.5634e+004    0.0000    0.0029    0.0000    0.0000    0.0003
                1.3207  -2.2655e-005   9.0201e-006   4.4977e-007  -6.3460e+005  -6.3872e+002   3.1484e+003    0.0000    0.0030    0.0000    0.0000    0.0001
                1.3667  -2.3106e-005   9.1996e-006   2.7817e-006  -6.4723e+005  -6.5132e+002   1.9472e+004    0.0000    0.0030    0.0000    0.0000    0.0003
                1.3944  -2.3388e-005   9.3120e-006   4.6899e-006  -6.5514e+005  -6.5921e+002   3.2829e+004    0.0000    0.0031    0.0000    0.0000    0.0005
                1.4037  -2.3484e-005   9.3500e-006   6.1006e-006  -6.5781e+005  -6.6188e+002   4.2704e+004    0.0000    0.0031    0.0000    0.0000    0.0007

  Bottom:  panel  nNode   nLam     xc_St    xc_End         b         t         E_eff         G_eff      nu_eff     density  buckleCrit
            (-)    (-)    (-)       (-)       (-)       (m)       (m)          (Pa)          (Pa)         (-)    (kg/m^3)         (-)
              1     10      3    0.0000    0.1676    0.5760    0.0228   1.2403e+010   3.0751e+009      0.3976    922.2031      0.0000
              2     10      5    0.1676    0.5824    1.3577    0.0228   3.5922e+010   4.7504e+009      0.3342   1889.2132      0.0001
              3      2      3    0.5824    0.5825    0.0003    0.0200   1.4131e+010   3.5100e+009      0.3982   1025.0000      0.0000
              4     15      3    0.5825    1.0000    1.3758    0.0200   1.4131e+010   3.5100e+009      0.3982   1025.0000      0.0054

            panel:  1     
           lam_num    nPlies        tPly      fibAng     matID  matName
               (-)       (-)         (m)       (deg)       (-)  (-)
                 1         1    0.005000      0.0000         2  (blade-shell)
                 2         1    0.012847      0.0000         5  (LEP-core)
                 3         1    0.005000      0.0000         2  (blade-shell)

               lamina:  1     
              matName:  (blade-shell)
                     s           e11           e22           e12           s11           s22           s12   s11_fcT   s11_fcC   s22_fcT   s22_fcC   s12_fcS
                   (m)         (m/m)         (m/m)         (rad)          (Pa)          (Pa)          (Pa)       (-)       (-)       (-)       (-)       (-)
                0.0000   2.0886e-005  -8.3060e-006   2.1487e-006   5.8512e+005   7.3878e+002   1.5041e+004    0.0041   -0.0000    0.0000   -0.0000    0.0003
                0.0183   2.1014e-005  -8.3567e-006   2.6535e-006   5.8868e+005   7.4289e+002   1.8574e+004    0.0041   -0.0000    0.0000   -0.0000    0.0003
                0.0536   2.1007e-005  -8.3541e-006   3.6260e-006   5.8850e+005   7.4275e+002   2.5382e+004    0.0041   -0.0000    0.0000   -0.0000    0.0004
                0.1017   2.0716e-005  -8.2383e-006   4.9447e-006   5.8035e+005   7.3297e+002   3.4613e+004    0.0040   -0.0000    0.0000   -0.0000    0.0006
                0.1654   2.0155e-005  -8.0152e-006   6.6539e-006   5.6463e+005   7.1339e+002   4.6577e+004    0.0039   -0.0000    0.0000   -0.0000    0.0008
                0.2449   1.9363e-005  -7.7000e-006   8.7209e-006   5.4243e+005   6.8535e+002   6.1046e+004    0.0038   -0.0000    0.0000   -0.0000    0.0010
                0.3393   1.8332e-005  -7.2902e-006   1.1059e-005   5.1356e+005   6.4872e+002   7.7415e+004    0.0036   -0.0000    0.0000   -0.0000    0.0013
                0.4478   1.7081e-005  -6.7925e-006   1.3583e-005   4.7850e+005   6.0410e+002   9.5082e+004    0.0033   -0.0000    0.0000   -0.0000    0.0016
                0.5694   1.5624e-005  -6.2132e-006   1.6194e-005   4.3769e+005   5.5200e+002   1.1336e+005    0.0030   -0.0000    0.0000   -0.0000    0.0019
                0.5760   1.5535e-005  -6.1780e-006   1.6330e-005   4.3521e+005   5.4901e+002   1.1431e+005    0.0030   -0.0000    0.0000   -0.0000    0.0019

               lamina:  2     
              matName:  (LEP-core)
                     s           e11           e22           e12           s11           s22           s12   s11_fcT   s11_fcC   s22_fcT   s22_fcC   s12_fcS
                   (m)         (m/m)         (m/m)         (rad)          (Pa)          (Pa)          (Pa)       (-)       (-)       (-)       (-)       (-)
                0.0000   2.0742e-005  -8.2483e-006   2.1487e-006   5.2193e+003  -5.7877e+002   4.2973e+001    0.0000   -0.0000    0.0000    0.0000    0.0000
                0.0183   2.0863e-005  -8.2963e-006   2.6535e-006   5.2496e+003  -5.8214e+002   5.3069e+001    0.0000   -0.0000    0.0000    0.0000    0.0000
                0.0536   2.0857e-005  -8.2942e-006   3.6260e-006   5.2483e+003  -5.8200e+002   7.2520e+001    0.0000   -0.0000    0.0000    0.0000    0.0000
                0.1017   2.0576e-005  -8.1823e-006   4.9447e-006   5.1775e+003  -5.7414e+002   9.8893e+001    0.0000   -0.0000    0.0000    0.0000    0.0000
                0.1654   2.0023e-005  -7.9622e-006   6.6539e-006   5.0383e+003  -5.5870e+002   1.3308e+002    0.0000   -0.0000    0.0000    0.0000    0.0000
                0.2449   1.9235e-005  -7.6492e-006   8.7209e-006   4.8402e+003  -5.3673e+002   1.7442e+002    0.0000   -0.0000    0.0000    0.0000    0.0000
                0.3393   1.8209e-005  -7.2412e-006   1.1059e-005   4.5820e+003  -5.0811e+002   2.2119e+002    0.0000   -0.0000    0.0000    0.0000    0.0000
                0.4478   1.6962e-005  -6.7450e-006   1.3583e-005   4.2680e+003  -4.7329e+002   2.7166e+002    0.0000   -0.0000    0.0000    0.0000    0.0000
                0.5694   1.5506e-005  -6.1663e-006   1.6194e-005   3.9018e+003  -4.3269e+002   3.2388e+002    0.0000   -0.0000    0.0000    0.0000    0.0000
                0.5760   1.5421e-005  -6.1322e-006   1.6330e-005   3.8802e+003  -4.3029e+002   3.2660e+002    0.0000   -0.0000    0.0000    0.0000    0.0000

               lamina:  3     
              matName:  (blade-shell)
                     s           e11           e22           e12           s11           s22           s12   s11_fcT   s11_fcC   s22_fcT   s22_fcC   s12_fcS
                   (m)         (m/m)         (m/m)         (rad)          (Pa)          (Pa)          (Pa)       (-)       (-)       (-)       (-)       (-)
                0.0000   2.0371e-005  -8.0999e-006   2.1487e-006   5.7067e+005   7.3561e+002   1.5041e+004    0.0040   -0.0000    0.0000   -0.0000    0.0003
                0.0183   2.0474e-005  -8.1410e-006   2.6535e-006   5.7357e+005   7.3957e+002   1.8574e+004    0.0040   -0.0000    0.0000   -0.0000    0.0003
                0.0536   2.0473e-005  -8.1405e-006   3.6260e-006   5.7353e+005   7.3946e+002   2.5382e+004    0.0040   -0.0000    0.0000   -0.0000    0.0004
                0.1017   2.0216e-005  -8.0383e-006   4.9447e-006   5.6633e+005   7.2989e+002   3.4613e+004    0.0039   -0.0000    0.0000   -0.0000    0.0006
                0.1654   1.9682e-005  -7.8262e-006   6.6539e-006   5.5139e+005   7.1048e+002   4.6577e+004    0.0038   -0.0000    0.0000   -0.0000    0.0008
                0.2449   1.8909e-005  -7.5188e-006   8.7209e-006   5.2973e+005   6.8256e+002   6.1046e+004    0.0037   -0.0000    0.0000   -0.0000    0.0010
                0.3393   1.7895e-005  -7.1154e-006   1.1059e-005   5.0131e+005   6.4603e+002   7.7415e+004    0.0035   -0.0000    0.0000   -0.0000    0.0013
                0.4478   1.6656e-005  -6.6227e-006   1.3583e-005   4.6660e+005   6.0149e+002   9.5082e+004    0.0032   -0.0000    0.0000   -0.0000    0.0016
                0.5694   1.5205e-005  -6.0457e-006   1.6194e-005   4.2595e+005   5.4942e+002   1.1336e+005    0.0030   -0.0000    0.0000   -0.0000    0.0019
                0.5760   1.5126e-005  -6.0144e-006   1.6330e-005   4.2374e+005   5.4649e+002   1.1431e+005    0.0029   -0.0000    0.0000   -0.0000    0.0019

            panel:  2     
           lam_num    nPlies        tPly      fibAng     matID  matName
               (-)       (-)         (m)       (deg)       (-)  (-)
                 1         1    0.005000      0.0000         2  (blade-shell)
                 2         1    0.006423      0.0000         3  (spar-uni)
                 3         1    0.000002      0.0000         4  (spar-core)
                 4         1    0.006423      0.0000         3  (spar-uni)
                 5         1    0.005000      0.0000         2  (blade-shell)

               lamina:  1     
              matName:  (blade-shell)
                     s           e11           e22           e12           s11           s22           s12   s11_fcT   s11_fcC   s22_fcT   s22_fcC   s12_fcS
                   (m)         (m/m)         (m/m)         (rad)          (Pa)          (Pa)          (Pa)       (-)       (-)       (-)       (-)       (-)
                0.0000   1.5847e-005  -5.3223e-006   8.8432e-006   4.4990e+005   1.5469e+004   6.1902e+004    0.0031   -0.0000    0.0000   -0.0000    0.0010
                0.1263   1.4277e-005  -4.7974e-006   1.3424e-005   4.0533e+005   1.3903e+004   9.3969e+004    0.0028   -0.0000    0.0000   -0.0000    0.0016
                0.2697   1.2432e-005  -4.1799e-006   1.8016e-005   3.5291e+005   1.2064e+004   1.2611e+005    0.0025   -0.0000    0.0000   -0.0000    0.0021
                0.4218   1.0421e-005  -3.5073e-006   2.2159e-005   2.9582e+005   1.0061e+004   1.5511e+005    0.0021   -0.0000    0.0000   -0.0000    0.0026
                0.5811   8.2494e-006  -2.7806e-006   2.5670e-005   2.3414e+005   7.8997e+003   1.7969e+005    0.0016   -0.0000    0.0000   -0.0000    0.0030
                0.7458   5.9217e-006  -2.0016e-006   2.8382e-005   1.6804e+005   5.5853e+003   1.9868e+005    0.0012   -0.0000    0.0000   -0.0000    0.0033
                0.9147   3.4405e-006  -1.1713e-006   3.0157e-005   9.7582e+004   3.1177e+003   2.1110e+005    0.0007   -0.0000    0.0000   -0.0000    0.0035
                1.0862   8.5700e-007  -3.0712e-007   3.0881e-005   2.4213e+004   5.4299e+002   2.1617e+005    0.0002   -0.0000    0.0000   -0.0000    0.0036
                1.2582  -1.9644e-006   6.4511e-007   3.0492e-005  -5.5858e+004  -2.1400e+003   2.1344e+005    0.0000    0.0003    0.0000    0.0000    0.0036
                1.3577  -3.4962e-006   1.1572e-006   2.9751e-005  -9.9361e+004  -3.6715e+003   2.0826e+005    0.0000    0.0005    0.0000    0.0000    0.0035

               lamina:  2     
              matName:  (spar-uni)
                     s           e11           e22           e12           s11           s22           s12   s11_fcT   s11_fcC   s22_fcT   s22_fcC   s12_fcS
                   (m)         (m/m)         (m/m)         (rad)          (Pa)          (Pa)          (Pa)       (-)       (-)       (-)       (-)       (-)
                0.0000   1.5596e-005  -5.2269e-006   8.8432e-006   6.5156e+005  -1.2365e+004   2.6530e+004    0.0007   -0.0000    0.0000    0.0000    0.0009
                0.1263   1.4030e-005  -4.7033e-006   1.3424e-005   5.8612e+005  -1.1141e+004   4.0272e+004    0.0006   -0.0000    0.0000    0.0000    0.0013
                0.2697   1.2190e-005  -4.0881e-006   1.8016e-005   5.0926e+005  -9.7026e+003   5.4047e+004    0.0005   -0.0000    0.0000    0.0000    0.0018
                0.4218   1.0186e-005  -3.4179e-006   2.2159e-005   4.2553e+005  -8.1353e+003   6.6477e+004    0.0004   -0.0000    0.0000    0.0000    0.0022
                0.5811   8.0220e-006  -2.6943e-006   2.5670e-005   3.3512e+005  -6.4424e+003   7.7009e+004    0.0003   -0.0000    0.0000    0.0000    0.0026
                0.7458   5.7044e-006  -1.9192e-006   2.8382e-005   2.3829e+005  -4.6278e+003   8.5147e+004    0.0002   -0.0000    0.0000    0.0000    0.0028
                0.9147   3.2337e-006  -1.0928e-006   3.0157e-005   1.3506e+005  -2.6936e+003   9.0470e+004    0.0001   -0.0000    0.0000    0.0000    0.0030
                1.0862   6.5759e-007  -2.3141e-007   3.0881e-005   2.7428e+004  -6.7980e+002   9.2643e+004    0.0000   -0.0000    0.0000    0.0000    0.0031
                1.2582  -2.2152e-006   7.4033e-007   3.0492e-005  -9.2553e+004   1.7263e+003   9.1476e+004    0.0000    0.0001    0.0000   -0.0000    0.0030
                1.3577  -3.7439e-006   1.2513e-006   2.9751e-005  -1.5643e+005   2.9176e+003   8.9253e+004    0.0000    0.0002    0.0000   -0.0000    0.0030

               lamina:  3     
              matName:  (spar-core)
                     s           e11           e22           e12           s11           s22           s12   s11_fcT   s11_fcC   s22_fcT   s22_fcC   s12_fcS
                   (m)         (m/m)         (m/m)         (rad)          (Pa)          (Pa)          (Pa)       (-)       (-)       (-)       (-)       (-)
                0.0000   1.5273e-005  -5.1044e-006   8.8432e-006   3.9262e+003  -1.4928e+002   1.7686e+002    0.0000   -0.0000    0.0000    0.0000    0.0000
                0.1263   1.3711e-005  -4.5825e-006   1.3424e-005   3.5247e+003  -1.3402e+002   2.6848e+002    0.0000   -0.0000    0.0000    0.0000    0.0000
                0.2697   1.1879e-005  -3.9702e-006   1.8016e-005   3.0538e+003  -1.1611e+002   3.6031e+002    0.0000   -0.0000    0.0000    0.0000    0.0000
                0.4218   9.8835e-006  -3.3032e-006   2.2159e-005   2.5407e+003  -9.6604e+001   4.4318e+002    0.0000   -0.0000    0.0000    0.0000    0.0000
                0.5811   7.7299e-006  -2.5834e-006   2.5670e-005   1.9871e+003  -7.5554e+001   5.1339e+002    0.0000   -0.0000    0.0000    0.0000    0.0000
                0.7458   5.4253e-006  -1.8132e-006   2.8382e-005   1.3947e+003  -5.3029e+001   5.6764e+002    0.0000   -0.0000    0.0000    0.0000    0.0000
                0.9147   2.9679e-006  -9.9190e-007   3.0157e-005   7.6295e+002  -2.9009e+001   6.0314e+002    0.0000   -0.0000    0.0000    0.0000    0.0000
                1.0862   4.0141e-007  -1.3416e-007   3.0881e-005   1.0319e+002  -3.9240e+000   6.1762e+002    0.0000   -0.0000    0.0000    0.0000    0.0000
                1.2582  -2.2152e-006   7.4036e-007   3.0492e-005  -5.6947e+002   2.1653e+001   6.0984e+002    0.0000    0.0000    0.0000   -0.0000    0.0000
                1.3577  -3.7440e-006   1.2513e-006   2.9751e-005  -9.6246e+002   3.6595e+001   5.9502e+002    0.0000    0.0000    0.0000   -0.0000    0.0000

               lamina:  4     
              matName:  (spar-uni)
                     s           e11           e22           e12           s11           s22           s12   s11_fcT   s11_fcC   s22_fcT   s22_fcC   s12_fcS
                   (m)         (m/m)         (m/m)         (rad)          (Pa)          (Pa)          (Pa)       (-)       (-)       (-)       (-)       (-)
                0.0000   1.5273e-005  -5.1044e-006   8.8432e-006   6.3814e+005  -1.1902e+004   2.6530e+004    0.0007   -0.0000    0.0000    0.0000    0.0009
                0.1263   1.3711e-005  -4.5824e-006   1.3424e-005   5.7288e+005  -1.0685e+004   4.0272e+004    0.0006   -0.0000    0.0000    0.0000    0.0013
                0.2697   1.1879e-005  -3.9702e-006   1.8016e-005   4.9634e+005  -9.2575e+003   5.4047e+004    0.0005   -0.0000    0.0000    0.0000    0.0018
                0.4218   9.8834e-006  -3.3031e-006   2.2159e-005   4.1295e+005  -7.7021e+003   6.6477e+004    0.0004   -0.0000    0.0000    0.0000    0.0022
                0.5811   7.7298e-006  -2.5834e-006   2.5670e-005   3.2296e+005  -6.0238e+003   7.7009e+004    0.0003   -0.0000    0.0000    0.0000    0.0026
                0.7458   5.4252e-006  -1.8132e-006   2.8382e-005   2.2667e+005  -4.2279e+003   8.5147e+004    0.0002   -0.0000    0.0000    0.0000    0.0028
                0.9147   2.9678e-006  -9.9187e-007   3.0157e-005   1.2400e+005  -2.3128e+003   9.0470e+004    0.0001   -0.0000    0.0000    0.0000    0.0030
                1.0862   4.0133e-007  -1.3413e-007   3.0881e-005   1.6768e+004  -3.1273e+002   9.2643e+004    0.0000   -0.0000    0.0000    0.0000    0.0031
                1.2582  -2.4660e-006   8.3557e-007   3.0492e-005  -1.0299e+005   2.0856e+003   9.1476e+004    0.0000    0.0001    0.0000   -0.0000    0.0030
                1.3577  -3.9918e-006   1.3453e-006   2.9751e-005  -1.6674e+005   3.2727e+003   8.9253e+004    0.0000    0.0002    0.0000   -0.0000    0.0030

               lamina:  5     
              matName:  (blade-shell)
                     s           e11           e22           e12           s11           s22           s12   s11_fcT   s11_fcC   s22_fcT   s22_fcC   s12_fcS
                   (m)         (m/m)         (m/m)         (rad)          (Pa)          (Pa)          (Pa)       (-)       (-)       (-)       (-)       (-)
                0.0000   1.4950e-005  -4.9819e-006   8.8432e-006   4.2469e+005   1.5191e+004   6.1902e+004    0.0029   -0.0000    0.0000   -0.0000    0.0010
                0.1263   1.3393e-005  -4.4616e-006   1.3424e-005   3.8045e+005   1.3629e+004   9.3969e+004    0.0026   -0.0000    0.0000   -0.0000    0.0016
                0.2697   1.1569e-005  -3.8523e-006   1.8016e-005   3.2864e+005   1.1797e+004   1.2611e+005    0.0023   -0.0000    0.0000   -0.0000    0.0021
                0.4218   9.5810e-006  -3.1883e-006   2.2159e-005   2.7219e+005   9.8012e+003   1.5511e+005    0.0019   -0.0000    0.0000   -0.0000    0.0026
                0.5811   7.4376e-006  -2.4725e-006   2.5670e-005   2.1131e+005   7.6482e+003   1.7969e+005    0.0015   -0.0000    0.0000   -0.0000    0.0030
                0.7458   5.1461e-006  -1.7072e-006   2.8382e-005   1.4623e+005   5.3450e+003   1.9868e+005    0.0010   -0.0000    0.0000   -0.0000    0.0033
                0.9147   2.7020e-006  -8.9097e-007   3.0157e-005   7.6812e+004   2.8889e+003   2.1110e+005    0.0005   -0.0000    0.0000   -0.0000    0.0035
                1.0862   1.4515e-007   3.8834e-008   3.0881e-005   4.1932e+003   3.2245e+002   2.1617e+005    0.0000   -0.0000    0.0000   -0.0000    0.0036
                1.2582  -2.6612e-006   9.0968e-007   3.0492e-005  -7.5457e+004  -2.3559e+003   2.1344e+005    0.0000    0.0004    0.0000    0.0000    0.0036
                1.3577  -4.1846e-006   1.4186e-006   2.9751e-005  -1.1872e+005  -3.8848e+003   2.0826e+005    0.0000    0.0006    0.0000    0.0000    0.0035

            panel:  3     
           lam_num    nPlies        tPly      fibAng     matID  matName
               (-)       (-)         (m)       (deg)       (-)  (-)
                 1         1    0.005000      0.0000         2  (blade-shell)
                 2         1    0.010000      0.0000         6  (TEP-core)
                 3         1    0.005000      0.0000         2  (blade-shell)

               lamina:  1     
              matName:  (blade-shell)
                     s           e11           e22           e12           s11           s22           s12   s11_fcT   s11_fcC   s22_fcT   s22_fcC   s12_fcS
                   (m)         (m/m)         (m/m)         (rad)          (Pa)          (Pa)          (Pa)       (-)       (-)       (-)       (-)       (-)
                0.0000  -3.6340e-006   1.4468e-006   4.6000e-005  -1.0179e+005  -1.0418e+002   3.2200e+005    0.0000    0.0005    0.0000    0.0000    0.0054
                0.0003  -3.6392e-006   1.4488e-006   4.5998e-005  -1.0194e+005  -1.0432e+002   3.2199e+005    0.0000    0.0005    0.0000    0.0000    0.0054

               lamina:  2     
              matName:  (TEP-core)
                     s           e11           e22           e12           s11           s22           s12   s11_fcT   s11_fcC   s22_fcT   s22_fcC   s12_fcS
                   (m)         (m/m)         (m/m)         (rad)          (Pa)          (Pa)          (Pa)       (-)       (-)       (-)       (-)       (-)
                0.0000  -3.8228e-006   1.5222e-006   4.6000e-005  -9.6175e+002   1.0725e+002   9.1999e+002    0.0000    0.0000    0.0000   -0.0000    0.0000
                0.0003  -3.8280e-006   1.5243e-006   4.5998e-005  -9.6306e+002   1.0740e+002   9.1996e+002    0.0000    0.0000    0.0000   -0.0000    0.0000

               lamina:  3     
              matName:  (blade-shell)
                     s           e11           e22           e12           s11           s22           s12   s11_fcT   s11_fcC   s22_fcT   s22_fcC   s12_fcS
                   (m)         (m/m)         (m/m)         (rad)          (Pa)          (Pa)          (Pa)       (-)       (-)       (-)       (-)       (-)
                0.0000  -3.9172e-006   1.5600e-006   4.6000e-005  -1.0972e+005  -1.0533e+002   3.2200e+005    0.0000    0.0005    0.0000    0.0000    0.0054
                0.0003  -3.9224e-006   1.5620e-006   4.5998e-005  -1.0987e+005  -1.0548e+002   3.2199e+005    0.0000    0.0005    0.0000    0.0000    0.0054

            panel:  4     
           lam_num    nPlies        tPly      fibAng     matID  matName
               (-)       (-)         (m)       (deg)       (-)  (-)
                 1         1    0.005000      0.0000         2  (blade-shell)
                 2         1    0.010000      0.0000         6  (TEP-core)
                 3         1    0.005000      0.0000         2  (blade-shell)

               lamina:  1     
              matName:  (blade-shell)
                     s           e11           e22           e12           s11           s22           s12   s11_fcT   s11_fcC   s22_fcT   s22_fcC   s12_fcS
                   (m)         (m/m)         (m/m)         (rad)          (Pa)          (Pa)          (Pa)       (-)       (-)       (-)       (-)       (-)
                0.0000  -3.6392e-006   1.4488e-006   3.3198e-005  -1.0194e+005  -1.0432e+002   2.3238e+005    0.0000    0.0005    0.0000    0.0000    0.0039
                0.0706  -4.7249e-006   1.8811e-006   3.3196e-005  -1.3235e+005  -1.3476e+002   2.3237e+005    0.0000    0.0006    0.0000    0.0000    0.0039
                0.2377  -7.3049e-006   2.9084e-006   3.3196e-005  -2.0462e+005  -2.0710e+002   2.3237e+005    0.0000    0.0010    0.0000    0.0000    0.0039
                0.3992  -9.8008e-006   3.9021e-006   3.2794e-005  -2.7453e+005  -2.7711e+002   2.2956e+005    0.0000    0.0013    0.0000    0.0000    0.0038
                0.5533  -1.2172e-005   4.8460e-006   3.1435e-005  -3.4094e+005  -3.4362e+002   2.2005e+005    0.0000    0.0016    0.0000    0.0000    0.0037
                0.6982  -1.4383e-005   5.7266e-006   2.9576e-005  -4.0289e+005  -4.0569e+002   2.0703e+005    0.0000    0.0019    0.0000    0.0000    0.0035
                0.8322  -1.6397e-005   6.5284e-006   2.7302e-005  -4.5930e+005  -4.6224e+002   1.9111e+005    0.0000    0.0022    0.0000    0.0000    0.0032
                0.9538  -1.8189e-005   7.2417e-006   2.4722e-005  -5.0948e+005  -5.1256e+002   1.7305e+005    0.0000    0.0024    0.0000    0.0000    0.0029
                1.0620  -1.9749e-005   7.8631e-006   2.1957e-005  -5.5320e+005  -5.5641e+002   1.5370e+005    0.0000    0.0026    0.0000    0.0000    0.0026
                1.1556  -2.1057e-005   8.3839e-006   1.9139e-005  -5.8984e+005  -5.9323e+002   1.3398e+005    0.0000    0.0028    0.0000    0.0000    0.0022
                1.2338  -2.2089e-005   8.7948e-006   1.6392e-005  -6.1875e+005  -6.2233e+002   1.1475e+005    0.0000    0.0029    0.0000    0.0000    0.0019
                1.2959  -2.2860e-005   9.1016e-006   1.3835e-005  -6.4033e+005  -6.4409e+002   9.6843e+004    0.0000    0.0030    0.0000    0.0000    0.0016
                1.3411  -2.3380e-005   9.3086e-006   1.1575e-005  -6.5490e+005  -6.5880e+002   8.1028e+004    0.0000    0.0031    0.0000    0.0000    0.0014
                1.3682  -2.3678e-005   9.4275e-006   9.7078e-006  -6.6326e+005  -6.6713e+002   6.7955e+004    0.0000    0.0031    0.0000    0.0000    0.0011
                1.3758  -2.3796e-005   9.4746e-006   8.3069e-006  -6.6657e+005  -6.7010e+002   5.8148e+004    0.0000    0.0031    0.0000    0.0000    0.0010

               lamina:  2     
              matName:  (TEP-core)
                     s           e11           e22           e12           s11           s22           s12   s11_fcT   s11_fcC   s22_fcT   s22_fcC   s12_fcS
                   (m)         (m/m)         (m/m)         (rad)          (Pa)          (Pa)          (Pa)       (-)       (-)       (-)       (-)       (-)
                0.0000  -3.8280e-006   1.5243e-006   3.3198e-005  -9.6306e+002   1.0740e+002   6.6395e+002    0.0000    0.0000    0.0000   -0.0000    0.0000
                0.0706  -4.9123e-006   1.9560e-006   3.3196e-005  -1.2359e+003   1.3781e+002   6.6392e+002    0.0000    0.0000    0.0000   -0.0000    0.0000
                0.2377  -7.4916e-006   2.9830e-006   3.3196e-005  -1.8848e+003   2.1014e+002   6.6392e+002    0.0000    0.0000    0.0000   -0.0000    0.0000
                0.3992  -9.9880e-006   3.9770e-006   3.2794e-005  -2.5128e+003   2.8016e+002   6.5588e+002    0.0000    0.0000    0.0000   -0.0000    0.0000
                0.5533  -1.2361e-005   4.9217e-006   3.1435e-005  -3.1098e+003   3.4670e+002   6.2871e+002    0.0000    0.0000    0.0000   -0.0000    0.0000
                0.6982  -1.4576e-005   5.8039e-006   2.9576e-005  -3.6672e+003   4.0884e+002   5.9151e+002    0.0000    0.0000    0.0000   -0.0000    0.0000
                0.8322  -1.6596e-005   6.6080e-006   2.7302e-005  -4.1754e+003   4.6548e+002   5.4604e+002    0.0000    0.0000    0.0000   -0.0000    0.0000
                0.9538  -1.8394e-005   7.3239e-006   2.4722e-005  -4.6277e+003   5.1591e+002   4.9443e+002    0.0000    0.0000    0.0000   -0.0000    0.0000
                1.0620  -1.9962e-005   7.9482e-006   2.1957e-005  -5.0222e+003   5.5988e+002   4.3915e+002    0.0000    0.0000    0.0000   -0.0000    0.0000
                1.1556  -2.1281e-005   8.4734e-006   1.9139e-005  -5.3540e+003   5.9687e+002   3.8279e+002    0.0000    0.0000    0.0000   -0.0000    0.0000
                1.2338  -2.2326e-005   8.8895e-006   1.6392e-005  -5.6169e+003   6.2619e+002   3.2785e+002    0.0000    0.0000    0.0000   -0.0000    0.0000
                1.2959  -2.3109e-005   9.2012e-006   1.3835e-005  -5.8139e+003   6.4814e+002   2.7669e+002    0.0000    0.0000    0.0000   -0.0000    0.0000
                1.3411  -2.3640e-005   9.4125e-006   1.1575e-005  -5.9474e+003   6.6303e+002   2.3151e+002    0.0000    0.0000    0.0000   -0.0000    0.0000
                1.3682  -2.3935e-005   9.5300e-006   9.7078e-006  -6.0216e+003   6.7130e+002   1.9416e+002    0.0000    0.0000    0.0000   -0.0000    0.0000
                1.3758  -2.4025e-005   9.5657e-006   8.3069e-006  -6.0442e+003   6.7382e+002   1.6614e+002    0.0000    0.0000    0.0000   -0.0000    0.0000

               lamina:  3     
              matName:  (blade-shell)
                     s           e11           e22           e12           s11           s22           s12   s11_fcT   s11_fcC   s22_fcT   s22_fcC   s12_fcS
                   (m)         (m/m)         (m/m)         (rad)          (Pa)          (Pa)          (Pa)       (-)       (-)       (-)       (-)       (-)
                0.0000  -3.9224e-006   1.5620e-006   3.3198e-005  -1.0987e+005  -1.0548e+002   2.3238e+005    0.0000    0.0005    0.0000    0.0000    0.0039
                0.0706  -5.0060e-006   1.9935e-006   3.3196e-005  -1.4022e+005  -1.3590e+002   2.3237e+005    0.0000    0.0007    0.0000    0.0000    0.0039
                0.2377  -7.5849e-006   3.0203e-006   3.3196e-005  -2.1246e+005  -2.0824e+002   2.3237e+005    0.0000    0.0010    0.0000    0.0000    0.0039
                0.3992  -1.0082e-005   4.0144e-006   3.2794e-005  -2.8240e+005  -2.7825e+002   2.2956e+005    0.0000    0.0013    0.0000    0.0000    0.0038
                0.5533  -1.2456e-005   4.9596e-006   3.1435e-005  -3.4889e+005  -3.4478e+002   2.2005e+005    0.0000    0.0016    0.0000    0.0000    0.0037
                0.6982  -1.4673e-005   5.8425e-006   2.9576e-005  -4.1101e+005  -4.0687e+002   2.0703e+005    0.0000    0.0019    0.0000    0.0000    0.0035
                0.8322  -1.6696e-005   6.6479e-006   2.7302e-005  -4.6767e+005  -4.6345e+002   1.9111e+005    0.0000    0.0022    0.0000    0.0000    0.0032
                0.9538  -1.8497e-005   7.3650e-006   2.4722e-005  -5.1812e+005  -5.1381e+002   1.7305e+005    0.0000    0.0024    0.0000    0.0000    0.0029
                1.0620  -2.0068e-005   7.9907e-006   2.1957e-005  -5.6214e+005  -5.5771e+002   1.5370e+005    0.0000    0.0026    0.0000    0.0000    0.0026
                1.1556  -2.1393e-005   8.5181e-006   1.9139e-005  -5.9924e+005  -5.9460e+002   1.3398e+005    0.0000    0.0028    0.0000    0.0000    0.0022
                1.2338  -2.2444e-005   8.9368e-006   1.6392e-005  -6.2869e+005  -6.2378e+002   1.1475e+005    0.0000    0.0030    0.0000    0.0000    0.0019
                1.2959  -2.3234e-005   9.2510e-006   1.3835e-005  -6.5080e+005  -6.4561e+002   9.6843e+004    0.0000    0.0031    0.0000    0.0000    0.0016
                1.3411  -2.3770e-005   9.4644e-006   1.1575e-005  -6.6581e+005  -6.6039e+002   8.1028e+004    0.0000    0.0031    0.0000    0.0000    0.0014
                1.3682  -2.4063e-005   9.5813e-006   9.7078e-006  -6.7403e+005  -6.6869e+002   6.7955e+004    0.0000    0.0032    0.0000    0.0000    0.0011
                1.3758  -2.4139e-005   9.6113e-006   8.3069e-006  -6.7615e+005  -6.7150e+002   5.8148e+004    0.0000    0.0032    0.0000    0.0000    0.0010

     Web:  panel  nNode   nLam     xc_St    xc_End         b         t         E_eff         G_eff      nu_eff     density  buckleCrit
            (-)    (-)    (-)       (-)       (-)       (m)       (m)          (Pa)          (Pa)         (-)    (kg/m^3)         (-)
              1     10      3    0.1676    0.1676    0.4306    0.0830   7.6445e+008   4.5301e+008      0.4420    257.1084      0.0000
              2     10      3    0.5825    0.5825    0.4130    0.0830   7.6445e+008   4.5301e+008      0.4420    257.1084      0.0000

            panel:  1     
           lam_num    nPlies        tPly      fibAng     matID  matName
               (-)       (-)         (m)       (deg)       (-)  (-)
                 1         1    0.001500      0.0000         7  (web-shell)
                 2         1    0.080000      0.0000         8  (web-core)
                 3         1    0.001500      0.0000         7  (web-shell)

               lamina:  1     
              matName:  (web-shell)
                     s           e11           e22           e12           s11           s22           s12   s11_fcT   s11_fcC   s22_fcT   s22_fcC   s12_fcS
                   (m)         (m/m)         (m/m)         (rad)          (Pa)          (Pa)          (Pa)       (-)       (-)       (-)       (-)       (-)
                0.0000   8.7388e-006  -3.8375e-006   7.9408e-006   1.2731e+005   9.9298e+003   9.5289e+004    0.0009   -0.0000    0.0000   -0.0000    0.0011
                0.0478   9.3659e-006  -4.1146e-006   7.6794e-006   1.3643e+005   1.0608e+004   9.2153e+004    0.0009   -0.0000    0.0000   -0.0000    0.0010
                0.0957   9.9929e-006  -4.3918e-006   7.4012e-006   1.4554e+005   1.1287e+004   8.8815e+004    0.0010   -0.0000    0.0000   -0.0000    0.0010
                0.1435   1.0620e-005  -4.6689e-006   7.1063e-006   1.5466e+005   1.1965e+004   8.5276e+004    0.0011   -0.0000    0.0000   -0.0000    0.0009
                0.1914   1.1247e-005  -4.9461e-006   6.7947e-006   1.6378e+005   1.2644e+004   8.1536e+004    0.0011   -0.0000    0.0000   -0.0000    0.0009
                0.2392   1.1874e-005  -5.2232e-006   6.4663e-006   1.7290e+005   1.3322e+004   7.7595e+004    0.0012   -0.0000    0.0000   -0.0000    0.0009
                0.2871   1.2501e-005  -5.5004e-006   6.1211e-006   1.8201e+005   1.4001e+004   7.3453e+004    0.0013   -0.0000    0.0000   -0.0000    0.0008
                0.3349   1.3128e-005  -5.7775e-006   5.7592e-006   1.9113e+005   1.4679e+004   6.9110e+004    0.0013   -0.0000    0.0000   -0.0000    0.0008
                0.3828   1.3755e-005  -6.0547e-006   5.3805e-006   2.0025e+005   1.5358e+004   6.4567e+004    0.0014   -0.0000    0.0000   -0.0000    0.0007
                0.4306   1.4382e-005  -6.3319e-006   4.9851e-006   2.0936e+005   1.6036e+004   5.9822e+004    0.0015   -0.0000    0.0000   -0.0000    0.0007

               lamina:  2     
              matName:  (web-core)
                     s           e11           e22           e12           s11           s22           s12   s11_fcT   s11_fcC   s22_fcT   s22_fcC   s12_fcS
                   (m)         (m/m)         (m/m)         (rad)          (Pa)          (Pa)          (Pa)       (-)       (-)       (-)       (-)       (-)
                0.0000   1.0196e-005  -4.5324e-006   7.9408e-006   2.5247e+003  -4.2101e+002   1.5882e+002    0.0000   -0.0000    0.0000    0.0000    0.0000
                0.0478   1.0823e-005  -4.8096e-006   7.6794e-006   2.6801e+003  -4.4645e+002   1.5359e+002    0.0000   -0.0000    0.0000    0.0000    0.0000
                0.0957   1.1450e-005  -5.0867e-006   7.4012e-006   2.8355e+003  -4.7189e+002   1.4802e+002    0.0000   -0.0000    0.0000    0.0000    0.0000
                0.1435   1.2077e-005  -5.3639e-006   7.1063e-006   2.9909e+003  -4.9734e+002   1.4213e+002    0.0000   -0.0000    0.0000    0.0000    0.0000
                0.1914   1.2704e-005  -5.6410e-006   6.7947e-006   3.1463e+003  -5.2278e+002   1.3589e+002    0.0000   -0.0000    0.0000    0.0000    0.0000
                0.2392   1.3331e-005  -5.9182e-006   6.4663e-006   3.3017e+003  -5.4822e+002   1.2933e+002    0.0000   -0.0000    0.0000    0.0000    0.0000
                0.2871   1.3958e-005  -6.1953e-006   6.1211e-006   3.4571e+003  -5.7367e+002   1.2242e+002    0.0000   -0.0000    0.0000    0.0000    0.0000
                0.3349   1.4585e-005  -6.4725e-006   5.7592e-006   3.6124e+003  -5.9911e+002   1.1518e+002    0.0000   -0.0000    0.0000    0.0000    0.0000
                0.3828   1.5212e-005  -6.7496e-006   5.3805e-006   3.7678e+003  -6.2455e+002   1.0761e+002    0.0000   -0.0000    0.0000    0.0000    0.0000
                0.4306   1.5839e-005  -7.0268e-006   4.9851e-006   3.9232e+003  -6.5000e+002   9.9703e+001    0.0000   -0.0000    0.0000    0.0000    0.0000

               lamina:  3     
              matName:  (web-shell)
                     s           e11           e22           e12           s11           s22           s12   s11_fcT   s11_fcC   s22_fcT   s22_fcC   s12_fcS
                   (m)         (m/m)         (m/m)         (rad)          (Pa)          (Pa)          (Pa)       (-)       (-)       (-)       (-)       (-)
                0.0000   1.0224e-005  -4.5454e-006   7.9408e-006   1.4842e+005   1.0572e+004   9.5289e+004    0.0010   -0.0000    0.0000   -0.0000    0.0011
                0.0478   1.0851e-005  -4.8226e-006   7.6794e-006   1.5753e+005   1.1251e+004   9.2153e+004    0.0011   -0.0000    0.0000   -0.0000    0.0010
                0.0957   1.1478e-005  -5.0997e-006   7.4012e-006   1.6665e+005   1.1929e+004   8.8815e+004    0.0012   -0.0000    0.0000   -0.0000    0.0010
                0.1435   1.2105e-005  -5.3769e-006   7.1063e-006   1.7577e+005   1.2608e+004   8.5276e+004    0.0012   -0.0000    0.0000   -0.0000    0.0009
                0.1914   1.2732e-005  -5.6540e-006   6.7947e-006   1.8489e+005   1.3286e+004   8.1536e+004    0.0013   -0.0000    0.0000   -0.0000    0.0009
                0.2392   1.3359e-005  -5.9312e-006   6.4663e-006   1.9400e+005   1.3965e+004   7.7595e+004    0.0013   -0.0000    0.0000   -0.0000    0.0009
                0.2871   1.3986e-005  -6.2084e-006   6.1211e-006   2.0312e+005   1.4643e+004   7.3453e+004    0.0014   -0.0000    0.0000   -0.0000    0.0008
                0.3349   1.4613e-005  -6.4855e-006   5.7592e-006   2.1224e+005   1.5322e+004   6.9110e+004    0.0015   -0.0000    0.0000   -0.0000    0.0008
                0.3828   1.5240e-005  -6.7627e-006   5.3805e-006   2.2135e+005   1.6000e+004   6.4567e+004    0.0015   -0.0000    0.0000   -0.0000    0.0007
                0.4306   1.5867e-005  -7.0398e-006   4.9851e-006   2.3047e+005   1.6679e+004   5.9822e+004    0.0016   -0.0000    0.0000   -0.0000    0.0007

            panel:  2     
           lam_num    nPlies        tPly      fibAng     matID  matName
               (-)       (-)         (m)       (deg)       (-)  (-)
                 1         1    0.001500      0.0000         7  (web-shell)
                 2         1    0.080000      0.0000         8  (web-core)
                 3         1    0.001500      0.0000         7  (web-shell)

               lamina:  1     
              matName:  (web-shell)
                     s           e11           e22           e12           s11           s22           s12   s11_fcT   s11_fcC   s22_fcT   s22_fcC   s12_fcS
                   (m)         (m/m)         (m/m)         (rad)          (Pa)          (Pa)          (Pa)       (-)       (-)       (-)       (-)       (-)
                0.0000  -9.9735e-006   4.4351e-006   2.2394e-005  -1.4478e+005  -1.0298e+004   2.6873e+005    0.0000    0.0007    0.0000    0.0000    0.0030
                0.0459  -9.3770e-006   4.1714e-006   2.2623e-005  -1.3610e+005  -9.6524e+003   2.7147e+005    0.0000    0.0006    0.0000    0.0000    0.0030
                0.0918  -8.7804e-006   3.9077e-006   2.2836e-005  -1.2743e+005  -9.0069e+003   2.7403e+005    0.0000    0.0006    0.0000    0.0000    0.0030
                0.1377  -8.1838e-006   3.6440e-006   2.3033e-005  -1.1875e+005  -8.3613e+003   2.7640e+005    0.0000    0.0006    0.0000    0.0000    0.0031
                0.1836  -7.5873e-006   3.3803e-006   2.3216e-005  -1.1008e+005  -7.7157e+003   2.7859e+005    0.0000    0.0005    0.0000    0.0000    0.0031
                0.2294  -6.9907e-006   3.1166e-006   2.3383e-005  -1.0140e+005  -7.0702e+003   2.8060e+005    0.0000    0.0005    0.0000    0.0000    0.0031
                0.2753  -6.3941e-006   2.8529e-006   2.3535e-005  -9.2730e+004  -6.4246e+003   2.8242e+005    0.0000    0.0004    0.0000    0.0000    0.0031
                0.3212  -5.7976e-006   2.5892e-006   2.3671e-005  -8.4056e+004  -5.7791e+003   2.8406e+005    0.0000    0.0004    0.0000    0.0000    0.0032
                0.3671  -5.2010e-006   2.3255e-006   2.3793e-005  -7.5381e+004  -5.1335e+003   2.8551e+005    0.0000    0.0004    0.0000    0.0000    0.0032
                0.4130  -4.6044e-006   2.0618e-006   2.3899e-005  -6.6706e+004  -4.4879e+003   2.8679e+005    0.0000    0.0003    0.0000    0.0000    0.0032

               lamina:  2     
              matName:  (web-core)
                     s           e11           e22           e12           s11           s22           s12   s11_fcT   s11_fcC   s22_fcT   s22_fcC   s12_fcS
                   (m)         (m/m)         (m/m)         (rad)          (Pa)          (Pa)          (Pa)       (-)       (-)       (-)       (-)       (-)
                0.0000  -9.9460e-006   4.4220e-006   2.2394e-005  -2.4627e+003   4.1090e+002   4.4789e+002    0.0000    0.0000    0.0000   -0.0000    0.0000
                0.0459  -9.3494e-006   4.1583e-006   2.2623e-005  -2.3148e+003   3.8670e+002   4.5245e+002    0.0000    0.0000    0.0000   -0.0000    0.0000
                0.0918  -8.7529e-006   3.8946e-006   2.2836e-005  -2.1670e+003   3.6249e+002   4.5671e+002    0.0000    0.0000    0.0000   -0.0000    0.0000
                0.1377  -8.1563e-006   3.6309e-006   2.3033e-005  -2.0192e+003   3.3828e+002   4.6067e+002    0.0000    0.0000    0.0000   -0.0000    0.0000
                0.1836  -7.5597e-006   3.3672e-006   2.3216e-005  -1.8713e+003   3.1407e+002   4.6432e+002    0.0000    0.0000    0.0000   -0.0000    0.0000
                0.2294  -6.9632e-006   3.1035e-006   2.3383e-005  -1.7235e+003   2.8986e+002   4.6766e+002    0.0000    0.0000    0.0000   -0.0000    0.0000
                0.2753  -6.3666e-006   2.8398e-006   2.3535e-005  -1.5756e+003   2.6565e+002   4.7070e+002    0.0000    0.0000    0.0000   -0.0000    0.0000
                0.3212  -5.7700e-006   2.5761e-006   2.3671e-005  -1.4278e+003   2.4144e+002   4.7343e+002    0.0000    0.0000    0.0000   -0.0000    0.0000
                0.3671  -5.1735e-006   2.3124e-006   2.3793e-005  -1.2799e+003   2.1724e+002   4.7585e+002    0.0000    0.0000    0.0000   -0.0000    0.0000
                0.4130  -4.5769e-006   2.0487e-006   2.3899e-005  -1.1321e+003   1.9303e+002   4.7798e+002    0.0000    0.0000    0.0000   -0.0000    0.0000

               lamina:  3     
              matName:  (web-shell)
                     s           e11           e22           e12           s11           s22           s12   s11_fcT   s11_fcC   s22_fcT   s22_fcC   s12_fcS
                   (m)         (m/m)         (m/m)         (rad)          (Pa)          (Pa)          (Pa)       (-)       (-)       (-)       (-)       (-)
                0.0000  -8.4779e-006   3.7219e-006   2.2394e-005  -1.2352e+005  -9.6509e+003   2.6873e+005    0.0000    0.0006    0.0000    0.0000    0.0030
                0.0459  -7.8813e-006   3.4582e-006   2.2623e-005  -1.1484e+005  -9.0053e+003   2.7147e+005    0.0000    0.0005    0.0000    0.0000    0.0030
                0.0918  -7.2848e-006   3.1945e-006   2.2836e-005  -1.0617e+005  -8.3598e+003   2.7403e+005    0.0000    0.0005    0.0000    0.0000    0.0030
                0.1377  -6.6882e-006   2.9308e-006   2.3033e-005  -9.7492e+004  -7.7142e+003   2.7640e+005    0.0000    0.0005    0.0000    0.0000    0.0031
                0.1836  -6.0916e-006   2.6671e-006   2.3216e-005  -8.8817e+004  -7.0687e+003   2.7859e+005    0.0000    0.0004    0.0000    0.0000    0.0031
                0.2294  -5.4951e-006   2.4034e-006   2.3383e-005  -8.0142e+004  -6.4231e+003   2.8060e+005    0.0000    0.0004    0.0000    0.0000    0.0031
                0.2753  -4.8985e-006   2.1397e-006   2.3535e-005  -7.1468e+004  -5.7775e+003   2.8242e+005    0.0000    0.0003    0.0000    0.0000    0.0031
                0.3212  -4.3019e-006   1.8760e-006   2.3671e-005  -6.2793e+004  -5.1320e+003   2.8406e+005    0.0000    0.0003    0.0000    0.0000    0.0032
                0.3671  -3.7054e-006   1.6123e-006   2.3793e-005  -5.4118e+004  -4.4864e+003   2.8551e+005    0.0000    0.0003    0.0000    0.0000    0.0032
                0.4130  -3.1088e-006   1.3486e-006   2.3899e-005  -4.5444e+004  -3.8409e+003   2.8679e+005    0.0000    0.0002    0.0000    0.0000    0.0032

================================================================================
sec        =  31     
zSec       =  95.2000  (m)
nPanelsTop =  3      
nPanelsBot =  3      
nWebs      =  2      

    Top:  panel  nNode   nLam     xc_St    xc_End         b         t         E_eff         G_eff      nu_eff     density  buckleCrit
            (-)    (-)    (-)       (-)       (-)       (m)       (m)          (Pa)          (Pa)         (-)    (kg/m^3)         (-)
              1      8      3    0.0000    0.1095    0.3532    0.0150   1.8754e+010   4.6733e+009      0.3991   1300.0000      0.0000
              2     13      5    0.1095    0.6405    1.3630    0.0150   3.2709e+010   5.6659e+009      0.3615   1873.1103      0.0001
              3     14      3    0.6405    1.0000    0.9424    0.0200   1.4131e+010   3.5100e+009      0.3982   1025.0000      0.0031

            panel:  1     
           lam_num    nPlies        tPly      fibAng     matID  matName
               (-)       (-)         (m)       (deg)       (-)  (-)
                 1         1    0.005000      0.0000         2  (blade-shell)
                 2         1    0.005000      0.0000         5  (LEP-core)
                 3         1    0.005000      0.0000         2  (blade-shell)

               lamina:  1     
              matName:  (blade-shell)
                     s           e11           e22           e12           s11           s22           s12   s11_fcT   s11_fcC   s22_fcT   s22_fcC   s12_fcS
                   (m)         (m/m)         (m/m)         (rad)          (Pa)          (Pa)          (Pa)       (-)       (-)       (-)       (-)       (-)
                0.0000   7.6609e-006  -3.0573e-006   7.2322e-007   2.1455e+005   1.0749e+002   5.0625e+003    0.0015   -0.0000    0.0000   -0.0000    0.0001
                0.0408   7.2437e-006  -2.8908e-006   4.9257e-008   2.0286e+005   1.0202e+002   3.4480e+002    0.0014   -0.0000    0.0000   -0.0000    0.0000
                0.0727   6.8615e-006  -2.7382e-006   4.5289e-007   1.9216e+005   9.7225e+001   3.1702e+003    0.0013   -0.0000    0.0000   -0.0000    0.0001
                0.1158   6.4163e-006  -2.5605e-006   1.0939e-006   1.7969e+005   9.1047e+001   7.6571e+003    0.0012   -0.0000    0.0000   -0.0000    0.0001
                0.1713   5.8738e-006  -2.3440e-006   1.8582e-006   1.6450e+005   8.3439e+001   1.3007e+004    0.0011   -0.0000    0.0000   -0.0000    0.0002
                0.2383   5.2493e-006  -2.0948e-006   2.6944e-006   1.4701e+005   7.4655e+001   1.8861e+004    0.0010   -0.0000    0.0000   -0.0000    0.0003
                0.3160   4.5611e-006  -1.8202e-006   3.5511e-006   1.2774e+005   6.4951e+001   2.4858e+004    0.0009   -0.0000    0.0000   -0.0000    0.0004
                0.3532   4.2446e-006  -1.6939e-006   3.9199e-006   1.1887e+005   6.0496e+001   2.7439e+004    0.0008   -0.0000    0.0000   -0.0000    0.0005

               lamina:  2     
              matName:  (LEP-core)
                     s           e11           e22           e12           s11           s22           s12   s11_fcT   s11_fcC   s22_fcT   s22_fcC   s12_fcS
                   (m)         (m/m)         (m/m)         (rad)          (Pa)          (Pa)          (Pa)       (-)       (-)       (-)       (-)       (-)
                0.0000   7.6133e-006  -3.0382e-006   7.2322e-007   1.9148e+003  -2.1550e+002   1.4464e+001    0.0000   -0.0000    0.0000    0.0000    0.0000
                0.0408   7.2180e-006  -2.8805e-006   4.9257e-008   1.8154e+003  -2.0431e+002   9.8515e-001    0.0000   -0.0000    0.0000    0.0000    0.0000
                0.0727   6.8792e-006  -2.7453e-006   4.5289e-007   1.7302e+003  -1.9472e+002   9.0578e+000    0.0000   -0.0000    0.0000    0.0000    0.0000
                0.1158   6.4527e-006  -2.5751e-006   1.0939e-006   1.6229e+003  -1.8265e+002   2.1877e+001    0.0000   -0.0000    0.0000    0.0000    0.0000
                0.1713   5.9210e-006  -2.3629e-006   1.8582e-006   1.4892e+003  -1.6760e+002   3.7164e+001    0.0000   -0.0000    0.0000    0.0000    0.0000
                0.2383   5.3049e-006  -2.1170e-006   2.6944e-006   1.3342e+003  -1.5017e+002   5.3887e+001    0.0000   -0.0000    0.0000    0.0000    0.0000
                0.3160   4.6222e-006  -1.8446e-006   3.5511e-006   1.1625e+003  -1.3084e+002   7.1022e+001    0.0000   -0.0000    0.0000    0.0000    0.0000
                0.3532   4.3094e-006  -1.7198e-006   3.9199e-006   1.0838e+003  -1.2199e+002   7.8398e+001    0.0000   -0.0000    0.0000    0.0000    0.0000

               lamina:  3     
              matName:  (blade-shell)
                     s           e11           e22           e12           s11           s22           s12   s11_fcT   s11_fcC   s22_fcT   s22_fcC   s12_fcS
                   (m)         (m/m)         (m/m)         (rad)          (Pa)          (Pa)          (Pa)       (-)       (-)       (-)       (-)       (-)
                0.0000   7.5656e-006  -3.0192e-006   7.2322e-007   2.1188e+005   1.0739e+002   5.0625e+003    0.0015   -0.0000    0.0000   -0.0000    0.0001
                0.0408   7.1923e-006  -2.8702e-006   4.9257e-008   2.0143e+005   1.0196e+002   3.4480e+002    0.0014   -0.0000    0.0000   -0.0000    0.0000
                0.0727   6.8968e-006  -2.7523e-006   4.5289e-007   1.9315e+005   9.7264e+001   3.1702e+003    0.0013   -0.0000    0.0000   -0.0000    0.0001
                0.1158   6.4892e-006  -2.5897e-006   1.0939e-006   1.8174e+005   9.1127e+001   7.6571e+003    0.0013   -0.0000    0.0000   -0.0000    0.0001
                0.1713   5.9682e-006  -2.3818e-006   1.8582e-006   1.6714e+005   8.3543e+001   1.3007e+004    0.0012   -0.0000    0.0000   -0.0000    0.0002
                0.2383   5.3605e-006  -2.1393e-006   2.6944e-006   1.5012e+005   7.4777e+001   1.8861e+004    0.0010   -0.0000    0.0000   -0.0000    0.0003
                0.3160   4.6832e-006  -1.8690e-006   3.5511e-006   1.3116e+005   6.5085e+001   2.4858e+004    0.0009   -0.0000    0.0000   -0.0000    0.0004
                0.3532   4.3741e-006  -1.7457e-006   3.9199e-006   1.2250e+005   6.0638e+001   2.7439e+004    0.0009   -0.0000    0.0000   -0.0000    0.0005

            panel:  2     
           lam_num    nPlies        tPly      fibAng     matID  matName
               (-)       (-)         (m)       (deg)       (-)  (-)
                 1         1    0.005000      0.0000         2  (blade-shell)
                 2         1    0.002500      0.0000         3  (spar-uni)
                 3         1    0.000002      0.0000         4  (spar-core)
                 4         1    0.002500      0.0000         3  (spar-uni)
                 5         1    0.005000      0.0000         2  (blade-shell)

               lamina:  1     
              matName:  (blade-shell)
                     s           e11           e22           e12           s11           s22           s12   s11_fcT   s11_fcC   s22_fcT   s22_fcC   s12_fcS
                   (m)         (m/m)         (m/m)         (rad)          (Pa)          (Pa)          (Pa)       (-)       (-)       (-)       (-)       (-)
                0.0000   4.2236e-006  -1.5250e-006   4.7673e-006   1.1926e+005   2.5022e+003   3.3371e+004    0.0008   -0.0000    0.0000   -0.0000    0.0006
                0.0504   3.7945e-006  -1.3698e-006   5.4264e-006   1.0715e+005   2.2521e+003   3.7985e+004    0.0007   -0.0000    0.0000   -0.0000    0.0006
                0.1477   3.0029e-006  -1.0835e-006   6.5066e-006   8.4797e+004   1.7901e+003   4.5546e+004    0.0006   -0.0000    0.0000   -0.0000    0.0008
                0.2531   2.1831e-006  -7.8704e-007   7.4064e-006   6.1651e+004   1.3115e+003   5.1845e+004    0.0004   -0.0000    0.0000   -0.0000    0.0009
                0.3659   1.3448e-006  -4.8391e-007   8.0697e-006   3.7984e+004   8.2194e+002   5.6488e+004    0.0003   -0.0000    0.0000   -0.0000    0.0009
                0.4850   4.9997e-007  -1.7840e-007   8.4489e-006   1.4131e+004   3.2850e+002   5.9142e+004    0.0001   -0.0000    0.0000   -0.0000    0.0010
                0.6092  -4.7303e-007   1.7833e-007   8.5111e-006  -1.3311e+004  -1.6559e+002   5.9578e+004    0.0000    0.0001    0.0000    0.0000    0.0010
                0.7372  -1.2773e-006   4.6940e-007   8.2414e-006  -3.6017e+004  -6.3189e+002   5.7690e+004    0.0000    0.0002    0.0000    0.0000    0.0010
                0.8683  -2.0299e-006   7.4175e-007   7.6411e-006  -5.7265e+004  -1.0684e+003   5.3487e+004    0.0000    0.0003    0.0000    0.0000    0.0009
                1.0015  -2.7288e-006   9.9462e-007   6.7240e-006  -7.6996e+004  -1.4747e+003   4.7068e+004    0.0000    0.0004    0.0000    0.0000    0.0008
                1.1353  -3.3824e-006   1.2311e-006   5.5138e-006  -9.5450e+004  -1.8552e+003   3.8597e+004    0.0000    0.0004    0.0000    0.0000    0.0006
                1.2684  -3.9878e-006   1.4500e-006   4.0424e-006  -1.1254e+005  -2.2080e+003   2.8297e+004    0.0000    0.0005    0.0000    0.0000    0.0005
                1.3630  -4.3923e-006   1.5963e-006   2.8437e-006  -1.2396e+005  -2.4441e+003   1.9906e+004    0.0000    0.0006    0.0000    0.0000    0.0003

               lamina:  2     
              matName:  (spar-uni)
                     s           e11           e22           e12           s11           s22           s12   s11_fcT   s11_fcC   s22_fcT   s22_fcC   s12_fcS
                   (m)         (m/m)         (m/m)         (rad)          (Pa)          (Pa)          (Pa)       (-)       (-)       (-)       (-)       (-)
                0.0000   4.2770e-006  -1.5461e-006   4.7673e-006   1.7823e+005  -5.0111e+003   1.4302e+004    0.0002   -0.0000    0.0000    0.0000    0.0005
                0.0504   3.8504e-006  -1.3919e-006   5.4264e-006   1.6045e+005  -4.5113e+003   1.6279e+004    0.0002   -0.0000    0.0000    0.0000    0.0005
                0.1477   3.0620e-006  -1.1069e-006   6.5066e-006   1.2760e+005  -3.5876e+003   1.9520e+004    0.0001   -0.0000    0.0000    0.0000    0.0007
                0.2531   2.2455e-006  -8.1176e-007   7.4064e-006   9.3575e+004  -2.6310e+003   2.2219e+004    0.0001   -0.0000    0.0000    0.0000    0.0007
                0.3659   1.4101e-006  -5.0977e-007   8.0697e-006   5.8764e+004  -1.6522e+003   2.4209e+004    0.0001   -0.0000    0.0000    0.0000    0.0008
                0.4850   5.6818e-007  -2.0540e-007   8.4489e-006   2.3677e+004  -6.6570e+002   2.5347e+004    0.0000   -0.0000    0.0000    0.0000    0.0008
                0.6092  -3.3054e-007   1.2194e-007   8.5111e-006  -1.3765e+004   4.2241e+002   2.5533e+004    0.0000    0.0000    0.0000   -0.0000    0.0009
                0.7372  -1.1286e-006   4.1054e-007   8.2414e-006  -4.7021e+004   1.3590e+003   2.4724e+004    0.0000    0.0001    0.0000   -0.0000    0.0008
                0.8683  -1.8756e-006   6.8070e-007   7.6411e-006  -7.8151e+004   2.2356e+003   2.2923e+004    0.0000    0.0001    0.0000   -0.0000    0.0008
                1.0015  -2.5705e-006   9.3194e-007   6.7240e-006  -1.0710e+005   3.0507e+003   2.0172e+004    0.0000    0.0002    0.0000   -0.0000    0.0007
                1.1353  -3.2210e-006   1.1672e-006   5.5138e-006  -1.3422e+005   3.8137e+003   1.6541e+004    0.0000    0.0002    0.0000   -0.0000    0.0006
                1.2684  -3.8241e-006   1.3852e-006   4.0424e-006  -1.5934e+005   4.5208e+003   1.2127e+004    0.0000    0.0002    0.0000   -0.0000    0.0004
                1.3630  -4.2274e-006   1.5310e-006   2.8437e-006  -1.7615e+005   4.9937e+003   8.5310e+003    0.0000    0.0003    0.0000   -0.0000    0.0003

               lamina:  3     
              matName:  (spar-core)
                     s           e11           e22           e12           s11           s22           s12   s11_fcT   s11_fcC   s22_fcT   s22_fcC   s12_fcS
                   (m)         (m/m)         (m/m)         (rad)          (Pa)          (Pa)          (Pa)       (-)       (-)       (-)       (-)       (-)
                0.0000   4.2770e-006  -1.5462e-006   4.7673e-006   1.0895e+003  -7.5157e+001   9.5346e+001    0.0000   -0.0000    0.0000    0.0000    0.0000
                0.0504   3.8505e-006  -1.3919e-006   5.4264e-006   9.8082e+002  -6.7661e+001   1.0853e+002    0.0000   -0.0000    0.0000    0.0000    0.0000
                0.1477   3.0621e-006  -1.1070e-006   6.5066e-006   7.8000e+002  -5.3808e+001   1.3013e+002    0.0000   -0.0000    0.0000    0.0000    0.0000
                0.2531   2.2456e-006  -8.1178e-007   7.4064e-006   5.7201e+002  -3.9460e+001   1.4813e+002    0.0000   -0.0000    0.0000    0.0000    0.0000
                0.3659   1.4102e-006  -5.0979e-007   8.0697e-006   3.5922e+002  -2.4780e+001   1.6139e+002    0.0000   -0.0000    0.0000    0.0000    0.0000
                0.4850   5.6823e-007  -2.0542e-007   8.4489e-006   1.4475e+002  -9.9853e+000   1.6898e+002    0.0000   -0.0000    0.0000    0.0000    0.0000
                0.6092  -2.5930e-007   9.3738e-008   8.5111e-006  -6.6051e+001   4.5567e+000   1.7022e+002    0.0000    0.0000    0.0000   -0.0000    0.0000
                0.7372  -1.0543e-006   3.8112e-007   8.2414e-006  -2.6855e+002   1.8526e+001   1.6483e+002    0.0000    0.0000    0.0000   -0.0000    0.0000
                0.8683  -1.7985e-006   6.5017e-007   7.6411e-006  -4.5813e+002   3.1604e+001   1.5282e+002    0.0000    0.0000    0.0000   -0.0000    0.0000
                1.0015  -2.4913e-006   9.0060e-007   6.7240e-006  -6.3460e+002   4.3777e+001   1.3448e+002    0.0000    0.0000    0.0000   -0.0000    0.0000
                1.1353  -3.1403e-006   1.1352e-006   5.5138e-006  -7.9993e+002   5.5183e+001   1.1028e+002    0.0000    0.0000    0.0000   -0.0000    0.0000
                1.2684  -3.7422e-006   1.3528e-006   4.0424e-006  -9.5325e+002   6.5759e+001   8.0848e+001    0.0000    0.0000    0.0000   -0.0000    0.0000
                1.3630  -4.1449e-006   1.4984e-006   2.8437e-006  -1.0558e+003   7.2835e+001   5.6873e+001    0.0000    0.0000    0.0000   -0.0000    0.0000

               lamina:  4     
              matName:  (spar-uni)
                     s           e11           e22           e12           s11           s22           s12   s11_fcT   s11_fcC   s22_fcT   s22_fcC   s12_fcS
                   (m)         (m/m)         (m/m)         (rad)          (Pa)          (Pa)          (Pa)       (-)       (-)       (-)       (-)       (-)
                0.0000   4.3304e-006  -1.5673e-006   4.7673e-006   1.8045e+005  -5.1001e+003   1.4302e+004    0.0002   -0.0000    0.0000    0.0000    0.0005
                0.0504   3.9064e-006  -1.4141e-006   5.4264e-006   1.6278e+005  -4.6045e+003   1.6279e+004    0.0002   -0.0000    0.0000    0.0000    0.0005
                0.1477   3.1212e-006  -1.1304e-006   6.5066e-006   1.3006e+005  -3.6861e+003   1.9520e+004    0.0001   -0.0000    0.0000    0.0000    0.0007
                0.2531   2.3080e-006  -8.3650e-007   7.4064e-006   9.6171e+004  -2.7350e+003   2.2219e+004    0.0001   -0.0000    0.0000    0.0000    0.0007
                0.3659   1.4755e-006  -5.3565e-007   8.0697e-006   6.1479e+004  -1.7610e+003   2.4209e+004    0.0001   -0.0000    0.0000    0.0000    0.0008
                0.4850   6.3644e-007  -2.3241e-007   8.4489e-006   2.6512e+004  -7.7932e+002   2.5347e+004    0.0000   -0.0000    0.0000    0.0000    0.0008
                0.6092  -2.5924e-007   9.3716e-008   8.5111e-006  -1.0803e+004   3.0373e+002   2.5533e+004    0.0000    0.0000    0.0000   -0.0000    0.0009
                0.7372  -1.0542e-006   3.8110e-007   8.2414e-006  -4.3931e+004   1.2351e+003   2.4724e+004    0.0000    0.0001    0.0000   -0.0000    0.0008
                0.8683  -1.7984e-006   6.5014e-007   7.6411e-006  -7.4945e+004   2.1071e+003   2.2923e+004    0.0000    0.0001    0.0000   -0.0000    0.0008
                1.0015  -2.4912e-006   9.0058e-007   6.7240e-006  -1.0381e+005   2.9188e+003   2.0172e+004    0.0000    0.0001    0.0000   -0.0000    0.0007
                1.1353  -3.1403e-006   1.1352e-006   5.5138e-006  -1.3086e+005   3.6793e+003   1.6541e+004    0.0000    0.0002    0.0000   -0.0000    0.0006
                1.2684  -3.7422e-006   1.3528e-006   4.0424e-006  -1.5594e+005   4.3845e+003   1.2127e+004    0.0000    0.0002    0.0000   -0.0000    0.0004
                1.3630  -4.1449e-006   1.4984e-006   2.8437e-006  -1.7272e+005   4.8563e+003   8.5310e+003    0.0000    0.0002    0.0000   -0.0000    0.0003

               lamina:  5     
              matName:  (blade-shell)
                     s           e11           e22           e12           s11           s22           s12   s11_fcT   s11_fcC   s22_fcT   s22_fcC   s12_fcS
                   (m)         (m/m)         (m/m)         (rad)          (Pa)          (Pa)          (Pa)       (-)       (-)       (-)       (-)       (-)
                0.0000   4.4372e-006  -1.6096e-006   4.7673e-006   1.2525e+005   2.5159e+003   3.3371e+004    0.0009   -0.0000    0.0000   -0.0000    0.0006
                0.0504   4.0182e-006  -1.4584e-006   5.4264e-006   1.1342e+005   2.2665e+003   3.7985e+004    0.0008   -0.0000    0.0000   -0.0000    0.0006
                0.1477   3.2395e-006  -1.1772e-006   6.5066e-006   9.1428e+004   1.8052e+003   4.5546e+004    0.0006   -0.0000    0.0000   -0.0000    0.0008
                0.2531   2.4329e-006  -8.8593e-007   7.4064e-006   6.8653e+004   1.3275e+003   5.1845e+004    0.0005   -0.0000    0.0000   -0.0000    0.0009
                0.3659   1.6062e-006  -5.8736e-007   8.0697e-006   4.5309e+004   8.3868e+002   5.6488e+004    0.0003   -0.0000    0.0000   -0.0000    0.0009
                0.4850   7.7285e-007  -2.8640e-007   8.4489e-006   2.1778e+004   3.4599e+002   5.9142e+004    0.0002   -0.0000    0.0000   -0.0000    0.0010
                0.6092  -1.8800e-007   6.5518e-008   8.5111e-006  -5.3228e+003  -1.4732e+002   5.9578e+004    0.0000    0.0000    0.0000    0.0000    0.0010
                0.7372  -9.7985e-007   3.5167e-007   8.2414e-006  -2.7681e+004  -6.1283e+002   5.7690e+004    0.0000    0.0001    0.0000    0.0000    0.0010
                0.8683  -1.7213e-006   6.1961e-007   7.6411e-006  -4.8616e+004  -1.0487e+003   5.3487e+004    0.0000    0.0002    0.0000    0.0000    0.0009
                1.0015  -2.4120e-006   8.6924e-007   6.7240e-006  -6.8119e+004  -1.4544e+003   4.7068e+004    0.0000    0.0003    0.0000    0.0000    0.0008
                1.1353  -3.0596e-006   1.1033e-006   5.5138e-006  -8.6401e+004  -1.8345e+003   3.8597e+004    0.0000    0.0004    0.0000    0.0000    0.0006
                1.2684  -3.6603e-006   1.3204e-006   4.0424e-006  -1.0336e+005  -2.1870e+003   2.8297e+004    0.0000    0.0005    0.0000    0.0000    0.0005
                1.3630  -4.0624e-006   1.4657e-006   2.8437e-006  -1.1472e+005  -2.4229e+003   1.9906e+004    0.0000    0.0005    0.0000    0.0000    0.0003

            panel:  3     
           lam_num    nPlies        tPly      fibAng     matID  matName
               (-)       (-)         (m)       (deg)       (-)  (-)
                 1         1    0.005000      0.0000         2  (blade-shell)
                 2         1    0.010000      0.0000         6  (TEP-core)
                 3         1    0.005000      0.0000         2  (blade-shell)

               lamina:  1     
              matName:  (blade-shell)
                     s           e11           e22           e12           s11           s22           s12   s11_fcT   s11_fcC   s22_fcT   s22_fcC   s12_fcS
                   (m)         (m/m)         (m/m)         (rad)          (Pa)          (Pa)          (Pa)       (-)       (-)       (-)       (-)       (-)
                0.0000  -4.2866e-006   1.7070e-006   9.2933e-006  -1.2007e+005  -1.1625e+002   6.5053e+004    0.0000    0.0006    0.0000    0.0000    0.0011
                0.0362  -4.4417e-006   1.7687e-006   8.9531e-006  -1.2441e+005  -1.2057e+002   6.2672e+004    0.0000    0.0006    0.0000    0.0000    0.0010
                0.1632  -4.9590e-006   1.9747e-006   7.6626e-006  -1.3890e+005  -1.3505e+002   5.3638e+004    0.0000    0.0007    0.0000    0.0000    0.0009
                0.2850  -5.4317e-006   2.1629e-006   6.2905e-006  -1.5215e+005  -1.4828e+002   4.4034e+004    0.0000    0.0007    0.0000    0.0000    0.0007
                0.4001  -5.8659e-006   2.3358e-006   4.8785e-006  -1.6431e+005  -1.6045e+002   3.4149e+004    0.0000    0.0008    0.0000    0.0000    0.0006
                0.5069  -6.2610e-006   2.4931e-006   3.4679e-006  -1.7538e+005  -1.7152e+002   2.4275e+004    0.0000    0.0008    0.0000    0.0000    0.0004
                0.6042  -6.6174e-006   2.6350e-006   2.1010e-006  -1.8536e+005  -1.8151e+002   1.4707e+004    0.0000    0.0009    0.0000    0.0000    0.0002
                0.6908  -6.9348e-006   2.7614e-006   8.1880e-007  -1.9425e+005  -1.9042e+002   5.7316e+003    0.0000    0.0009    0.0000    0.0000    0.0001
                0.7657  -7.2107e-006   2.8713e-006   3.3964e-007  -2.0198e+005  -1.9815e+002   2.3775e+003    0.0000    0.0009    0.0000    0.0000    0.0000
                0.8282  -7.4366e-006   2.9612e-006   1.3412e-006  -2.0831e+005  -2.0447e+002   9.3883e+003    0.0000    0.0010    0.0000    0.0000    0.0002
                0.8777  -7.6091e-006   3.0299e-006   2.1577e-006  -2.1314e+005  -2.0931e+002   1.5104e+004    0.0000    0.0010    0.0000    0.0000    0.0003
                0.9136  -7.7376e-006   3.0810e-006   2.7602e-006  -2.1674e+005  -2.1293e+002   1.9322e+004    0.0000    0.0010    0.0000    0.0000    0.0003
                0.9351  -7.8195e-006   3.1137e-006   3.1285e-006  -2.1903e+005  -2.1526e+002   2.1899e+004    0.0000    0.0010    0.0000    0.0000    0.0004
                0.9424  -7.8474e-006   3.1248e-006   3.2524e-006  -2.1981e+005  -2.1605e+002   2.2767e+004    0.0000    0.0010    0.0000    0.0000    0.0004

               lamina:  2     
              matName:  (TEP-core)
                     s           e11           e22           e12           s11           s22           s12   s11_fcT   s11_fcC   s22_fcT   s22_fcC   s12_fcS
                   (m)         (m/m)         (m/m)         (rad)          (Pa)          (Pa)          (Pa)       (-)       (-)       (-)       (-)       (-)
                0.0000  -4.2038e-006   1.6739e-006   9.2933e-006  -1.0576e+003   1.1793e+002   1.8587e+002    0.0000    0.0000    0.0000   -0.0000    0.0000
                0.0362  -4.3582e-006   1.7354e-006   8.9531e-006  -1.0965e+003   1.2226e+002   1.7906e+002    0.0000    0.0000    0.0000   -0.0000    0.0000
                0.1632  -4.8751e-006   1.9412e-006   7.6626e-006  -1.2265e+003   1.3676e+002   1.5325e+002    0.0000    0.0000    0.0000   -0.0000    0.0000
                0.2850  -5.3473e-006   2.1292e-006   6.2905e-006  -1.3453e+003   1.5000e+002   1.2581e+002    0.0000    0.0000    0.0000   -0.0000    0.0000
                0.4001  -5.7812e-006   2.3020e-006   4.8785e-006  -1.4545e+003   1.6217e+002   9.7569e+001    0.0000    0.0000    0.0000   -0.0000    0.0000
                0.5069  -6.1761e-006   2.4592e-006   3.4679e-006  -1.5538e+003   1.7325e+002   6.9358e+001    0.0000    0.0000    0.0000   -0.0000    0.0000
                0.6042  -6.5325e-006   2.6011e-006   2.1010e-006  -1.6435e+003   1.8324e+002   4.2020e+001    0.0000    0.0000    0.0000   -0.0000    0.0000
                0.6908  -6.8499e-006   2.7275e-006   8.1880e-007  -1.7233e+003   1.9214e+002   1.6376e+001    0.0000    0.0000    0.0000   -0.0000    0.0000
                0.7657  -7.1258e-006   2.8373e-006   3.3964e-007  -1.7927e+003   1.9988e+002   6.7928e+000    0.0000    0.0000    0.0000   -0.0000    0.0000
                0.8282  -7.3513e-006   2.9271e-006   1.3412e-006  -1.8495e+003   2.0621e+002   2.6824e+001    0.0000    0.0000    0.0000   -0.0000    0.0000
                0.8777  -7.5238e-006   2.9958e-006   2.1577e-006  -1.8929e+003   2.1104e+002   4.3154e+001    0.0000    0.0000    0.0000   -0.0000    0.0000
                0.9136  -7.6528e-006   3.0471e-006   2.7602e-006  -1.9253e+003   2.1466e+002   5.5205e+001    0.0000    0.0000    0.0000   -0.0000    0.0000
                0.9351  -7.7352e-006   3.0800e-006   3.1285e-006  -1.9461e+003   2.1697e+002   6.2569e+001    0.0000    0.0000    0.0000   -0.0000    0.0000
                0.9424  -7.7633e-006   3.0912e-006   3.2524e-006  -1.9531e+003   2.1776e+002   6.5047e+001    0.0000    0.0000    0.0000   -0.0000    0.0000

               lamina:  3     
              matName:  (blade-shell)
                     s           e11           e22           e12           s11           s22           s12   s11_fcT   s11_fcC   s22_fcT   s22_fcC   s12_fcS
                   (m)         (m/m)         (m/m)         (rad)          (Pa)          (Pa)          (Pa)       (-)       (-)       (-)       (-)       (-)
                0.0000  -4.0381e-006   1.6077e-006   9.2933e-006  -1.1311e+005  -1.1523e+002   6.5053e+004    0.0000    0.0005    0.0000    0.0000    0.0011
                0.0362  -4.1914e-006   1.6687e-006   8.9531e-006  -1.1741e+005  -1.1955e+002   6.2672e+004    0.0000    0.0006    0.0000    0.0000    0.0010
                0.1632  -4.7073e-006   1.8741e-006   7.6626e-006  -1.3186e+005  -1.3403e+002   5.3638e+004    0.0000    0.0006    0.0000    0.0000    0.0009
                0.2850  -5.1785e-006   2.0617e-006   6.2905e-006  -1.4506e+005  -1.4725e+002   4.4034e+004    0.0000    0.0007    0.0000    0.0000    0.0007
                0.4001  -5.6118e-006   2.2343e-006   4.8785e-006  -1.5719e+005  -1.5941e+002   3.4149e+004    0.0000    0.0007    0.0000    0.0000    0.0006
                0.5069  -6.0063e-006   2.3913e-006   3.4679e-006  -1.6825e+005  -1.7048e+002   2.4275e+004    0.0000    0.0008    0.0000    0.0000    0.0004
                0.6042  -6.3626e-006   2.5332e-006   2.1010e-006  -1.7823e+005  -1.8048e+002   1.4707e+004    0.0000    0.0008    0.0000    0.0000    0.0002
                0.6908  -6.6801e-006   2.6596e-006   8.1880e-007  -1.8712e+005  -1.8938e+002   5.7316e+003    0.0000    0.0009    0.0000    0.0000    0.0001
                0.7657  -6.9558e-006   2.7694e-006   3.3964e-007  -1.9484e+005  -1.9711e+002   2.3775e+003    0.0000    0.0009    0.0000    0.0000    0.0000
                0.8282  -7.1807e-006   2.8589e-006   1.3412e-006  -2.0114e+005  -2.0343e+002   9.3883e+003    0.0000    0.0009    0.0000    0.0000    0.0002
                0.8777  -7.3531e-006   2.9276e-006   2.1577e-006  -2.0597e+005  -2.0826e+002   1.5104e+004    0.0000    0.0010    0.0000    0.0000    0.0003
                0.9136  -7.4831e-006   2.9793e-006   2.7602e-006  -2.0961e+005  -2.1190e+002   1.9322e+004    0.0000    0.0010    0.0000    0.0000    0.0003
                0.9351  -7.5667e-006   3.0126e-006   3.1285e-006  -2.1195e+005  -2.1423e+002   2.1899e+004    0.0000    0.0010    0.0000    0.0000    0.0004
                0.9424  -7.5952e-006   3.0239e-006   3.2524e-006  -2.1275e+005  -2.1502e+002   2.2767e+004    0.0000    0.0010    0.0000    0.0000    0.0004

  Bottom:  panel  nNode   nLam     xc_St    xc_End         b         t         E_eff         G_eff      nu_eff     density  buckleCrit
            (-)    (-)    (-)       (-)       (-)       (m)       (m)          (Pa)          (Pa)         (-)    (kg/m^3)         (-)
              1      8      3    0.0000    0.1095    0.3012    0.0150   1.8754e+010   4.6733e+009      0.3991   1300.0000      0.0000
              2     13      5    0.1095    0.6405    1.3544    0.0150   3.2709e+010   5.6659e+009      0.3615   1873.1103      0.0001
              3     14      3    0.6405    1.0000    0.9219    0.0200   1.4131e+010   3.5100e+009      0.3982   1025.0000      0.0011

            panel:  1     
           lam_num    nPlies        tPly      fibAng     matID  matName
               (-)       (-)         (m)       (deg)       (-)  (-)
                 1         1    0.005000      0.0000         2  (blade-shell)
                 2         1    0.005000      0.0000         5  (LEP-core)
                 3         1    0.005000      0.0000         2  (blade-shell)

               lamina:  1     
              matName:  (blade-shell)
                     s           e11           e22           e12           s11           s22           s12   s11_fcT   s11_fcC   s22_fcT   s22_fcC   s12_fcS
                   (m)         (m/m)         (m/m)         (rad)          (Pa)          (Pa)          (Pa)       (-)       (-)       (-)       (-)       (-)
                0.0000   7.6983e-006  -3.0723e-006   7.2322e-007   2.1560e+005   1.0708e+002   5.0625e+003    0.0015   -0.0000    0.0000   -0.0000    0.0001
                0.0146   7.7878e-006  -3.1080e-006   9.7035e-007   2.1810e+005   1.0817e+002   6.7924e+003    0.0015   -0.0000    0.0000   -0.0000    0.0001
                0.0424   7.8494e-006  -3.1326e-006   1.4464e-006   2.1983e+005   1.0895e+002   1.0125e+004    0.0015   -0.0000    0.0000   -0.0000    0.0002
                0.0801   7.8032e-006  -3.1142e-006   2.0928e-006   2.1853e+005   1.0834e+002   1.4650e+004    0.0015   -0.0000    0.0000   -0.0000    0.0002
                0.1298   7.6556e-006  -3.0553e-006   2.9331e-006   2.1440e+005   1.0632e+002   2.0532e+004    0.0015   -0.0000    0.0000   -0.0000    0.0003
                0.1918   7.4261e-006  -2.9637e-006   3.9566e-006   2.0797e+005   1.0312e+002   2.7696e+004    0.0014   -0.0000    0.0000   -0.0000    0.0005
                0.2654   7.1100e-006  -2.8375e-006   5.1267e-006   1.9912e+005   9.8681e+001   3.5887e+004    0.0014   -0.0000    0.0000   -0.0000    0.0006
                0.3012   6.9408e-006  -2.7700e-006   5.6772e-006   1.9438e+005   9.6313e+001   3.9741e+004    0.0013   -0.0000    0.0000   -0.0000    0.0007

               lamina:  2     
              matName:  (LEP-core)
                     s           e11           e22           e12           s11           s22           s12   s11_fcT   s11_fcC   s22_fcT   s22_fcC   s12_fcS
                   (m)         (m/m)         (m/m)         (rad)          (Pa)          (Pa)          (Pa)       (-)       (-)       (-)       (-)       (-)
                0.0000   7.6028e-006  -3.0341e-006   7.2322e-007   1.9122e+003  -2.1521e+002   1.4464e+001    0.0000   -0.0000    0.0000    0.0000    0.0000
                0.0146   7.6832e-006  -3.0662e-006   9.7035e-007   1.9324e+003  -2.1749e+002   1.9407e+001    0.0000   -0.0000    0.0000    0.0000    0.0000
                0.0424   7.7400e-006  -3.0889e-006   1.4464e-006   1.9467e+003  -2.1910e+002   2.8927e+001    0.0000   -0.0000    0.0000    0.0000    0.0000
                0.0801   7.6960e-006  -3.0713e-006   2.0928e-006   1.9356e+003  -2.1785e+002   4.1856e+001    0.0000   -0.0000    0.0000    0.0000    0.0000
                0.1298   7.5518e-006  -3.0137e-006   2.9331e-006   1.8993e+003  -2.1377e+002   5.8663e+001    0.0000   -0.0000    0.0000    0.0000    0.0000
                0.1918   7.3248e-006  -2.9232e-006   3.9566e-006   1.8423e+003  -2.0735e+002   7.9132e+001    0.0000   -0.0000    0.0000    0.0000    0.0000
                0.2654   7.0106e-006  -2.7978e-006   5.1267e-006   1.7632e+003  -1.9845e+002   1.0253e+002    0.0000   -0.0000    0.0000    0.0000    0.0000
                0.3012   6.8428e-006  -2.7308e-006   5.6772e-006   1.7210e+003  -1.9370e+002   1.1354e+002    0.0000   -0.0000    0.0000    0.0000    0.0000

               lamina:  3     
              matName:  (blade-shell)
                     s           e11           e22           e12           s11           s22           s12   s11_fcT   s11_fcC   s22_fcT   s22_fcC   s12_fcS
                   (m)         (m/m)         (m/m)         (rad)          (Pa)          (Pa)          (Pa)       (-)       (-)       (-)       (-)       (-)
                0.0000   7.5072e-006  -2.9959e-006   7.2322e-007   2.1024e+005   1.0687e+002   5.0625e+003    0.0015   -0.0000    0.0000   -0.0000    0.0001
                0.0146   7.5786e-006  -3.0244e-006   9.7035e-007   2.1225e+005   1.0794e+002   6.7924e+003    0.0015   -0.0000    0.0000   -0.0000    0.0001
                0.0424   7.6306e-006  -3.0451e-006   1.4464e-006   2.1370e+005   1.0871e+002   1.0125e+004    0.0015   -0.0000    0.0000   -0.0000    0.0002
                0.0801   7.5889e-006  -3.0284e-006   2.0928e-006   2.1253e+005   1.0810e+002   1.4650e+004    0.0015   -0.0000    0.0000   -0.0000    0.0002
                0.1298   7.4479e-006  -2.9722e-006   2.9331e-006   2.0858e+005   1.0609e+002   2.0532e+004    0.0014   -0.0000    0.0000   -0.0000    0.0003
                0.1918   7.2236e-006  -2.8827e-006   3.9566e-006   2.0230e+005   1.0290e+002   2.7696e+004    0.0014   -0.0000    0.0000   -0.0000    0.0005
                0.2654   6.9113e-006  -2.7580e-006   5.1267e-006   1.9356e+005   9.8463e+001   3.5887e+004    0.0013   -0.0000    0.0000   -0.0000    0.0006
                0.3012   6.7448e-006  -2.6916e-006   5.6772e-006   1.8889e+005   9.6098e+001   3.9741e+004    0.0013   -0.0000    0.0000   -0.0000    0.0007

            panel:  2     
           lam_num    nPlies        tPly      fibAng     matID  matName
               (-)       (-)         (m)       (deg)       (-)  (-)
                 1         1    0.005000      0.0000         2  (blade-shell)
                 2         1    0.002500      0.0000         3  (spar-uni)
                 3         1    0.000002      0.0000         4  (spar-core)
                 4         1    0.002500      0.0000         3  (spar-uni)
                 5         1    0.005000      0.0000         2  (blade-shell)

               lamina:  1     
              matName:  (blade-shell)
                     s           e11           e22           e12           s11           s22           s12   s11_fcT   s11_fcC   s22_fcT   s22_fcC   s12_fcS
                   (m)         (m/m)         (m/m)         (rad)          (Pa)          (Pa)          (Pa)       (-)       (-)       (-)       (-)       (-)
                0.0000   7.0362e-006  -2.5519e-006   3.7870e-006   1.9861e+005   3.9955e+003   2.6509e+004    0.0014   -0.0000    0.0000   -0.0000    0.0004
                0.0485   6.8071e-006  -2.4690e-006   4.8292e-006   1.9214e+005   3.8627e+003   3.3804e+004    0.0013   -0.0000    0.0000   -0.0000    0.0006
                0.1431   6.3335e-006  -2.2977e-006   6.7543e-006   1.7877e+005   3.5870e+003   4.7280e+004    0.0012   -0.0000    0.0000   -0.0000    0.0008
                0.2467   5.7870e-006  -2.1000e-006   8.6949e-006   1.6334e+005   3.2689e+003   6.0864e+004    0.0011   -0.0000    0.0000   -0.0000    0.0010
                0.3583   5.1693e-006  -1.8765e-006   1.0577e-005   1.4590e+005   2.9090e+003   7.4042e+004    0.0010   -0.0000    0.0000   -0.0000    0.0012
                0.4768   4.4876e-006  -1.6300e-006   1.2329e-005   1.2666e+005   2.5118e+003   8.6306e+004    0.0009   -0.0000    0.0000   -0.0000    0.0014
                0.6007   3.7404e-006  -1.3597e-006   1.3880e-005   1.0556e+005   2.0768e+003   9.7163e+004    0.0007   -0.0000    0.0000   -0.0000    0.0016
                0.7290   2.9267e-006  -1.0653e-006   1.5166e-005   8.2589e+004   1.6036e+003   1.0616e+005    0.0006   -0.0000    0.0000   -0.0000    0.0018
                0.8604   2.0429e-006  -7.4556e-007   1.6128e-005   5.7636e+004   1.0894e+003   1.1289e+005    0.0004   -0.0000    0.0000   -0.0000    0.0019
                0.9938   1.1098e-006  -4.0807e-007   1.6717e-005   3.1292e+004   5.4541e+002   1.1702e+005    0.0002   -0.0000    0.0000   -0.0000    0.0020
                1.1277   1.5342e-007  -6.2234e-008   1.6904e-005   4.2905e+003  -2.1610e+001   1.1833e+005    0.0000   -0.0000    0.0000    0.0000    0.0020
                1.2604  -9.3767e-007   3.3673e-007   1.6681e-005  -2.6488e+004  -5.8335e+002   1.1677e+005    0.0000    0.0001    0.0000    0.0000    0.0019
                1.3544  -1.6220e-006   5.8414e-007   1.6276e-005  -4.5811e+004  -9.8413e+002   1.1393e+005    0.0000    0.0002    0.0000    0.0000    0.0019

               lamina:  2     
              matName:  (spar-uni)
                     s           e11           e22           e12           s11           s22           s12   s11_fcT   s11_fcC   s22_fcT   s22_fcC   s12_fcS
                   (m)         (m/m)         (m/m)         (rad)          (Pa)          (Pa)          (Pa)       (-)       (-)       (-)       (-)       (-)
                0.0000   6.8746e-006  -2.4880e-006   3.7870e-006   2.8647e+005  -8.0945e+003   1.1361e+004    0.0003   -0.0000    0.0000    0.0000    0.0004
                0.0485   6.6473e-006  -2.4058e-006   4.8292e-006   2.7699e+005  -7.8277e+003   1.4488e+004    0.0003   -0.0000    0.0000    0.0000    0.0005
                0.1431   6.1760e-006  -2.2353e-006   6.7543e-006   2.5735e+005  -7.2750e+003   2.0263e+004    0.0003   -0.0000    0.0000    0.0000    0.0007
                0.2467   5.6320e-006  -2.0386e-006   8.6949e-006   2.3469e+005  -6.6370e+003   2.6085e+004    0.0002   -0.0000    0.0000    0.0000    0.0009
                0.3583   5.0169e-006  -1.8162e-006   1.0577e-005   2.0905e+005  -5.9156e+003   3.1732e+004    0.0002   -0.0000    0.0000    0.0000    0.0011
                0.4768   4.3379e-006  -1.5707e-006   1.2329e-005   1.8076e+005  -5.1195e+003   3.6988e+004    0.0002   -0.0000    0.0000    0.0000    0.0012
                0.6007   3.5942e-006  -1.3018e-006   1.3880e-005   1.4977e+005  -4.2472e+003   4.1641e+004    0.0002   -0.0000    0.0000    0.0000    0.0014
                0.7290   2.7849e-006  -1.0092e-006   1.5166e-005   1.1604e+005  -3.2979e+003   4.5498e+004    0.0001   -0.0000    0.0000    0.0000    0.0015
                0.8604   1.9057e-006  -6.9127e-007   1.6128e-005   7.9405e+004  -2.2667e+003   4.8383e+004    0.0001   -0.0000    0.0000    0.0000    0.0016
                0.9938   9.7598e-007  -3.5511e-007   1.6717e-005   4.0662e+004  -1.1765e+003   5.0152e+004    0.0000   -0.0000    0.0000    0.0000    0.0017
                1.1277  -4.4064e-008   1.5928e-008   1.6904e-005  -1.8362e+003  -5.7960e+001   5.0712e+004    0.0000    0.0000    0.0000    0.0000    0.0017
                1.2604  -1.0029e-006   3.6254e-007   1.6681e-005  -4.1792e+004   1.1750e+003   5.0044e+004    0.0000    0.0001    0.0000   -0.0000    0.0017
                1.3544  -1.6870e-006   6.0984e-007   1.6276e-005  -7.0299e+004   1.9765e+003   4.8827e+004    0.0000    0.0001    0.0000   -0.0000    0.0016

               lamina:  3     
              matName:  (spar-core)
                     s           e11           e22           e12           s11           s22           s12   s11_fcT   s11_fcC   s22_fcT   s22_fcC   s12_fcS
                   (m)         (m/m)         (m/m)         (rad)          (Pa)          (Pa)          (Pa)       (-)       (-)       (-)       (-)       (-)
                0.0000   6.7938e-006  -2.4560e-006   3.7870e-006   1.7306e+003  -1.1938e+002   7.5740e+001    0.0000   -0.0000    0.0000    0.0000    0.0000
                0.0485   6.5674e-006  -2.3741e-006   4.8292e-006   1.6729e+003  -1.1540e+002   9.6584e+001    0.0000   -0.0000    0.0000    0.0000    0.0000
                0.1431   6.0972e-006  -2.2042e-006   6.7543e-006   1.5531e+003  -1.0714e+002   1.3509e+002    0.0000   -0.0000    0.0000    0.0000    0.0000
                0.2467   5.5546e-006  -2.0080e-006   8.6949e-006   1.4149e+003  -9.7606e+001   1.7390e+002    0.0000   -0.0000    0.0000    0.0000    0.0000
                0.3583   4.9407e-006  -1.7861e-006   1.0577e-005   1.2585e+003  -8.6819e+001   2.1155e+002    0.0000   -0.0000    0.0000    0.0000    0.0000
                0.4768   4.2631e-006  -1.5411e-006   1.2329e-005   1.0859e+003  -7.4912e+001   2.4659e+002    0.0000   -0.0000    0.0000    0.0000    0.0000
                0.6007   3.5211e-006  -1.2729e-006   1.3880e-005   8.9692e+002  -6.1873e+001   2.7761e+002    0.0000   -0.0000    0.0000    0.0000    0.0000
                0.7290   2.7140e-006  -9.8112e-007   1.5166e-005   6.9133e+002  -4.7691e+001   3.0332e+002    0.0000   -0.0000    0.0000    0.0000    0.0000
                0.8604   1.8371e-006  -6.6413e-007   1.6128e-005   4.6797e+002  -3.2283e+001   3.2256e+002    0.0000   -0.0000    0.0000    0.0000    0.0000
                0.9938   9.0908e-007  -3.2864e-007   1.6717e-005   2.3157e+002  -1.5975e+001   3.3434e+002    0.0000   -0.0000    0.0000    0.0000    0.0000
                1.1277  -4.4116e-008   1.5949e-008   1.6904e-005  -1.1238e+001   7.7548e-001   3.3808e+002    0.0000    0.0000    0.0000   -0.0000    0.0000
                1.2604  -1.0029e-006   3.6256e-007   1.6681e-005  -2.5547e+002   1.7624e+001   3.3363e+002    0.0000    0.0000    0.0000   -0.0000    0.0000
                1.3544  -1.6870e-006   6.0986e-007   1.6276e-005  -4.2973e+002   2.9645e+001   3.2551e+002    0.0000    0.0000    0.0000   -0.0000    0.0000

               lamina:  4     
              matName:  (spar-uni)
                     s           e11           e22           e12           s11           s22           s12   s11_fcT   s11_fcC   s22_fcT   s22_fcC   s12_fcS
                   (m)         (m/m)         (m/m)         (rad)          (Pa)          (Pa)          (Pa)       (-)       (-)       (-)       (-)       (-)
                0.0000   6.7938e-006  -2.4560e-006   3.7870e-006   2.8311e+005  -7.9599e+003   1.1361e+004    0.0003   -0.0000    0.0000    0.0000    0.0004
                0.0485   6.5673e-006  -2.3741e-006   4.8292e-006   2.7367e+005  -7.6946e+003   1.4488e+004    0.0003   -0.0000    0.0000    0.0000    0.0005
                0.1431   6.0971e-006  -2.2041e-006   6.7543e-006   2.5408e+005  -7.1437e+003   2.0263e+004    0.0003   -0.0000    0.0000    0.0000    0.0007
                0.2467   5.5545e-006  -2.0080e-006   8.6949e-006   2.3147e+005  -6.5079e+003   2.6085e+004    0.0002   -0.0000    0.0000    0.0000    0.0009
                0.3583   4.9406e-006  -1.7860e-006   1.0577e-005   2.0589e+005  -5.7887e+003   3.1732e+004    0.0002   -0.0000    0.0000    0.0000    0.0011
                0.4768   4.2630e-006  -1.5411e-006   1.2329e-005   1.7765e+005  -4.9948e+003   3.6988e+004    0.0002   -0.0000    0.0000    0.0000    0.0012
                0.6007   3.5210e-006  -1.2729e-006   1.3880e-005   1.4673e+005  -4.1254e+003   4.1641e+004    0.0002   -0.0000    0.0000    0.0000    0.0014
                0.7290   2.7139e-006  -9.8110e-007   1.5166e-005   1.1310e+005  -3.1798e+003   4.5498e+004    0.0001   -0.0000    0.0000    0.0000    0.0015
                0.8604   1.8371e-006  -6.6411e-007   1.6128e-005   7.6555e+004  -2.1524e+003   4.8383e+004    0.0001   -0.0000    0.0000    0.0000    0.0016
                0.9938   9.0903e-007  -3.2862e-007   1.6717e-005   3.7881e+004  -1.0651e+003   5.0152e+004    0.0000   -0.0000    0.0000    0.0000    0.0017
                1.1277  -1.0994e-007   4.2003e-008   1.6904e-005  -4.5725e+003   1.6128e+002   5.0712e+004    0.0000    0.0000    0.0000   -0.0000    0.0017
                1.2604  -1.0681e-006   3.8837e-007   1.6681e-005  -4.4502e+004   1.2836e+003   5.0044e+004    0.0000    0.0001    0.0000   -0.0000    0.0017
                1.3544  -1.7520e-006   6.3556e-007   1.6276e-005  -7.2998e+004   2.0847e+003   4.8827e+004    0.0000    0.0001    0.0000   -0.0000    0.0016

               lamina:  5     
              matName:  (blade-shell)
                     s           e11           e22           e12           s11           s22           s12   s11_fcT   s11_fcC   s22_fcT   s22_fcC   s12_fcS
                   (m)         (m/m)         (m/m)         (rad)          (Pa)          (Pa)          (Pa)       (-)       (-)       (-)       (-)       (-)
                0.0000   6.7130e-006  -2.4240e-006   3.7870e-006   1.8955e+005   3.9748e+003   2.6509e+004    0.0013   -0.0000    0.0000   -0.0000    0.0004
                0.0485   6.4874e-006  -2.3425e-006   4.8292e-006   1.8318e+005   3.8422e+003   3.3804e+004    0.0013   -0.0000    0.0000   -0.0000    0.0006
                0.1431   6.0183e-006  -2.1729e-006   6.7543e-006   1.6994e+005   3.5669e+003   4.7280e+004    0.0012   -0.0000    0.0000   -0.0000    0.0008
                0.2467   5.4770e-006  -1.9773e-006   8.6949e-006   1.5466e+005   3.2490e+003   6.0864e+004    0.0011   -0.0000    0.0000   -0.0000    0.0010
                0.3583   4.8644e-006  -1.7559e-006   1.0577e-005   1.3736e+005   2.8895e+003   7.4042e+004    0.0010   -0.0000    0.0000   -0.0000    0.0012
                0.4768   4.1882e-006  -1.5115e-006   1.2329e-005   1.1827e+005   2.4926e+003   8.6306e+004    0.0008   -0.0000    0.0000   -0.0000    0.0014
                0.6007   3.4479e-006  -1.2439e-006   1.3880e-005   9.7364e+004   2.0580e+003   9.7163e+004    0.0007   -0.0000    0.0000   -0.0000    0.0016
                0.7290   2.6430e-006  -9.5303e-007   1.5166e-005   7.4639e+004   1.5854e+003   1.0616e+005    0.0005   -0.0000    0.0000   -0.0000    0.0018
                0.8604   1.7685e-006  -6.3696e-007   1.6128e-005   4.9947e+004   1.0718e+003   1.1289e+005    0.0003   -0.0000    0.0000   -0.0000    0.0019
                0.9938   8.4214e-007  -3.0214e-007   1.6717e-005   2.3791e+004   5.2827e+002   1.1702e+005    0.0002   -0.0000    0.0000   -0.0000    0.0020
                1.1277  -2.4160e-007   9.4111e-008   1.6904e-005  -6.7802e+003  -3.8485e+001   1.1833e+005    0.0000    0.0000    0.0000    0.0000    0.0020
                1.2604  -1.1985e-006   4.3999e-007   1.6681e-005  -3.3799e+004  -6.0007e+002   1.1677e+005    0.0000    0.0002    0.0000    0.0000    0.0019
                1.3544  -1.8818e-006   6.8696e-007   1.6276e-005  -5.3091e+004  -1.0008e+003   1.1393e+005    0.0000    0.0002    0.0000    0.0000    0.0019

            panel:  3     
           lam_num    nPlies        tPly      fibAng     matID  matName
               (-)       (-)         (m)       (deg)       (-)  (-)
                 1         1    0.005000      0.0000         2  (blade-shell)
                 2         1    0.010000      0.0000         6  (TEP-core)
                 3         1    0.005000      0.0000         2  (blade-shell)

               lamina:  1     
              matName:  (blade-shell)
                     s           e11           e22           e12           s11           s22           s12   s11_fcT   s11_fcC   s22_fcT   s22_fcC   s12_fcS
                   (m)         (m/m)         (m/m)         (rad)          (Pa)          (Pa)          (Pa)       (-)       (-)       (-)       (-)       (-)
                0.0000  -1.6406e-006   6.5312e-007   1.3458e-005  -4.5956e+004  -4.7575e+001   9.4209e+004    0.0000    0.0002    0.0000    0.0000    0.0016
                0.0360  -1.9029e-006   7.5757e-007   1.3310e-005  -5.3304e+004  -5.4931e+001   9.3172e+004    0.0000    0.0003    0.0000    0.0000    0.0016
                0.1617  -2.8190e-006   1.1223e-006   1.2627e-005  -7.8965e+004  -8.0626e+001   8.8390e+004    0.0000    0.0004    0.0000    0.0000    0.0015
                0.2816  -3.6876e-006   1.4681e-006   1.1736e-005  -1.0329e+005  -1.0500e+002   8.2149e+004    0.0000    0.0005    0.0000    0.0000    0.0014
                0.3944  -4.4948e-006   1.7895e-006   1.0685e-005  -1.2591e+005  -1.2766e+002   7.4796e+004    0.0000    0.0006    0.0000    0.0000    0.0012
                0.4987  -5.2247e-006   2.0802e-006   9.5335e-006  -1.4635e+005  -1.4816e+002   6.6734e+004    0.0000    0.0007    0.0000    0.0000    0.0011
                0.5934  -5.8680e-006   2.3363e-006   8.3419e-006  -1.6437e+005  -1.6624e+002   5.8393e+004    0.0000    0.0008    0.0000    0.0000    0.0010
                0.6776  -6.4231e-006   2.5573e-006   7.1691e-006  -1.7992e+005  -1.8184e+002   5.0184e+004    0.0000    0.0008    0.0000    0.0000    0.0008
                0.7506  -6.8818e-006   2.7399e-006   6.0699e-006  -1.9277e+005  -1.9477e+002   4.2489e+004    0.0000    0.0009    0.0000    0.0000    0.0007
                0.8115  -7.2342e-006   2.8802e-006   5.0952e-006  -2.0264e+005  -2.0472e+002   3.5666e+004    0.0000    0.0010    0.0000    0.0000    0.0006
                0.8599  -7.4898e-006   2.9820e-006   4.2881e-006  -2.0980e+005  -2.1195e+002   3.0016e+004    0.0000    0.0010    0.0000    0.0000    0.0005
                0.8953  -7.6557e-006   3.0480e-006   3.6824e-006  -2.1445e+005  -2.1665e+002   2.5777e+004    0.0000    0.0010    0.0000    0.0000    0.0004
                0.9163  -7.7479e-006   3.0847e-006   3.3158e-006  -2.1703e+005  -2.1922e+002   2.3211e+004    0.0000    0.0010    0.0000    0.0000    0.0004
                0.9219  -7.7883e-006   3.1009e-006   3.2164e-006  -2.1816e+005  -2.2021e+002   2.2515e+004    0.0000    0.0010    0.0000    0.0000    0.0004

               lamina:  2     
              matName:  (TEP-core)
                     s           e11           e22           e12           s11           s22           s12   s11_fcT   s11_fcC   s22_fcT   s22_fcC   s12_fcS
                   (m)         (m/m)         (m/m)         (rad)          (Pa)          (Pa)          (Pa)       (-)       (-)       (-)       (-)       (-)
                0.0000  -1.7711e-006   7.0528e-007   1.3458e-005  -4.4558e+002   4.9700e+001   2.6917e+002    0.0000    0.0000    0.0000   -0.0000    0.0000
                0.0360  -2.0333e-006   8.0968e-007   1.3310e-005  -5.1155e+002   5.7053e+001   2.6620e+002    0.0000    0.0000    0.0000   -0.0000    0.0000
                0.1617  -2.9497e-006   1.1746e-006   1.2627e-005  -7.4211e+002   8.2755e+001   2.5254e+002    0.0000    0.0000    0.0000   -0.0000    0.0000
                0.2816  -3.8193e-006   1.5208e-006   1.1736e-005  -9.6086e+002   1.0714e+002   2.3471e+002    0.0000    0.0000    0.0000   -0.0000    0.0000
                0.3944  -4.6284e-006   1.8429e-006   1.0685e-005  -1.1644e+003   1.2983e+002   2.1370e+002    0.0000    0.0000    0.0000   -0.0000    0.0000
                0.4987  -5.3611e-006   2.1347e-006   9.5335e-006  -1.3488e+003   1.5038e+002   1.9067e+002    0.0000    0.0000    0.0000   -0.0000    0.0000
                0.5934  -6.0073e-006   2.3919e-006   8.3419e-006  -1.5113e+003   1.6850e+002   1.6684e+002    0.0000    0.0000    0.0000   -0.0000    0.0000
                0.6776  -6.5657e-006   2.6143e-006   7.1691e-006  -1.6518e+003   1.8417e+002   1.4338e+002    0.0000    0.0000    0.0000   -0.0000    0.0000
                0.7506  -7.0292e-006   2.7989e-006   6.0699e-006  -1.7685e+003   1.9717e+002   1.2140e+002    0.0000    0.0000    0.0000   -0.0000    0.0000
                0.8115  -7.3874e-006   2.9415e-006   5.0952e-006  -1.8586e+003   2.0721e+002   1.0190e+002    0.0000    0.0000    0.0000   -0.0000    0.0000
                0.8599  -7.6482e-006   3.0453e-006   4.2881e-006  -1.9242e+003   2.1453e+002   8.5761e+001    0.0000    0.0000    0.0000   -0.0000    0.0000
                0.8953  -7.8185e-006   3.1131e-006   3.6824e-006  -1.9670e+003   2.1931e+002   7.3647e+001    0.0000    0.0000    0.0000   -0.0000    0.0000
                0.9163  -7.9094e-006   3.1493e-006   3.3158e-006  -1.9899e+003   2.2185e+002   6.6317e+001    0.0000    0.0000    0.0000   -0.0000    0.0000
                0.9219  -7.9377e-006   3.1606e-006   3.2164e-006  -1.9970e+003   2.2264e+002   6.4327e+001    0.0000    0.0000    0.0000   -0.0000    0.0000

               lamina:  3     
              matName:  (blade-shell)
                     s           e11           e22           e12           s11           s22           s12   s11_fcT   s11_fcC   s22_fcT   s22_fcC   s12_fcS
                   (m)         (m/m)         (m/m)         (rad)          (Pa)          (Pa)          (Pa)       (-)       (-)       (-)       (-)       (-)
                0.0000  -1.8363e-006   7.3136e-007   1.3458e-005  -5.1437e+004  -4.8372e+001   9.4209e+004    0.0000    0.0002    0.0000    0.0000    0.0016
                0.0360  -2.0985e-006   8.3574e-007   1.3310e-005  -5.8780e+004  -5.5727e+001   9.3172e+004    0.0000    0.0003    0.0000    0.0000    0.0016
                0.1617  -3.0151e-006   1.2007e-006   1.2627e-005  -8.4455e+004  -8.1424e+001   8.8390e+004    0.0000    0.0004    0.0000    0.0000    0.0015
                0.2816  -3.8851e-006   1.5471e-006   1.1736e-005  -1.0883e+005  -1.0580e+002   8.2149e+004    0.0000    0.0005    0.0000    0.0000    0.0014
                0.3944  -4.6952e-006   1.8696e-006   1.0685e-005  -1.3152e+005  -1.2847e+002   7.4796e+004    0.0000    0.0006    0.0000    0.0000    0.0012
                0.4987  -5.4292e-006   2.1619e-006   9.5335e-006  -1.5208e+005  -1.4899e+002   6.6734e+004    0.0000    0.0007    0.0000    0.0000    0.0011
                0.5934  -6.0769e-006   2.4198e-006   8.3419e-006  -1.7022e+005  -1.6709e+002   5.8393e+004    0.0000    0.0008    0.0000    0.0000    0.0010
                0.6776  -6.6370e-006   2.6428e-006   7.1691e-006  -1.8591e+005  -1.8272e+002   5.0184e+004    0.0000    0.0009    0.0000    0.0000    0.0008
                0.7506  -7.1030e-006   2.8283e-006   6.0699e-006  -1.9896e+005  -1.9567e+002   4.2489e+004    0.0000    0.0009    0.0000    0.0000    0.0007
                0.8115  -7.4640e-006   2.9721e-006   5.0952e-006  -2.0907e+005  -2.0565e+002   3.5666e+004    0.0000    0.0010    0.0000    0.0000    0.0006
                0.8599  -7.7275e-006   3.0770e-006   4.2881e-006  -2.1645e+005  -2.1292e+002   3.0016e+004    0.0000    0.0010    0.0000    0.0000    0.0005
                0.8953  -7.8999e-006   3.1457e-006   3.6824e-006  -2.2129e+005  -2.1765e+002   2.5777e+004    0.0000    0.0010    0.0000    0.0000    0.0004
                0.9163  -7.9901e-006   3.1816e-006   3.3158e-006  -2.2381e+005  -2.2021e+002   2.3211e+004    0.0000    0.0011    0.0000    0.0000    0.0004
                0.9219  -8.0124e-006   3.1904e-006   3.2164e-006  -2.2443e+005  -2.2112e+002   2.2515e+004    0.0000    0.0011    0.0000    0.0000    0.0004

     Web:  panel  nNode   nLam     xc_St    xc_End         b         t         E_eff         G_eff      nu_eff     density  buckleCrit
            (-)    (-)    (-)       (-)       (-)       (m)       (m)          (Pa)          (Pa)         (-)    (kg/m^3)         (-)
              1     10      3    0.1095    0.1095    0.2785    0.0830   7.6445e+008   4.5301e+008      0.4420    257.1084      0.0000
              2     10      3    0.6405    0.6405    0.2725    0.0830   7.6445e+008   4.5301e+008      0.4420    257.1084      0.0000

            panel:  1     
           lam_num    nPlies        tPly      fibAng     matID  matName
               (-)       (-)         (m)       (deg)       (-)  (-)
                 1         1    0.001500      0.0000         7  (web-shell)
                 2         1    0.080000      0.0000         8  (web-core)
                 3         1    0.001500      0.0000         7  (web-shell)

               lamina:  1     
              matName:  (web-shell)
                     s           e11           e22           e12           s11           s22           s12   s11_fcT   s11_fcC   s22_fcT   s22_fcC   s12_fcS
                   (m)         (m/m)         (m/m)         (rad)          (Pa)          (Pa)          (Pa)       (-)       (-)       (-)       (-)       (-)
                0.0000   4.0018e-006  -1.7577e-006   3.4689e-006   5.8295e+004   4.5394e+003   4.1627e+004    0.0004   -0.0000    0.0000   -0.0000    0.0005
                0.0309   4.2684e-006  -1.8756e-006   3.3393e-006   6.2172e+004   4.8280e+003   4.0072e+004    0.0004   -0.0000    0.0000   -0.0000    0.0004
                0.0619   4.5351e-006  -1.9934e-006   3.2020e-006   6.6049e+004   5.1165e+003   3.8424e+004    0.0005   -0.0000    0.0000   -0.0000    0.0004
                0.0928   4.8017e-006  -2.1113e-006   3.0569e-006   6.9926e+004   5.4050e+003   3.6682e+004    0.0005   -0.0000    0.0000   -0.0000    0.0004
                0.1238   5.0683e-006  -2.2292e-006   2.9040e-006   7.3804e+004   5.6936e+003   3.4848e+004    0.0005   -0.0000    0.0000   -0.0000    0.0004
                0.1547   5.3350e-006  -2.3470e-006   2.7434e-006   7.7681e+004   5.9821e+003   3.2921e+004    0.0005   -0.0000    0.0000   -0.0000    0.0004
                0.1857   5.6016e-006  -2.4649e-006   2.5750e-006   8.1558e+004   6.2707e+003   3.0900e+004    0.0006   -0.0000    0.0000   -0.0000    0.0003
                0.2166   5.8683e-006  -2.5827e-006   2.3989e-006   8.5435e+004   6.5592e+003   2.8787e+004    0.0006   -0.0000    0.0000   -0.0000    0.0003
                0.2476   6.1349e-006  -2.7006e-006   2.2150e-006   8.9312e+004   6.8477e+003   2.6581e+004    0.0006   -0.0000    0.0000   -0.0000    0.0003
                0.2785   6.4015e-006  -2.8185e-006   2.0234e-006   9.3190e+004   7.1363e+003   2.4281e+004    0.0006   -0.0000    0.0000   -0.0000    0.0003

               lamina:  2     
              matName:  (web-core)
                     s           e11           e22           e12           s11           s22           s12   s11_fcT   s11_fcC   s22_fcT   s22_fcC   s12_fcS
                   (m)         (m/m)         (m/m)         (rad)          (Pa)          (Pa)          (Pa)       (-)       (-)       (-)       (-)       (-)
                0.0000   4.6454e-006  -2.0646e-006   3.4689e-006   1.1503e+003  -1.9171e+002   6.9379e+001    0.0000   -0.0000    0.0000    0.0000    0.0000
                0.0309   4.9120e-006  -2.1824e-006   3.3393e-006   1.2164e+003  -2.0253e+002   6.6787e+001    0.0000   -0.0000    0.0000    0.0000    0.0000
                0.0619   5.1786e-006  -2.3003e-006   3.2020e-006   1.2824e+003  -2.1335e+002   6.4039e+001    0.0000   -0.0000    0.0000    0.0000    0.0000
                0.0928   5.4453e-006  -2.4182e-006   3.0569e-006   1.3485e+003  -2.2417e+002   6.1137e+001    0.0000   -0.0000    0.0000    0.0000    0.0000
                0.1238   5.7119e-006  -2.5360e-006   2.9040e-006   1.4146e+003  -2.3499e+002   5.8080e+001    0.0000   -0.0000    0.0000    0.0000    0.0000
                0.1547   5.9786e-006  -2.6539e-006   2.7434e-006   1.4807e+003  -2.4581e+002   5.4868e+001    0.0000   -0.0000    0.0000    0.0000    0.0000
                0.1857   6.2452e-006  -2.7718e-006   2.5750e-006   1.5468e+003  -2.5663e+002   5.1501e+001    0.0000   -0.0000    0.0000    0.0000    0.0000
                0.2166   6.5118e-006  -2.8896e-006   2.3989e-006   1.6128e+003  -2.6745e+002   4.7978e+001    0.0000   -0.0000    0.0000    0.0000    0.0000
                0.2476   6.7785e-006  -3.0075e-006   2.2150e-006   1.6789e+003  -2.7827e+002   4.4301e+001    0.0000   -0.0000    0.0000    0.0000    0.0000
                0.2785   7.0451e-006  -3.1253e-006   2.0234e-006   1.7450e+003  -2.8909e+002   4.0469e+001    0.0000   -0.0000    0.0000    0.0000    0.0000

               lamina:  3     
              matName:  (web-shell)
                     s           e11           e22           e12           s11           s22           s12   s11_fcT   s11_fcC   s22_fcT   s22_fcC   s12_fcS
                   (m)         (m/m)         (m/m)         (rad)          (Pa)          (Pa)          (Pa)       (-)       (-)       (-)       (-)       (-)
                0.0000   4.6574e-006  -2.0703e-006   3.4689e-006   6.7615e+004   4.8231e+003   4.1627e+004    0.0005   -0.0000    0.0000   -0.0000    0.0005
                0.0309   4.9241e-006  -2.1882e-006   3.3393e-006   7.1493e+004   5.1116e+003   4.0072e+004    0.0005   -0.0000    0.0000   -0.0000    0.0004
                0.0619   5.1907e-006  -2.3061e-006   3.2020e-006   7.5370e+004   5.4002e+003   3.8424e+004    0.0005   -0.0000    0.0000   -0.0000    0.0004
                0.0928   5.4573e-006  -2.4239e-006   3.0569e-006   7.9247e+004   5.6887e+003   3.6682e+004    0.0006   -0.0000    0.0000   -0.0000    0.0004
                0.1238   5.7240e-006  -2.5418e-006   2.9040e-006   8.3124e+004   5.9772e+003   3.4848e+004    0.0006   -0.0000    0.0000   -0.0000    0.0004
                0.1547   5.9906e-006  -2.6596e-006   2.7434e-006   8.7002e+004   6.2658e+003   3.2921e+004    0.0006   -0.0000    0.0000   -0.0000    0.0004
                0.1857   6.2573e-006  -2.7775e-006   2.5750e-006   9.0879e+004   6.5543e+003   3.0900e+004    0.0006   -0.0000    0.0000   -0.0000    0.0003
                0.2166   6.5239e-006  -2.8954e-006   2.3989e-006   9.4756e+004   6.8428e+003   2.8787e+004    0.0007   -0.0000    0.0000   -0.0000    0.0003
                0.2476   6.7905e-006  -3.0132e-006   2.2150e-006   9.8633e+004   7.1314e+003   2.6581e+004    0.0007   -0.0000    0.0000   -0.0000    0.0003
                0.2785   7.0572e-006  -3.1311e-006   2.0234e-006   1.0251e+005   7.4199e+003   2.4281e+004    0.0007   -0.0000    0.0000   -0.0000    0.0003

            panel:  2     
           lam_num    nPlies        tPly      fibAng     matID  matName
               (-)       (-)         (m)       (deg)       (-)  (-)
                 1         1    0.001500      0.0000         7  (web-shell)
                 2         1    0.080000      0.0000         8  (web-core)
                 3         1    0.001500      0.0000         7  (web-shell)

               lamina:  1     
              matName:  (web-shell)
                     s           e11           e22           e12           s11           s22           s12   s11_fcT   s11_fcC   s22_fcT   s22_fcC   s12_fcS
                   (m)         (m/m)         (m/m)         (rad)          (Pa)          (Pa)          (Pa)       (-)       (-)       (-)       (-)       (-)
                0.0000  -4.4122e-006   1.9621e-006   1.0922e-005  -6.4048e+004  -4.5542e+003   1.3107e+005    0.0000    0.0003    0.0000    0.0000    0.0015
                0.0303  -4.1534e-006   1.8477e-006   1.1034e-005  -6.0284e+004  -4.2742e+003   1.3241e+005    0.0000    0.0003    0.0000    0.0000    0.0015
                0.0606  -3.8946e-006   1.7333e-006   1.1139e-005  -5.6521e+004  -3.9941e+003   1.3367e+005    0.0000    0.0003    0.0000    0.0000    0.0015
                0.0908  -3.6358e-006   1.6189e-006   1.1236e-005  -5.2758e+004  -3.7140e+003   1.3484e+005    0.0000    0.0002    0.0000    0.0000    0.0015
                0.1211  -3.3769e-006   1.5045e-006   1.1327e-005  -4.8994e+004  -3.4339e+003   1.3592e+005    0.0000    0.0002    0.0000    0.0000    0.0015
                0.1514  -3.1181e-006   1.3901e-006   1.1409e-005  -4.5231e+004  -3.1539e+003   1.3691e+005    0.0000    0.0002    0.0000    0.0000    0.0015
                0.1817  -2.8593e-006   1.2757e-006   1.1485e-005  -4.1467e+004  -2.8738e+003   1.3781e+005    0.0000    0.0002    0.0000    0.0000    0.0015
                0.2119  -2.6005e-006   1.1613e-006   1.1552e-005  -3.7704e+004  -2.5937e+003   1.3863e+005    0.0000    0.0002    0.0000    0.0000    0.0015
                0.2422  -2.3417e-006   1.0469e-006   1.1613e-005  -3.3940e+004  -2.3137e+003   1.3936e+005    0.0000    0.0002    0.0000    0.0000    0.0015
                0.2725  -2.0829e-006   9.3249e-007   1.1666e-005  -3.0177e+004  -2.0336e+003   1.4000e+005    0.0000    0.0001    0.0000    0.0000    0.0016

               lamina:  2     
              matName:  (web-core)
                     s           e11           e22           e12           s11           s22           s12   s11_fcT   s11_fcC   s22_fcT   s22_fcC   s12_fcS
                   (m)         (m/m)         (m/m)         (rad)          (Pa)          (Pa)          (Pa)       (-)       (-)       (-)       (-)       (-)
                0.0000  -4.3999e-006   1.9563e-006   1.0922e-005  -1.0894e+003   1.8180e+002   2.1844e+002    0.0000    0.0000    0.0000   -0.0000    0.0000
                0.0303  -4.1411e-006   1.8419e-006   1.1034e-005  -1.0253e+003   1.7130e+002   2.2069e+002    0.0000    0.0000    0.0000   -0.0000    0.0000
                0.0606  -3.8823e-006   1.7275e-006   1.1139e-005  -9.6116e+002   1.6079e+002   2.2278e+002    0.0000    0.0000    0.0000   -0.0000    0.0000
                0.0908  -3.6235e-006   1.6131e-006   1.1236e-005  -8.9702e+002   1.5029e+002   2.2473e+002    0.0000    0.0000    0.0000   -0.0000    0.0000
                0.1211  -3.3647e-006   1.4987e-006   1.1327e-005  -8.3288e+002   1.3979e+002   2.2653e+002    0.0000    0.0000    0.0000   -0.0000    0.0000
                0.1514  -3.1059e-006   1.3843e-006   1.1409e-005  -7.6874e+002   1.2929e+002   2.2818e+002    0.0000    0.0000    0.0000   -0.0000    0.0000
                0.1817  -2.8470e-006   1.2699e-006   1.1485e-005  -7.0460e+002   1.1878e+002   2.2969e+002    0.0000    0.0000    0.0000   -0.0000    0.0000
                0.2119  -2.5882e-006   1.1554e-006   1.1552e-005  -6.4046e+002   1.0828e+002   2.3105e+002    0.0000    0.0000    0.0000   -0.0000    0.0000
                0.2422  -2.3294e-006   1.0410e-006   1.1613e-005  -5.7632e+002   9.7777e+001   2.3226e+002    0.0000    0.0000    0.0000   -0.0000    0.0000
                0.2725  -2.0706e-006   9.2664e-007   1.1666e-005  -5.1217e+002   8.7275e+001   2.3333e+002    0.0000    0.0000    0.0000   -0.0000    0.0000

               lamina:  3     
              matName:  (web-shell)
                     s           e11           e22           e12           s11           s22           s12   s11_fcT   s11_fcC   s22_fcT   s22_fcC   s12_fcS
                   (m)         (m/m)         (m/m)         (rad)          (Pa)          (Pa)          (Pa)       (-)       (-)       (-)       (-)       (-)
                0.0000  -3.7460e-006   1.6445e-006   1.0922e-005  -5.4577e+004  -4.2660e+003   1.3107e+005    0.0000    0.0003    0.0000    0.0000    0.0015
                0.0303  -3.4872e-006   1.5301e-006   1.1034e-005  -5.0813e+004  -3.9859e+003   1.3241e+005    0.0000    0.0002    0.0000    0.0000    0.0015
                0.0606  -3.2284e-006   1.4157e-006   1.1139e-005  -4.7050e+004  -3.7059e+003   1.3367e+005    0.0000    0.0002    0.0000    0.0000    0.0015
                0.0908  -2.9695e-006   1.3012e-006   1.1236e-005  -4.3287e+004  -3.4258e+003   1.3484e+005    0.0000    0.0002    0.0000    0.0000    0.0015
                0.1211  -2.7107e-006   1.1868e-006   1.1327e-005  -3.9523e+004  -3.1457e+003   1.3592e+005    0.0000    0.0002    0.0000    0.0000    0.0015
                0.1514  -2.4519e-006   1.0724e-006   1.1409e-005  -3.5760e+004  -2.8656e+003   1.3691e+005    0.0000    0.0002    0.0000    0.0000    0.0015
                0.1817  -2.1931e-006   9.5804e-007   1.1485e-005  -3.1996e+004  -2.5856e+003   1.3781e+005    0.0000    0.0002    0.0000    0.0000    0.0015
                0.2119  -1.9343e-006   8.4363e-007   1.1552e-005  -2.8233e+004  -2.3055e+003   1.3863e+005    0.0000    0.0001    0.0000    0.0000    0.0015
                0.2422  -1.6755e-006   7.2923e-007   1.1613e-005  -2.4469e+004  -2.0254e+003   1.3936e+005    0.0000    0.0001    0.0000    0.0000    0.0015
                0.2725  -1.4167e-006   6.1483e-007   1.1666e-005  -2.0706e+004  -1.7454e+003   1.4000e+005    0.0000    0.0001    0.0000    0.0000    0.0016

================================================================================
sec        =  32     
zSec       =  97.8000  (m)
nPanelsTop =  1      
nPanelsBot =  1      
nWebs      =  0      

    Top:  panel  nNode   nLam     xc_St    xc_End         b         t         E_eff         G_eff      nu_eff     density  buckleCrit
            (-)    (-)    (-)       (-)       (-)       (m)       (m)          (Pa)          (Pa)         (-)    (kg/m^3)         (-)
              1     31      1    0.0000    1.0000    1.6236    0.0100   2.8000e+010   7.0000e+009      0.4000   1850.0000      0.0001

            panel:  1     
           lam_num    nPlies        tPly      fibAng     matID  matName
               (-)       (-)         (m)       (deg)       (-)  (-)
                 1         1    0.010000      0.0000         2  (blade-shell)

               lamina:  1     
              matName:  (blade-shell)
                     s           e11           e22           e12           s11           s22           s12   s11_fcT   s11_fcC   s22_fcT   s22_fcC   s12_fcS
                   (m)         (m/m)         (m/m)         (rad)          (Pa)          (Pa)          (Pa)       (-)       (-)       (-)       (-)       (-)
                0.0000   3.0956e-006  -1.2383e-006   7.2825e-007   8.6678e+004   0.0000e+000   5.0978e+003    0.0006   -0.0000    0.0000   -0.0000    0.0001
                0.0248   2.8720e-006  -1.1488e-006   1.0414e-006   8.0416e+004  -3.6380e-012   7.2900e+003    0.0006   -0.0000    0.0000    0.0000    0.0001
                0.0442   2.7444e-006  -1.0978e-006   1.2708e-006   7.6843e+004   0.0000e+000   8.8958e+003    0.0005   -0.0000    0.0000   -0.0000    0.0001
                0.0704   2.5665e-006  -1.0266e-006   1.5625e-006   7.1861e+004  -1.8190e-012   1.0937e+004    0.0005   -0.0000    0.0000    0.0000    0.0002
                0.1043   2.3389e-006  -9.3555e-007   1.9067e-006   6.5489e+004  -1.8190e-012   1.3347e+004    0.0005   -0.0000    0.0000    0.0000    0.0002
                0.1452   2.0770e-006  -8.3081e-007   2.2781e-006   5.8157e+004   0.0000e+000   1.5947e+004    0.0004   -0.0000    0.0000   -0.0000    0.0003
                0.1925   1.7911e-006  -7.1642e-007   2.6518e-006   5.0149e+004   1.8190e-012   1.8563e+004    0.0003   -0.0000    0.0000   -0.0000    0.0003
                0.2462   1.4839e-006  -5.9357e-007   3.0057e-006   4.1550e+004   0.0000e+000   2.1040e+004    0.0003   -0.0000    0.0000   -0.0000    0.0004
                0.3055   1.1623e-006  -4.6493e-007   3.3166e-006   3.2545e+004   0.0000e+000   2.3216e+004    0.0002   -0.0000    0.0000   -0.0000    0.0004
                0.3699   8.3428e-007  -3.3371e-007   3.5638e-006   2.3360e+004   0.0000e+000   2.4947e+004    0.0002   -0.0000    0.0000   -0.0000    0.0004
                0.4388   5.0384e-007  -2.0154e-007   3.7307e-006   1.4108e+004   2.2737e-013   2.6115e+004    0.0001   -0.0000    0.0000   -0.0000    0.0004
                0.5116   1.7677e-007  -7.0707e-008   3.8040e-006   4.9495e+003  -5.6843e-014   2.6628e+004    0.0000   -0.0000    0.0000    0.0000    0.0004
                0.5874  -3.5583e-007   1.4233e-007   3.7758e-006  -9.9633e+003  -9.0949e-013   2.6431e+004    0.0000    0.0000    0.0000    0.0000    0.0004
                0.6656  -6.5447e-007   2.6179e-007   3.6448e-006  -1.8325e+004  -4.5475e-013   2.5514e+004    0.0000    0.0001    0.0000    0.0000    0.0004
                0.7457  -9.2274e-007   3.6910e-007   3.4151e-006  -2.5837e+004   1.8190e-012   2.3905e+004    0.0000    0.0001    0.0000   -0.0000    0.0004
                0.8270  -1.1612e-006   4.6449e-007   3.0948e-006  -3.2514e+004  -9.0949e-013   2.1664e+004    0.0000    0.0002    0.0000    0.0000    0.0004
                0.9087  -1.3758e-006   5.5031e-007   2.6947e-006  -3.8522e+004  -1.8190e-012   1.8863e+004    0.0000    0.0002    0.0000    0.0000    0.0003
                0.9900  -1.5663e-006   6.2651e-007   2.2270e-006  -4.3855e+004   1.8190e-012   1.5589e+004    0.0000    0.0002    0.0000   -0.0000    0.0003
                1.0700  -1.7354e-006   6.9416e-007   1.7061e-006  -4.8591e+004   0.0000e+000   1.1943e+004    0.0000    0.0002    0.0000   -0.0000    0.0002
                1.1476  -1.8869e-006   7.5477e-007   1.1476e-006  -5.2834e+004   1.8190e-012   8.0334e+003    0.0000    0.0002    0.0000   -0.0000    0.0001
                1.2220  -2.0202e-006   8.0809e-007   5.6706e-007  -5.6566e+004   3.6380e-012   3.9694e+003    0.0000    0.0003    0.0000   -0.0000    0.0001
                1.2923  -2.1400e-006   8.5599e-007   1.8790e-008  -5.9919e+004  -1.8190e-012   1.3153e+002    0.0000    0.0003    0.0000    0.0000    0.0000
                1.3575  -2.2470e-006   8.9880e-007   5.9433e-007  -6.2916e+004   1.8190e-012   4.1603e+003    0.0000    0.0003    0.0000   -0.0000    0.0001
                1.4170  -2.3428e-006   9.3713e-007   1.1443e-006  -6.5599e+004   1.8190e-012   8.0099e+003    0.0000    0.0003    0.0000   -0.0000    0.0001
                1.4699  -2.4282e-006   9.7126e-007   1.6542e-006  -6.7988e+004   1.8190e-012   1.1579e+004    0.0000    0.0003    0.0000   -0.0000    0.0002
                1.5157  -2.5027e-006   1.0011e-006   2.1107e-006  -7.0075e+004   0.0000e+000   1.4775e+004    0.0000    0.0003    0.0000   -0.0000    0.0002
                1.5539  -2.5626e-006   1.0250e-006   2.5026e-006  -7.1753e+004   3.6380e-012   1.7518e+004    0.0000    0.0003    0.0000   -0.0000    0.0003
                1.5841  -2.6068e-006   1.0427e-006   2.8200e-006  -7.2991e+004   1.8190e-012   1.9740e+004    0.0000    0.0003    0.0000   -0.0000    0.0003
                1.6060  -2.6408e-006   1.0563e-006   3.0530e-006  -7.3941e+004   3.6380e-012   2.1371e+004    0.0000    0.0003    0.0000   -0.0000    0.0004
                1.6192  -2.6636e-006   1.0654e-006   3.1950e-006  -7.4580e+004   1.8190e-012   2.2365e+004    0.0000    0.0004    0.0000   -0.0000    0.0004
                1.6236  -2.6714e-006   1.0686e-006   3.2427e-006  -7.4800e+004  -1.8190e-012   2.2699e+004    0.0000    0.0004    0.0000    0.0000    0.0004

  Bottom:  panel  nNode   nLam     xc_St    xc_End         b         t         E_eff         G_eff      nu_eff     density  buckleCrit
            (-)    (-)    (-)       (-)       (-)       (m)       (m)          (Pa)          (Pa)         (-)    (kg/m^3)         (-)
              1     31      1    0.0000    1.0000    1.5740    0.0100   2.8000e+010   7.0000e+009      0.4000   1850.0000      0.0001

            panel:  1     
           lam_num    nPlies        tPly      fibAng     matID  matName
               (-)       (-)         (m)       (deg)       (-)  (-)
                 1         1    0.010000      0.0000         2  (blade-shell)

               lamina:  1     
              matName:  (blade-shell)
                     s           e11           e22           e12           s11           s22           s12   s11_fcT   s11_fcC   s22_fcT   s22_fcC   s12_fcS
                   (m)         (m/m)         (m/m)         (rad)          (Pa)          (Pa)          (Pa)       (-)       (-)       (-)       (-)       (-)
                0.0000   3.1371e-006  -1.2548e-006   7.2825e-007   8.7838e+004   0.0000e+000   5.0978e+003    0.0006   -0.0000    0.0000   -0.0000    0.0001
                0.0088   3.1973e-006  -1.2789e-006   6.1328e-007   8.9525e+004  -3.6380e-012   4.2930e+003    0.0006   -0.0000    0.0000    0.0000    0.0001
                0.0257   3.2563e-006  -1.3025e-006   3.8967e-007   9.1176e+004   0.0000e+000   2.7277e+003    0.0006   -0.0000    0.0000   -0.0000    0.0000
                0.0487   3.2683e-006  -1.3073e-006   8.2513e-008   9.1513e+004  -3.6380e-012   5.7759e+002    0.0006   -0.0000    0.0000    0.0000    0.0000
                0.0790   3.2378e-006  -1.2951e-006   3.2142e-007   9.0659e+004   3.6380e-012   2.2499e+003    0.0006   -0.0000    0.0000   -0.0000    0.0000
                0.1168   3.1759e-006  -1.2704e-006   8.1886e-007   8.8926e+004  -3.6380e-012   5.7320e+003    0.0006   -0.0000    0.0000    0.0000    0.0001
                0.1617   3.0797e-006  -1.2319e-006   1.3939e-006   8.6232e+004   0.0000e+000   9.7575e+003    0.0006   -0.0000    0.0000   -0.0000    0.0002
                0.2133   2.9519e-006  -1.1808e-006   2.0305e-006   8.2654e+004   0.0000e+000   1.4214e+004    0.0006   -0.0000    0.0000   -0.0000    0.0002
                0.2710   2.7942e-006  -1.1177e-006   2.7084e-006   7.8237e+004  -3.6380e-012   1.8959e+004    0.0005   -0.0000    0.0000    0.0000    0.0003
                0.3343   2.6070e-006  -1.0428e-006   3.4052e-006   7.2997e+004   1.8190e-012   2.3837e+004    0.0005   -0.0000    0.0000   -0.0000    0.0004
                0.4025   2.3901e-006  -9.5605e-007   4.0974e-006   6.6924e+004   1.8190e-012   2.8682e+004    0.0005   -0.0000    0.0000   -0.0000    0.0005
                0.4748   2.1461e-006  -8.5846e-007   4.7614e-006   6.0092e+004  -1.8190e-012   3.3330e+004    0.0004   -0.0000    0.0000    0.0000    0.0006
                0.5505   1.8730e-006  -7.4922e-007   5.3735e-006   5.2445e+004  -1.8190e-012   3.7614e+004    0.0004   -0.0000    0.0000    0.0000    0.0006
                0.6289   1.5690e-006  -6.2759e-007   5.9111e-006   4.3931e+004   0.0000e+000   4.1378e+004    0.0003   -0.0000    0.0000   -0.0000    0.0007
                0.7092   1.2305e-006  -4.9218e-007   6.3532e-006   3.4453e+004  -9.0949e-013   4.4472e+004    0.0002   -0.0000    0.0000    0.0000    0.0007
                0.7907   8.6685e-007  -3.4674e-007   6.6808e-006   2.4272e+004  -1.3642e-012   4.6766e+004    0.0002   -0.0000    0.0000    0.0000    0.0008
                0.8725   4.9062e-007  -1.9625e-007   6.8813e-006   1.3737e+004  -4.5475e-013   4.8169e+004    0.0001   -0.0000    0.0000    0.0000    0.0008
                0.9535   1.1042e-007  -4.4166e-008   6.9497e-006   3.0916e+003  -2.2737e-013   4.8648e+004    0.0000   -0.0000    0.0000    0.0000    0.0008
                1.0329  -4.7056e-007   1.8822e-007   6.8890e-006  -1.3176e+004   4.5475e-013   4.8223e+004    0.0000    0.0001    0.0000   -0.0000    0.0008
                1.1097  -8.3462e-007   3.3385e-007   6.7093e-006  -2.3369e+004   9.0949e-013   4.6965e+004    0.0000    0.0001    0.0000   -0.0000    0.0008
                1.1829  -1.1795e-006   4.7180e-007   6.4275e-006  -3.3026e+004   9.0949e-013   4.4992e+004    0.0000    0.0002    0.0000   -0.0000    0.0007
                1.2518  -1.4993e-006   5.9974e-007   6.0651e-006  -4.1982e+004   9.0949e-013   4.2456e+004    0.0000    0.0002    0.0000   -0.0000    0.0007
                1.3155  -1.7867e-006   7.1469e-007   5.6480e-006  -5.0029e+004   1.8190e-012   3.9536e+004    0.0000    0.0002    0.0000   -0.0000    0.0007
                1.3734  -2.0374e-006   8.1495e-007   5.2034e-006  -5.7047e+004  -1.8190e-012   3.6424e+004    0.0000    0.0003    0.0000    0.0000    0.0006
                1.4248  -2.2517e-006   9.0066e-007   4.7577e-006  -6.3046e+004   1.8190e-012   3.3304e+004    0.0000    0.0003    0.0000   -0.0000    0.0006
                1.4693  -2.4268e-006   9.7072e-007   4.3353e-006  -6.7951e+004   1.8190e-012   3.0347e+004    0.0000    0.0003    0.0000   -0.0000    0.0005
                1.5065  -2.5578e-006   1.0231e-006   3.9585e-006  -7.1620e+004   3.6380e-012   2.7709e+004    0.0000    0.0003    0.0000   -0.0000    0.0005
                1.5360  -2.6496e-006   1.0598e-006   3.6459e-006  -7.4187e+004  -3.6380e-012   2.5521e+004    0.0000    0.0003    0.0000    0.0000    0.0004
                1.5575  -2.7060e-006   1.0824e-006   3.4113e-006  -7.5769e+004  -3.6380e-012   2.3879e+004    0.0000    0.0004    0.0000    0.0000    0.0004
                1.5704  -2.7336e-006   1.0934e-006   3.2689e-006  -7.6540e+004   1.8190e-012   2.2883e+004    0.0000    0.0004    0.0000   -0.0000    0.0004
                1.5740  -2.7407e-006   1.0963e-006   3.2287e-006  -7.6740e+004  -3.6380e-012   2.2601e+004    0.0000    0.0004    0.0000    0.0000    0.0004

     Web:  panel  nNode   nLam     xc_St    xc_End         b         t         E_eff         G_eff      nu_eff     density  buckleCrit
            (-)    (-)    (-)       (-)       (-)       (m)       (m)          (Pa)          (Pa)         (-)    (kg/m^3)         (-)

================================================================================
sec        =  33     
zSec       =  99.5000  (m)
nPanelsTop =  1      
nPanelsBot =  1      
nWebs      =  0      

    Top:  panel  nNode   nLam     xc_St    xc_End         b         t         E_eff         G_eff      nu_eff     density  buckleCrit
            (-)    (-)    (-)       (-)       (-)       (m)       (m)          (Pa)          (Pa)         (-)    (kg/m^3)         (-)
              1     31      1    0.0000    1.0000    0.5540    0.0100   2.8000e+010   7.0000e+009      0.4000   1850.0000      0.0000

            panel:  1     
           lam_num    nPlies        tPly      fibAng     matID  matName
               (-)       (-)         (m)       (deg)       (-)  (-)
                 1         1    0.010000      0.0000         2  (blade-shell)

               lamina:  1     
              matName:  (blade-shell)
                     s           e11           e22           e12           s11           s22           s12   s11_fcT   s11_fcC   s22_fcT   s22_fcC   s12_fcS
                   (m)         (m/m)         (m/m)         (rad)          (Pa)          (Pa)          (Pa)       (-)       (-)       (-)       (-)       (-)
                0.0000   5.9744e-007  -2.3897e-007   1.4673e-007   1.6728e+004  -9.0949e-013   1.0271e+003    0.0001   -0.0000    0.0000    0.0000    0.0000
                0.0079   5.4131e-007  -2.1652e-007   2.1717e-007   1.5157e+004   4.5475e-013   1.5202e+003    0.0001   -0.0000    0.0000   -0.0000    0.0000
                0.0132   5.4306e-007  -2.1722e-007   2.6246e-007   1.5206e+004  -4.5475e-013   1.8372e+003    0.0001   -0.0000    0.0000    0.0000    0.0000
                0.0217   5.1677e-007  -2.0671e-007   3.2943e-007   1.4470e+004   9.0949e-013   2.3060e+003    0.0001   -0.0000    0.0000   -0.0000    0.0000
                0.0330   4.7574e-007  -1.9029e-007   4.1110e-007   1.3321e+004   4.5475e-013   2.8777e+003    0.0001   -0.0000    0.0000   -0.0000    0.0000
                0.0468   4.2673e-007  -1.7069e-007   4.9947e-007   1.1948e+004  -4.5475e-013   3.4963e+003    0.0001   -0.0000    0.0000    0.0000    0.0001
                0.0629   3.7229e-007  -1.4891e-007   5.8803e-007   1.0424e+004  -4.5475e-013   4.1162e+003    0.0001   -0.0000    0.0000    0.0000    0.0001
                0.0812   3.1321e-007  -1.2528e-007   6.7110e-007   8.7699e+003  -2.2737e-013   4.6977e+003    0.0001   -0.0000    0.0000    0.0000    0.0001
                0.1014   2.5142e-007  -1.0057e-007   7.4267e-007   7.0398e+003   2.2737e-013   5.1987e+003    0.0000   -0.0000    0.0000   -0.0000    0.0001
                0.1235   1.8866e-007  -7.5463e-008   7.9768e-007   5.2824e+003  -4.5475e-013   5.5837e+003    0.0000   -0.0000    0.0000    0.0000    0.0001
                0.1471   1.2571e-007  -5.0286e-008   8.3211e-007   3.5200e+003   1.1369e-013   5.8248e+003    0.0000   -0.0000    0.0000   -0.0000    0.0001
                0.1720  -7.3627e-008   2.9451e-008   8.4289e-007  -2.0616e+003   5.6843e-014   5.9002e+003    0.0000    0.0000    0.0000   -0.0000    0.0001
                0.1979  -1.3558e-007   5.4230e-008   8.2846e-007  -3.7961e+003  -1.4211e-014   5.7992e+003    0.0000    0.0000    0.0000    0.0000    0.0001
                0.2247  -1.9237e-007   7.6947e-008   7.8894e-007  -5.3863e+003  -1.7053e-013   5.5226e+003    0.0000    0.0000    0.0000    0.0000    0.0001
                0.2521  -2.4208e-007   9.6834e-008   7.2585e-007  -6.7784e+003   2.2737e-013   5.0810e+003    0.0000    0.0000    0.0000   -0.0000    0.0001
                0.2799  -2.8489e-007   1.1396e-007   6.4163e-007  -7.9770e+003   1.1369e-013   4.4914e+003    0.0000    0.0000    0.0000   -0.0000    0.0001
                0.3080  -3.2228e-007   1.2891e-007   5.3930e-007  -9.0239e+003   4.5475e-013   3.7751e+003    0.0000    0.0000    0.0000   -0.0000    0.0001
                0.3359  -3.5438e-007   1.4175e-007   4.2222e-007  -9.9225e+003   0.0000e+000   2.9556e+003    0.0000    0.0000    0.0000   -0.0000    0.0000
                0.3633  -3.8190e-007   1.5276e-007   2.9408e-007  -1.0693e+004   0.0000e+000   2.0586e+003    0.0000    0.0001    0.0000   -0.0000    0.0000
                0.3900  -4.0582e-007   1.6233e-007   1.5878e-007  -1.1363e+004   4.5475e-013   1.1115e+003    0.0000    0.0001    0.0000   -0.0000    0.0000
                0.4156  -4.2612e-007   1.7045e-007   2.0004e-008  -1.1931e+004   0.0000e+000   1.4003e+002    0.0000    0.0001    0.0000   -0.0000    0.0000
                0.4398  -4.4394e-007   1.7757e-007   1.1842e-007  -1.2430e+004   0.0000e+000   8.2895e+002    0.0000    0.0001    0.0000   -0.0000    0.0000
                0.4622  -4.5956e-007   1.8383e-007   2.5301e-007  -1.2868e+004  -4.5475e-013   1.7711e+003    0.0000    0.0001    0.0000    0.0000    0.0000
                0.4827  -4.7342e-007   1.8937e-007   3.8049e-007  -1.3256e+004   4.5475e-013   2.6635e+003    0.0000    0.0001    0.0000   -0.0000    0.0000
                0.5009  -4.8576e-007   1.9430e-007   4.9784e-007  -1.3601e+004   0.0000e+000   3.4849e+003    0.0000    0.0001    0.0000   -0.0000    0.0001
                0.5167  -4.9660e-007   1.9864e-007   6.0216e-007  -1.3905e+004   4.5475e-013   4.2151e+003    0.0000    0.0001    0.0000   -0.0000    0.0001
                0.5298  -5.0517e-007   2.0207e-007   6.9107e-007  -1.4145e+004  -4.5475e-013   4.8375e+003    0.0000    0.0001    0.0000    0.0000    0.0001
                0.5402  -5.1123e-007   2.0449e-007   7.6293e-007  -1.4314e+004  -4.5475e-013   5.3405e+003    0.0000    0.0001    0.0000    0.0000    0.0001
                0.5478  -5.1600e-007   2.0640e-007   8.1591e-007  -1.4448e+004   0.0000e+000   5.7114e+003    0.0000    0.0001    0.0000   -0.0000    0.0001
                0.5524  -5.1936e-007   2.0774e-007   8.4828e-007  -1.4542e+004  -4.5475e-013   5.9380e+003    0.0000    0.0001    0.0000    0.0000    0.0001
                0.5540  -5.2053e-007   2.0821e-007   8.5916e-007  -1.4575e+004   4.5475e-013   6.0141e+003    0.0000    0.0001    0.0000   -0.0000    0.0001

  Bottom:  panel  nNode   nLam     xc_St    xc_End         b         t         E_eff         G_eff      nu_eff     density  buckleCrit
            (-)    (-)    (-)       (-)       (-)       (m)       (m)          (Pa)          (Pa)         (-)    (kg/m^3)         (-)
              1     31      1    0.0000    1.0000    0.5386    0.0100   2.8000e+010   7.0000e+009      0.4000   1850.0000      0.0000

            panel:  1     
           lam_num    nPlies        tPly      fibAng     matID  matName
               (-)       (-)         (m)       (deg)       (-)  (-)
                 1         1    0.010000      0.0000         2  (blade-shell)

               lamina:  1     
              matName:  (blade-shell)
                     s           e11           e22           e12           s11           s22           s12   s11_fcT   s11_fcC   s22_fcT   s22_fcC   s12_fcS
                   (m)         (m/m)         (m/m)         (rad)          (Pa)          (Pa)          (Pa)       (-)       (-)       (-)       (-)       (-)
                0.0000   6.2440e-007  -2.4976e-007   1.4673e-007   1.7483e+004  -4.5475e-013   1.0271e+003    0.0001   -0.0000    0.0000    0.0000    0.0000
                0.0024   6.4264e-007  -2.5706e-007   1.2522e-007   1.7994e+004   9.0949e-013   8.7657e+002    0.0001   -0.0000    0.0000   -0.0000    0.0000
                0.0073   6.6115e-007  -2.6446e-007   7.9702e-008   1.8512e+004   0.0000e+000   5.5791e+002    0.0001   -0.0000    0.0000   -0.0000    0.0000
                0.0144   6.6777e-007  -2.6711e-007   1.2088e-008   1.8698e+004  -4.5475e-013   8.4616e+001    0.0001   -0.0000    0.0000    0.0000    0.0000
                0.0245   6.6475e-007  -2.6590e-007   8.2616e-008   1.8613e+004  -4.5475e-013   5.7831e+002    0.0001   -0.0000    0.0000    0.0000    0.0000
                0.0373   6.5556e-007  -2.6222e-007   2.0215e-007   1.8356e+004   9.0949e-013   1.4151e+003    0.0001   -0.0000    0.0000   -0.0000    0.0000
                0.0526   6.3966e-007  -2.5586e-007   3.4192e-007   1.7910e+004   4.5475e-013   2.3935e+003    0.0001   -0.0000    0.0000   -0.0000    0.0000
                0.0703   6.1766e-007  -2.4706e-007   4.9807e-007   1.7294e+004  -4.5475e-013   3.4865e+003    0.0001   -0.0000    0.0000    0.0000    0.0001
                0.0900   5.8985e-007  -2.3594e-007   6.6552e-007   1.6516e+004  -4.5475e-013   4.6587e+003    0.0001   -0.0000    0.0000    0.0000    0.0001
                0.1118   5.5624e-007  -2.2250e-007   8.3874e-007   1.5575e+004  -4.5475e-013   5.8712e+003    0.0001   -0.0000    0.0000    0.0000    0.0001
                0.1352   5.1668e-007  -2.0667e-007   1.0120e-006   1.4467e+004   4.5475e-013   7.0838e+003    0.0001   -0.0000    0.0000   -0.0000    0.0001
                0.1600   4.7163e-007  -1.8865e-007   1.1793e-006   1.3206e+004  -4.5475e-013   8.2550e+003    0.0001   -0.0000    0.0000    0.0000    0.0001
                0.1860   4.2049e-007  -1.6820e-007   1.3347e-006   1.1774e+004  -2.2737e-013   9.3429e+003    0.0001   -0.0000    0.0000    0.0000    0.0002
                0.2128   3.6269e-007  -1.4507e-007   1.4724e-006   1.0155e+004   4.5475e-013   1.0307e+004    0.0001   -0.0000    0.0000   -0.0000    0.0002
                0.2403   2.9743e-007  -1.1897e-007   1.5871e-006   8.3280e+003   1.1369e-013   1.1110e+004    0.0001   -0.0000    0.0000   -0.0000    0.0002
                0.2683   2.2687e-007  -9.0749e-008   1.6739e-006   6.3524e+003  -2.2737e-013   1.1717e+004    0.0000   -0.0000    0.0000    0.0000    0.0002
                0.2964   1.5367e-007  -6.1466e-008   1.7291e-006   4.3026e+003  -1.1369e-013   1.2104e+004    0.0000   -0.0000    0.0000    0.0000    0.0002
                0.3243   7.9570e-008  -3.1828e-008   1.7512e-006   2.2280e+003   5.6843e-014   1.2258e+004    0.0000   -0.0000    0.0000   -0.0000    0.0002
                0.3517  -1.2721e-007   5.0882e-008   1.7408e-006  -3.5617e+003   3.5527e-014   1.2186e+004    0.0000    0.0000    0.0000   -0.0000    0.0002
                0.3781  -1.9819e-007   7.9277e-008   1.7002e-006  -5.5494e+003   5.6843e-014   1.1902e+004    0.0000    0.0000    0.0000   -0.0000    0.0002
                0.4034  -2.6556e-007   1.0622e-007   1.6336e-006  -7.4357e+003   2.2737e-013   1.1436e+004    0.0000    0.0000    0.0000   -0.0000    0.0002
                0.4272  -3.2815e-007   1.3126e-007   1.5464e-006  -9.1882e+003   0.0000e+000   1.0825e+004    0.0000    0.0000    0.0000   -0.0000    0.0002
                0.4492  -3.8440e-007   1.5376e-007   1.4449e-006  -1.0763e+004   0.0000e+000   1.0115e+004    0.0000    0.0001    0.0000   -0.0000    0.0002
                0.4692  -4.3327e-007   1.7331e-007   1.3362e-006  -1.2132e+004   4.5475e-013   9.3534e+003    0.0000    0.0001    0.0000   -0.0000    0.0002
                0.4870  -4.7498e-007   1.8999e-007   1.2268e-006  -1.3299e+004   2.2737e-013   8.5876e+003    0.0000    0.0001    0.0000   -0.0000    0.0001
                0.5025  -5.0923e-007   2.0369e-007   1.1226e-006  -1.4258e+004  -9.0949e-013   7.8579e+003    0.0000    0.0001    0.0000    0.0000    0.0001
                0.5155  -5.3475e-007   2.1390e-007   1.0291e-006  -1.4973e+004   4.5475e-013   7.2040e+003    0.0000    0.0001    0.0000   -0.0000    0.0001
                0.5258  -5.5237e-007   2.2095e-007   9.5140e-007  -1.5466e+004  -4.5475e-013   6.6598e+003    0.0000    0.0001    0.0000    0.0000    0.0001
                0.5334  -5.6295e-007   2.2518e-007   8.9288e-007  -1.5762e+004  -4.5475e-013   6.2502e+003    0.0000    0.0001    0.0000    0.0000    0.0001
                0.5378  -5.6719e-007   2.2688e-007   8.5863e-007  -1.5881e+004  -4.5475e-013   6.0104e+003    0.0000    0.0001    0.0000    0.0000    0.0001
                0.5386  -5.6583e-007   2.2633e-007   8.5222e-007  -1.5843e+004   4.5475e-013   5.9655e+003    0.0000    0.0001    0.0000   -0.0000    0.0001

     Web:  panel  nNode   nLam     xc_St    xc_End         b         t         E_eff         G_eff      nu_eff     density  buckleCrit
            (-)    (-)    (-)       (-)       (-)       (m)       (m)          (Pa)          (Pa)         (-)    (kg/m^3)         (-)

================================================================================
sec        =  34     
zSec       =  100.0000  (m)
nPanelsTop =  1      
nPanelsBot =  1      
nWebs      =  0      

    Top:  panel  nNode   nLam     xc_St    xc_End         b         t         E_eff         G_eff      nu_eff     density  buckleCrit
            (-)    (-)    (-)       (-)       (-)       (m)       (m)          (Pa)          (Pa)         (-)    (kg/m^3)         (-)
              1     31      1    0.0000    1.0000    0.0981    0.0100   2.8000e+010   7.0000e+009      0.4000   1850.0000      0.0000

            panel:  1     
           lam_num    nPlies        tPly      fibAng     matID  matName
               (-)       (-)         (m)       (deg)       (-)  (-)
                 1         1    0.010000      0.0000         2  (blade-shell)

               lamina:  1     
              matName:  (blade-shell)
                     s           e11           e22           e12           s11           s22           s12   s11_fcT   s11_fcC   s22_fcT   s22_fcC   s12_fcS
                   (m)         (m/m)         (m/m)         (rad)          (Pa)          (Pa)          (Pa)       (-)       (-)       (-)       (-)       (-)
                0.0000   0.0000e+000   0.0000e+000   3.1648e-013   0.0000e+000   0.0000e+000   2.2154e-003    0.0000   -0.0000    0.0000   -0.0000    0.0000
                0.0006   0.0000e+000   0.0000e+000   6.3997e-012   0.0000e+000   0.0000e+000   4.4798e-002    0.0000   -0.0000    0.0000   -0.0000    0.0000
                0.0012   0.0000e+000   0.0000e+000   1.2471e-011   0.0000e+000   0.0000e+000   8.7294e-002    0.0000   -0.0000    0.0000   -0.0000    0.0000
                0.0021   0.0000e+000   0.0000e+000   2.0936e-011   0.0000e+000   0.0000e+000   1.4655e-001    0.0000   -0.0000    0.0000   -0.0000    0.0000
                0.0038   0.0000e+000   0.0000e+000   3.7527e-011   0.0000e+000   0.0000e+000   2.6269e-001    0.0000   -0.0000    0.0000   -0.0000    0.0000
                0.0060   0.0000e+000   0.0000e+000   5.9465e-011   0.0000e+000   0.0000e+000   4.1625e-001    0.0000   -0.0000    0.0000   -0.0000    0.0000
                0.0087   0.0000e+000   0.0000e+000   8.6246e-011   0.0000e+000   0.0000e+000   6.0372e-001    0.0000   -0.0000    0.0000   -0.0000    0.0000
                0.0119   0.0000e+000   0.0000e+000   1.1764e-010   0.0000e+000   0.0000e+000   8.2351e-001    0.0000   -0.0000    0.0000   -0.0000    0.0000
                0.0155   0.0000e+000   0.0000e+000   1.5285e-010   0.0000e+000   0.0000e+000   1.0699e+000    0.0000   -0.0000    0.0000   -0.0000    0.0000
                0.0194   0.0000e+000   0.0000e+000   1.9143e-010   0.0000e+000   0.0000e+000   1.3400e+000    0.0000   -0.0000    0.0000   -0.0000    0.0000
                0.0236   0.0000e+000   0.0000e+000   2.3308e-010   0.0000e+000   0.0000e+000   1.6315e+000    0.0000   -0.0000    0.0000   -0.0000    0.0000
                0.0281   0.0000e+000   0.0000e+000   2.7706e-010   0.0000e+000   0.0000e+000   1.9394e+000    0.0000   -0.0000    0.0000   -0.0000    0.0000
                0.0327   0.0000e+000   0.0000e+000   3.2272e-010   0.0000e+000   0.0000e+000   2.2591e+000    0.0000   -0.0000    0.0000   -0.0000    0.0000
                0.0375   0.0000e+000   0.0000e+000   3.6969e-010   0.0000e+000   0.0000e+000   2.5878e+000    0.0000   -0.0000    0.0000   -0.0000    0.0000
                0.0424   0.0000e+000   0.0000e+000   4.1788e-010   0.0000e+000   0.0000e+000   2.9252e+000    0.0000   -0.0000    0.0000   -0.0000    0.0000
                0.0474   0.0000e+000   0.0000e+000   4.6740e-010   0.0000e+000   0.0000e+000   3.2718e+000    0.0000   -0.0000    0.0000   -0.0000    0.0000
                0.0525   0.0000e+000   0.0000e+000   5.1758e-010   0.0000e+000   0.0000e+000   3.6231e+000    0.0000   -0.0000    0.0000   -0.0000    0.0000
                0.0576   0.0000e+000   0.0000e+000   5.6773e-010   0.0000e+000   0.0000e+000   3.9741e+000    0.0000   -0.0000    0.0000   -0.0000    0.0000
                0.0626   0.0000e+000   0.0000e+000   6.1737e-010   0.0000e+000   0.0000e+000   4.3216e+000    0.0000   -0.0000    0.0000   -0.0000    0.0000
                0.0675   0.0000e+000   0.0000e+000   6.6572e-010   0.0000e+000   0.0000e+000   4.6600e+000    0.0000   -0.0000    0.0000   -0.0000    0.0000
                0.0722   0.0000e+000   0.0000e+000   7.1227e-010   0.0000e+000   0.0000e+000   4.9859e+000    0.0000   -0.0000    0.0000   -0.0000    0.0000
                0.0767   0.0000e+000   0.0000e+000   7.5645e-010   0.0000e+000   0.0000e+000   5.2951e+000    0.0000   -0.0000    0.0000   -0.0000    0.0000
                0.0809   0.0000e+000   0.0000e+000   7.9761e-010   0.0000e+000   0.0000e+000   5.5833e+000    0.0000   -0.0000    0.0000   -0.0000    0.0000
                0.0847   0.0000e+000   0.0000e+000   8.3527e-010   0.0000e+000   0.0000e+000   5.8469e+000    0.0000   -0.0000    0.0000   -0.0000    0.0000
                0.0881   0.0000e+000   0.0000e+000   8.6889e-010   0.0000e+000   0.0000e+000   6.0823e+000    0.0000   -0.0000    0.0000   -0.0000    0.0000
                0.0911   0.0000e+000   0.0000e+000   8.9781e-010   0.0000e+000   0.0000e+000   6.2847e+000    0.0000   -0.0000    0.0000   -0.0000    0.0000
                0.0935   0.0000e+000   0.0000e+000   9.2159e-010   0.0000e+000   0.0000e+000   6.4511e+000    0.0000   -0.0000    0.0000   -0.0000    0.0000
                0.0954   0.0000e+000   0.0000e+000   9.4074e-010   0.0000e+000   0.0000e+000   6.5852e+000    0.0000   -0.0000    0.0000   -0.0000    0.0000
                0.0969   0.0000e+000   0.0000e+000   9.5540e-010   0.0000e+000   0.0000e+000   6.6878e+000    0.0000   -0.0000    0.0000   -0.0000    0.0000
                0.0978   0.0000e+000   0.0000e+000   9.6453e-010   0.0000e+000   0.0000e+000   6.7517e+000    0.0000   -0.0000    0.0000   -0.0000    0.0000
                0.0981   0.0000e+000   0.0000e+000   9.6759e-010   0.0000e+000   0.0000e+000   6.7732e+000    0.0000   -0.0000    0.0000   -0.0000    0.0000

  Bottom:  panel  nNode   nLam     xc_St    xc_End         b         t         E_eff         G_eff      nu_eff     density  buckleCrit
            (-)    (-)    (-)       (-)       (-)       (m)       (m)          (Pa)          (Pa)         (-)    (kg/m^3)         (-)
              1     31      1    0.0000    1.0000    0.0982    0.0100   2.8000e+010   7.0000e+009      0.4000   1850.0000      0.0000

            panel:  1     
           lam_num    nPlies        tPly      fibAng     matID  matName
               (-)       (-)         (m)       (deg)       (-)  (-)
                 1         1    0.010000      0.0000         2  (blade-shell)

               lamina:  1     
              matName:  (blade-shell)
                     s           e11           e22           e12           s11           s22           s12   s11_fcT   s11_fcC   s22_fcT   s22_fcC   s12_fcS
                   (m)         (m/m)         (m/m)         (rad)          (Pa)          (Pa)          (Pa)       (-)       (-)       (-)       (-)       (-)
                0.0000   0.0000e+000   0.0000e+000   3.1648e-013   0.0000e+000   0.0000e+000   2.2154e-003    0.0000   -0.0000    0.0000   -0.0000    0.0000
                0.0004   0.0000e+000   0.0000e+000   3.8652e-012   0.0000e+000   0.0000e+000   2.7057e-002    0.0000   -0.0000    0.0000   -0.0000    0.0000
                0.0006   0.0000e+000   0.0000e+000   6.0388e-012   0.0000e+000   0.0000e+000   4.2271e-002    0.0000   -0.0000    0.0000   -0.0000    0.0000
                0.0011   0.0000e+000   0.0000e+000   1.0429e-011   0.0000e+000   0.0000e+000   7.3003e-002    0.0000   -0.0000    0.0000   -0.0000    0.0000
                0.0025   0.0000e+000   0.0000e+000   2.4276e-011   0.0000e+000   0.0000e+000   1.6994e-001    0.0000   -0.0000    0.0000   -0.0000    0.0000
                0.0046   0.0000e+000   0.0000e+000   4.5119e-011   0.0000e+000   0.0000e+000   3.1583e-001    0.0000   -0.0000    0.0000   -0.0000    0.0000
                0.0073   0.0000e+000   0.0000e+000   7.1202e-011   0.0000e+000   0.0000e+000   4.9842e-001    0.0000   -0.0000    0.0000   -0.0000    0.0000
                0.0104   0.0000e+000   0.0000e+000   1.0222e-010   0.0000e+000   0.0000e+000   7.1551e-001    0.0000   -0.0000    0.0000   -0.0000    0.0000
                0.0140   0.0000e+000   0.0000e+000   1.3746e-010   0.0000e+000   0.0000e+000   9.6219e-001    0.0000   -0.0000    0.0000   -0.0000    0.0000
                0.0179   0.0000e+000   0.0000e+000   1.7629e-010   0.0000e+000   0.0000e+000   1.2340e+000    0.0000   -0.0000    0.0000   -0.0000    0.0000
                0.0222   0.0000e+000   0.0000e+000   2.1831e-010   0.0000e+000   0.0000e+000   1.5282e+000    0.0000   -0.0000    0.0000   -0.0000    0.0000
                0.0267   0.0000e+000   0.0000e+000   2.6295e-010   0.0000e+000   0.0000e+000   1.8406e+000    0.0000   -0.0000    0.0000   -0.0000    0.0000
                0.0314   0.0000e+000   0.0000e+000   3.0947e-010   0.0000e+000   0.0000e+000   2.1663e+000    0.0000   -0.0000    0.0000   -0.0000    0.0000
                0.0363   0.0000e+000   0.0000e+000   3.5730e-010   0.0000e+000   0.0000e+000   2.5011e+000    0.0000   -0.0000    0.0000   -0.0000    0.0000
                0.0413   0.0000e+000   0.0000e+000   4.0639e-010   0.0000e+000   0.0000e+000   2.8447e+000    0.0000   -0.0000    0.0000   -0.0000    0.0000
                0.0464   0.0000e+000   0.0000e+000   4.5681e-010   0.0000e+000   0.0000e+000   3.1977e+000    0.0000   -0.0000    0.0000   -0.0000    0.0000
                0.0516   0.0000e+000   0.0000e+000   5.0791e-010   0.0000e+000   0.0000e+000   3.5554e+000    0.0000   -0.0000    0.0000   -0.0000    0.0000
                0.0567   0.0000e+000   0.0000e+000   5.5887e-010   0.0000e+000   0.0000e+000   3.9121e+000    0.0000   -0.0000    0.0000   -0.0000    0.0000
                0.0618   0.0000e+000   0.0000e+000   6.0906e-010   0.0000e+000   0.0000e+000   4.2634e+000    0.0000   -0.0000    0.0000   -0.0000    0.0000
                0.0668   0.0000e+000   0.0000e+000   6.5790e-010   0.0000e+000   0.0000e+000   4.6053e+000    0.0000   -0.0000    0.0000   -0.0000    0.0000
                0.0715   0.0000e+000   0.0000e+000   7.0475e-010   0.0000e+000   0.0000e+000   4.9333e+000    0.0000   -0.0000    0.0000   -0.0000    0.0000
                0.0760   0.0000e+000   0.0000e+000   7.4917e-010   0.0000e+000   0.0000e+000   5.2442e+000    0.0000   -0.0000    0.0000   -0.0000    0.0000
                0.0802   0.0000e+000   0.0000e+000   7.9065e-010   0.0000e+000   0.0000e+000   5.5346e+000    0.0000   -0.0000    0.0000   -0.0000    0.0000
                0.0841   0.0000e+000   0.0000e+000   8.2850e-010   0.0000e+000   0.0000e+000   5.7995e+000    0.0000   -0.0000    0.0000   -0.0000    0.0000
                0.0875   0.0000e+000   0.0000e+000   8.6247e-010   0.0000e+000   0.0000e+000   6.0373e+000    0.0000   -0.0000    0.0000   -0.0000    0.0000
                0.0906   0.0000e+000   0.0000e+000   8.9281e-010   0.0000e+000   0.0000e+000   6.2497e+000    0.0000   -0.0000    0.0000   -0.0000    0.0000
                0.0933   0.0000e+000   0.0000e+000   9.1900e-010   0.0000e+000   0.0000e+000   6.4330e+000    0.0000   -0.0000    0.0000   -0.0000    0.0000
                0.0954   0.0000e+000   0.0000e+000   9.4038e-010   0.0000e+000   0.0000e+000   6.5826e+000    0.0000   -0.0000    0.0000   -0.0000    0.0000
                0.0971   0.0000e+000   0.0000e+000   9.5644e-010   0.0000e+000   0.0000e+000   6.6951e+000    0.0000   -0.0000    0.0000   -0.0000    0.0000
                0.0978   0.0000e+000   0.0000e+000   9.6384e-010   0.0000e+000   0.0000e+000   6.7469e+000    0.0000   -0.0000    0.0000   -0.0000    0.0000
                0.0982   0.0000e+000   0.0000e+000   9.6759e-010   0.0000e+000   0.0000e+000   6.7732e+000    0.0000   -0.0000    0.0000   -0.0000    0.0000

     Web:  panel  nNode   nLam     xc_St    xc_End         b         t         E_eff         G_eff      nu_eff     density  buckleCrit
            (-)    (-)    (-)       (-)       (-)       (m)       (m)          (Pa)          (Pa)         (-)    (kg/m^3)         (-)

